12
Family_1 [H]c1c([H])c([H])c([H])c([H])c1[H] | RMSD: 0.3707 | 16510.00 to state    1 from traj    5 on state    2
C       0.33371591     -0.97815650     -0.35962410
C       1.65853616     -0.95296645      0.37506365
C       2.51604707      0.21226049     -0.03231400
C       1.79249519      1.44885065     -0.25260331
C       0.39926488      1.26250297     -0.04044967
C      -0.22899816      0.11244947      0.45799761
H      -0.23004999     -1.41330839     -1.32921614
H       1.87903760     -1.85670541      0.98126032
H       3.60077701      0.10117228     -0.16205599
H       1.84323807      2.51000431     -0.67569957
H      -0.20774699      2.26361349      0.14303601
H      -0.81965006      0.10698078      1.34377738
