12
Family_1 [H]c1c([H])c([H])c([H])c([H])c1[H] | RMSD: 0.4979 | 19610.00 to state    1 from traj    7 on state    2
C       0.37511913     -0.89495959     -0.05914440
C       1.75738009     -0.94930725     -0.06745953
C       2.55269242      0.11414797      0.08078952
C       1.75690174      1.35841585     -0.08119777
C       0.27214245      1.26684692     -0.30807585
C      -0.25464506      0.22627692      0.63729976
H      -0.22413758     -1.19656414     -0.90254942
H       2.29322365     -1.67882531      0.47456526
H       3.56229410      0.06010202      0.11103606
H       2.12019785      2.52343949      0.17065912
H      -0.32079739      1.85559561     -1.01702415
H      -1.22849903     -0.04836316      0.81928192
