12
Family_1 [H]c1c([H])c([H])c([H])c([H])c1[H] | RMSD: 0.4626 | 13290.00 to state    1 from traj    8 on state    2
C       0.31269605     -1.08837896     -0.06089256
C       1.84340385     -0.95455153      0.19240883
C       2.63278388      0.12714611     -0.02029677
C       1.67430358      1.30489574     -0.31890769
C       0.34735806      1.42457298      0.13003471
C      -0.46036531      0.23073270      0.28339875
H       0.65320246     -0.65533281     -1.13441058
H       2.47418868     -1.82003283      0.38708428
H       3.64067657      0.37991367      0.08913994
H       2.17963976      2.09114491     -0.65709219
H      -0.03291498      2.47185808      0.16286194
H      -1.40880914     -0.03461452      0.76628093
