12
Family_1 [H]c1c([H])c([H])c([H])c([H])c1[H] | RMSD: 0.5770 | 14510.00 to state    1 from traj    8 on state    2
C       0.42181832     -1.04178449     -0.00319420
C       1.91833097     -1.07852124      0.01193664
C       2.49073019      0.07578896      0.02481549
C       1.62780821      1.34119315      0.05220944
C       0.19195280      1.47073973     -0.39703120
C      -0.23252299      0.30642593      0.47738679
H      -0.06329570     -1.20424443     -0.92506530
H       2.32717589     -2.04371296      0.16450102
H       3.43913807      0.32200999     -0.25456964
H       2.24543240      2.12889296      0.23263909
H      -0.29645282      2.44888444     -0.37172352
H      -0.95553432      0.43048781      1.24020916
