12
Family_1 [H]c1c([H])c([H])c([H])c([H])c1[H] | RMSD: 0.2530 | 15155.00 to state    1 from traj    2 on state    2
C       0.27376734     -0.96943835     -0.23972797
C       1.71657642     -0.95164581      0.24122518
C       2.56080148      0.21252403     -0.16195989
C       1.75164731      1.35614536     -0.05642555
C       0.36218863      1.27801237     -0.05570643
C      -0.18230546      0.12682334      0.44230147
H      -0.25143591     -1.26339260     -1.11593142
H       1.93170007     -1.36028031      1.28113321
H       3.61809777      0.16757583      0.04383227
H       2.19424378      2.47565092     -0.48568315
H      -0.48797207      2.03196669     -0.58860148
H      -1.07742483      0.28604402      0.90853744
