12
Family_1 [H]c1c([H])c([H])c([H])c([H])c1[H] | RMSD: 0.5135 | 6380.00 to state    1 from traj    5 on state    2
C       0.34893087     -1.10949228      0.01303959
C       1.83130130     -1.06328417      0.19367198
C       2.39242714      0.17973809     -0.11923221
C       1.78284728      1.38801576     -0.14711894
C       0.32002772      1.36645842     -0.00635767
C      -0.36471175      0.25104750      0.28528465
H       0.69175645     -0.80479691     -0.98331069
H       2.75783558     -1.75935863      0.24102622
H       3.55525604      0.32001664     -0.14341915
H       2.32653697      2.31722452     -0.21095558
H      -0.03744675      2.39870689     -0.11232356
H      -1.31898309      0.34165593      0.66148354
