12
Family_1 [H]c1c([H])c([H])c([H])c([H])c1[H] | RMSD: 0.4443 | 5775.00 to state    1 from traj    5 on state    2
C       0.23907780     -1.19060464     -0.23178460
C       1.57131911     -0.95594027      0.24048726
C       2.44132243      0.30184387     -0.11523021
C       1.84408553      1.52833810     -0.11692363
C       0.46973507      1.39638787     -0.03453847
C      -0.13972888      0.05217015      0.31813240
H      -0.08996023     -2.09267189     -0.58610992
H       2.06728969     -1.43393944      1.22413728
H       3.37231588      0.05220207     -0.26147527
H       2.37536279      2.48334075     -0.16315255
H      -0.16681254      2.22748110     -0.10183050
H      -0.95340596      0.15058936      1.23724759
