12
Family_1 [H]c1c([H])c([H])c([H])c([H])c1[H] | RMSD: 0.5848 | 8385.00 to state    1 from traj    5 on state    2
C       0.55616384     -0.86857482     -0.24925437
C       1.79142557     -1.18524221      0.37429225
C       2.41659033      0.18081766      0.02452187
C       1.58644172      1.26238514     -0.27430172
C       0.27101565      1.42314269     -0.03069974
C      -0.27473845      0.27218506      0.36397331
H       0.65562678     -1.02023536     -1.35727608
H       2.40424028     -2.05563534      0.32650320
H       3.23005694      0.10524908     -0.61192879
H       2.22826789      2.22795521     -0.57195119
H      -0.13855420      2.43195355      0.42187804
H      -0.83455334      0.26348969      1.37343802
