12
Family_1 [H]c1c([H])c([H])c([H])c([H])c1[H] | RMSD: 0.2983 | 25365.00 to state    1 from traj    3 on state    2
C       0.25364649     -1.07214489     -0.31636645
C       1.56924041     -0.92140960      0.23007935
C       2.45810118      0.29298872      0.00387989
C       1.80462374      1.42928259     -0.31307877
C       0.41381546      1.30010153     -0.00224253
C      -0.04910132      0.10707277      0.48050355
H      -0.02924903     -1.67676286     -1.10039461
H       1.94836965     -1.51511479      1.00499825
H       3.39609787      0.12169869      0.53131353
H       2.29164852      2.27495855     -0.45576467
H      -0.38028935      2.02290767      0.12683063
H      -0.91389967      0.11527400      0.97215453
