12
Family_1 [H]c1c([H])c([H])c([H])c([H])c1[H] | RMSD: 0.1966 | 14455.00 to state    1 from traj    3 on state    2
C       0.28521737     -1.07009260     -0.22414978
C       1.66834573     -0.93481269      0.17475405
C       2.53377538      0.19506378     -0.06675735
C       1.83164037      1.46515889     -0.27016122
C       0.40091595      1.30544696      0.01273154
C      -0.30580892      0.09192330      0.49969328
H       0.19771677     -1.37104796     -1.21868611
H       1.93261553     -1.24662604      1.11045739
H       3.64409855      0.26894431      0.33019082
H       2.33656767      2.45127216     -0.28664551
H      -0.09798110      2.09307483     -0.36101061
H      -1.26851424      0.13876945      0.98846013
