12
Family_1 [H]c1c([H])c([H])c([H])c([H])c1[H] | RMSD: 0.4557 | 7895.00 to state    1 from traj    2 on state    2
C       0.41022186     -1.08527412     -0.35787926
C       1.62820805     -0.94348875      0.42859185
C       2.47409092      0.20423398     -0.21064348
C       1.70565001      1.37984179     -0.21578395
C       0.46886071      1.45379800      0.29176800
C      -0.20418334      0.09510591      0.16238090
H      -0.13306476     -2.08082754     -0.43075316
H       1.69163876     -1.07855111      1.39586519
H       3.56004391      0.10456916     -0.48825061
H       2.01155664      2.27613963     -0.62381544
H      -0.11622792      2.37449559      0.16071911
H      -1.08879309      0.12455628      0.87878469
