12
Family_1 [H]c1c([H])c([H])c([H])c([H])c1[H] | RMSD: 0.4394 | 4705.00 to state    1 from traj    3 on state    2
C       0.34692815     -1.02118654      0.15828770
C       1.90272106     -1.07784359      0.15202014
C       2.53391999      0.15172760     -0.18811623
C       1.69432534      1.37867868     -0.15463650
C       0.32866784      1.36958419      0.01290725
C      -0.42601316      0.25265909      0.15744381
H       0.47001494     -0.84822048     -0.89551534
H       2.16070448     -1.93946677      0.72698452
H       3.72827970      0.35835392     -0.19430088
H       2.22646496      2.28297165      0.00884064
H      -0.01095056      2.36001260      0.35151655
H      -1.43039840      0.10963306      0.42468754
