12
Family_1 [H]c1c([H])c([H])c([H])c([H])c1[H] | RMSD: 0.5869 | 11040.00 to state    1 from traj    5 on state    2
C       0.50587533     -0.94109201     -0.24410975
C       1.81681402     -1.22135396      0.41920499
C       2.34935640      0.15665583      0.03279080
C       1.62300689      1.39223731     -0.30676131
C       0.27571816      1.53400635      0.01786609
C      -0.22114286      0.20181755      0.30361944
H       0.33823323     -1.04301305     -1.30415990
H       2.42409744     -2.12116980      0.21961234
H       3.30321522      0.08600962     -0.52580850
H       2.29703104      2.06602114     -0.66814306
H      -0.14113372      2.41545054      0.33128562
H      -0.70888026      0.10195473      1.36012020
