12
Family_1 [H]c1c([H])c([H])c([H])c([H])c1[H] | RMSD: 0.3602 | 13950.00 to state    1 from traj    2 on state    2
C       0.34916473     -0.91292425     -0.31954408
C       1.75662010     -0.90378540      0.27689272
C       2.52428673      0.14527355     -0.07702540
C       1.79915336      1.33500770     -0.29624407
C       0.35770425      1.33277874      0.04884784
C      -0.38642906      0.09344139      0.54032932
H       0.18306298     -0.73363632     -1.36796115
H       2.21814836     -1.55013017      1.04695691
H       3.51255360      0.33665245      0.32355791
H       2.46771234      2.15093033     -0.51747758
H      -0.21226110      1.75843109     -0.70169088
H      -1.26282936     -0.06998099      1.21760688
