12
Family_1 [H]c1c([H])c([H])c([H])c([H])c1[H] | RMSD: 0.4239 | 12795.00 to state    1 from traj    2 on state    2
C       0.35577559     -1.00291536      0.07291856
C       1.85397184     -1.07032272      0.03088227
C       2.55058678      0.13111121     -0.03695619
C       1.70943647      1.35142459     -0.09367213
C       0.26960290      1.37742543     -0.10106918
C      -0.34263204      0.26652818      0.34488397
H       0.64038013     -0.85380375     -1.09583801
H       2.31570686     -1.93565276      0.46294631
H       3.61754599      0.23501624      0.07876911
H       2.01280786      2.24286948     -0.53995552
H      -0.35887949      2.38150483     -0.29230056
H      -1.27638895      0.25773588      0.86628659
