12
Family_1 [H]c1c([H])c([H])c([H])c([H])c1[H] | RMSD: 0.3202 | 27055.00 to state    1 from traj    3 on state    2
C       0.40359277     -0.91163409     -0.30428093
C       1.72242240     -0.95522385      0.32654479
C       2.56480192      0.19741269     -0.12627087
C       1.75132476      1.32044109     -0.14792790
C       0.33751657      1.31965813      0.02100560
C      -0.37655086      0.14981243      0.44058066
H       0.23612813     -1.38052514     -1.27887999
H       1.99060884     -1.78986146      0.98578927
H       3.73074488      0.22918763     -0.21398478
H       2.31984612      2.09529644     -0.95039913
H      -0.39267457      2.16979513     -0.20236062
H      -1.00933618      0.20286451      1.22715597
