12
Family_1 [H]c1c([H])c([H])c([H])c([H])c1[H] | RMSD: 0.1884 | 9070.00 to state    1 from traj    7 on state    2
C       0.40331866     -0.93455148     -0.22283597
C       1.67995651     -0.94350851      0.15887647
C       2.51887454      0.18783213     -0.11456319
C       1.84700149      1.37846103     -0.15052805
C       0.36421942      1.27150001     -0.05581101
C      -0.35975899      0.13053805      0.51106611
H      -0.06767379     -1.64543421     -1.04127004
H       2.03205634     -1.13031809      1.16080989
H       3.57002840      0.22848852      0.23210863
H       2.30868315      2.27256979     -0.52518196
H      -0.23511306      2.22165975     -0.15343638
H      -1.33445397     -0.06041286      0.88861755
