12
Family_1 [H]c1c([H])c([H])c([H])c([H])c1[H] | RMSD: 0.2374 | 11025.00 to state    1 from traj    3 on state    2
C       0.35553655     -1.15090394     -0.38050764
C       1.62131758     -0.80585535      0.40293368
C       2.51146494      0.17302101     -0.20981294
C       1.78859886      1.41037069     -0.28737324
C       0.47745140      1.36811710      0.15063302
C      -0.29391723      0.09140924      0.41651229
H       0.10342117     -1.60359722     -1.27601402
H       1.72843424     -1.35679546      1.27721708
H       3.50657505      0.16508902      0.31107240
H       2.14687957      2.41514304     -0.53418586
H      -0.10469523      2.22408585      0.21175835
H      -1.18859635      0.09163049      0.97477853
