12
Family_1 [H]c1c([H])c([H])c([H])c([H])c1[H] | RMSD: 0.3040 | 7795.00 to state    1 from traj    4 on state    2
C       0.22917876     -1.00732111     -0.32764757
C       1.76981667     -1.01895309      0.31940487
C       2.59719900      0.24940036     -0.05262863
C       1.72159661      1.36395254     -0.18392664
C       0.38830597      1.36655525     -0.02230366
C      -0.26956373      0.11004629      0.46693920
H       0.00442529     -1.46192021     -1.28060562
H       2.04427988     -1.46766595      1.25947253
H       3.44748207      0.36044263     -0.67732843
H       2.20082798      2.28474891     -0.32536771
H       0.03137178      2.33101728     -0.25698555
H      -1.25135977      0.15677982      0.96507336
