12
Family_1 [H]c1c([H])c([H])c([H])c([H])c1[H] | RMSD: 0.5463 | 5885.00 to state    1 from traj    2 on state    2
C       0.48747655     -0.99725116     -0.32225091
C       1.69750848     -1.11534906      0.31795401
C       2.33362382      0.15369881      0.11792989
C       1.66065921      1.41953554     -0.33637173
C       0.26272280      1.51586304      0.01312031
C      -0.10151402      0.18350321      0.39090255
H       0.14809543     -1.41187310     -1.32199781
H       2.31927032     -1.88072545      0.57017801
H       3.39587923     -0.12887778     -0.09851740
H       2.19221239      2.08632436     -0.89199471
H      -0.08116569      2.54482409      0.22607087
H      -0.35268705     -0.15398899      1.42159648
