12
Family_1 [H]c1c([H])c([H])c([H])c([H])c1[H] | RMSD: 0.4478 | 17770.00 to state    1 from traj    2 on state    2
C       0.42727236     -0.97799981     -0.39000224
C       1.61792619     -0.89994643      0.32969800
C       2.39123515      0.19689560      0.01580063
C       1.70703136      1.21744416     -0.38287122
C       0.36802316      1.41925093      0.09327055
C      -0.14954246      0.05267371      0.45538604
H       0.38367431     -0.75642061     -1.51876025
H       1.70469907     -1.36816522      1.18747000
H       3.53278754      0.49170069      0.13230189
H       2.30918601      2.08092251     -0.66213963
H      -0.17134947      2.32656207      0.00519553
H      -0.39320971      0.08847955      1.47623658
