12
Family_1 [H]c1c([H])c([H])c([H])c([H])c1[H] | RMSD: 0.4850 | 2870.00 to state    1 from traj    2 on state    2
C       0.22282413     -1.05278800     -0.11878363
C       1.89113566     -0.98796890      0.22156147
C       2.48863010      0.19894999      0.02282743
C       1.70849515      1.25291975     -0.27252258
C       0.31639283      1.42172400     -0.01025381
C      -0.26373335      0.20852272      0.37426028
H       0.67622861     -0.62725520     -1.21488776
H       2.41792436     -1.94064611      0.33452971
H       3.66698608      0.42381775     -0.03928458
H       2.28861783      2.06469443     -0.60699307
H      -0.28605920      2.33778140      0.39153287
H      -1.41934322      0.21097638      0.61379692
