12
Family_1 [H]c1c([H])c([H])c([H])c([H])c1[H] | RMSD: 0.4448 | 2995.00 to state    1 from traj    3 on state    2
C       0.36110586     -1.07068115      0.03945394
C       1.85096915     -1.06393863      0.22012374
C       2.47982821      0.16227423     -0.12548874
C       1.67477844      1.43405550     -0.25788022
C       0.41640811      1.39848346      0.07325900
C      -0.38442046      0.17396175      0.27167035
H       0.51326008     -0.52750506     -1.11878797
H       2.28693241     -1.90334777      0.62313837
H       3.49171500      0.04422703     -0.07425182
H       2.30458005      2.33370505     -0.33534867
H      -0.25103270      2.29133565      0.16006852
H      -1.41725292      0.31679876      0.17563020
