12
Family_1 [H]c1c([H])c([H])c([H])c([H])c1[H] | RMSD: 0.4142 | 6680.00 to state    1 from traj    2 on state    2
C       0.29512610     -1.03210130     -0.33788563
C       1.57222370     -0.96667539      0.24808136
C       2.46625569      0.27554182     -0.05399198
C       1.80404212      1.46805010     -0.16505238
C       0.43528792      1.28763181     -0.08235205
C      -0.10260462      0.11021771      0.47461375
H      -0.40287716     -1.86464949     -0.48553393
H       1.71881043     -1.63599078      1.01218165
H       3.51832975      0.46414668      0.04516290
H       2.24330279      2.37913323     -0.33854329
H      -0.09870807      2.13158108     -0.27408846
H      -0.90455213     -0.21197198      1.11235615
