12
Family_1 [H]c1c([H])c([H])c([H])c([H])c1[H] | RMSD: 0.2107 | 3995.00 to state    1 from traj    2 on state    2
C       0.38402016     -0.89903828     -0.25159381
C       1.78582681     -0.96594440      0.12615404
C       2.56938826      0.17259807     -0.00785490
C       1.75675993      1.29008758     -0.34765754
C       0.37475695      1.22818908      0.08611054
C      -0.35803786      0.18893123      0.52222582
H      -0.24592761     -1.38160587     -1.27631122
H       1.83073704     -1.22479840      1.21919676
H       3.49682676      0.58514481      0.58915845
H       2.06182792      2.35834758     -0.44723171
H      -0.20916566      2.16202555     -0.23088251
H      -1.36501886      0.28645237      0.69366012
