12
Family_1 [H]c1c([H])c([H])c([H])c([H])c1[H] | RMSD: 0.4402 | 21420.00 to state    1 from traj    2 on state    2
C       0.32904484     -1.13389658     -0.38415926
C       1.58649845     -0.87972997      0.36334611
C       2.45566422      0.24753217     -0.13029320
C       1.72522956      1.44591069     -0.15785217
C       0.44328343      1.41046051      0.03102362
C      -0.10782699      0.08537495      0.36014803
H      -0.22767553     -1.94516838     -0.38720570
H       1.97899382     -1.70790488      1.08667785
H       3.53673767     -0.18972319     -0.18524905
H       2.30881097      2.36673926     -0.39091658
H      -0.15159950      2.27233528     -0.08753149
H      -0.91295420      0.07290809      1.05005812
