12
Family_1 [H]c1c([H])c([H])c([H])c([H])c1[H] | RMSD: 0.4169 | 6500.00 to state    1 from traj    2 on state    2
C       0.27800014     -1.11359819     -0.04719561
C       1.85317467     -1.02146695      0.14884367
C       2.50622396      0.13115294     -0.00525182
C       1.66594081      1.40052298     -0.22677836
C       0.38311054      1.42665482     -0.03385871
C      -0.32059340      0.20880218      0.33542728
H       0.49788639     -0.69061984     -1.03728726
H       2.54903035     -1.75999559      0.45163256
H       3.56727388      0.24975809      0.12812167
H       2.18461740      2.24547700     -0.40022676
H      -0.17359527      2.30031925      0.09370730
H      -1.30602657      0.23514730      0.78970851
