12
Family_1 [H]c1c([H])c([H])c([H])c([H])c1[H] | RMSD: 0.4320 | 2910.00 to state    1 from traj    6 on state    2
C       0.36968426     -1.05606189     -0.04711875
C       1.85664915     -0.99785974      0.19411953
C       2.47833276      0.16644111     -0.06268154
C       1.69548111      1.26403439     -0.17013878
C       0.31566746      1.38223245      0.04148599
C      -0.34076889      0.26371928      0.29516556
H       0.54350476     -0.55278165     -1.14168507
H       2.45684860     -1.81554768      0.59970141
H       3.49492202      0.27690455     -0.31270036
H       2.17012115      2.20573205     -0.68431549
H      -0.11596031      2.37608374      0.06399706
H      -1.33974480      0.20363502      0.55162796
