12
Family_1 [H]c1c([H])c([H])c([H])c([H])c1[H] | RMSD: 0.4206 | 17240.00 to state    1 from traj    7 on state    2
C       0.38960199     -0.95637099     -0.12341046
C       1.75757947     -1.04289552      0.20359059
C       2.51524070      0.21349779     -0.19201857
C       1.75243630      1.34430418     -0.10412707
C       0.34644464      1.33796066      0.03334674
C      -0.20635482      0.13371206      0.27964395
H      -0.24338830     -1.73973011     -0.59066704
H       1.25234640     -0.78733189      1.23214798
H       3.53308500      0.12613495     -0.16555205
H       1.92051579      2.43076364     -0.35646973
H      -0.17654605      2.21408625      0.37926992
H      -1.21998009      0.35832177      0.41060841
