12
Family_1 [H]c1c([H])c([H])c([H])c([H])c1[H] | RMSD: 0.4521 | 12385.00 to state    1 from traj    4 on state    2
C       0.17795588     -1.09617021     -0.26987228
C       1.69493918     -0.91348253      0.26188881
C       2.48929315      0.31842661      0.03215467
C       1.82215645      1.40873818     -0.28486966
C       0.50670700      1.33097307      0.06734100
C      -0.30808860      0.11146044      0.30684851
H      -0.20538306     -1.67234953     -1.12300562
H       2.12339543     -1.43702257      1.07835938
H       3.45286104      0.22341279     -0.26356538
H       2.41914365      2.19242685     -0.57089741
H      -0.24742203      2.03357271      0.15698035
H      -0.42724251     -0.28370387      1.43526433
