12
Family_1 [H]c1c([H])c([H])c([H])c([H])c1[H] | RMSD: 0.2850 | 10505.00 to state    1 from traj    2 on state    2
C       0.33493934     -0.95135969     -0.22346372
C       1.74383851     -0.92088493      0.18227003
C       2.59256960      0.26183739     -0.06944371
C       1.76301486      1.29222299     -0.31635092
C       0.45412490      1.28215155      0.17414450
C      -0.39855272      0.06433953      0.45998649
H      -0.12902295     -1.22832750     -1.22455718
H       1.63636236     -0.87775051      1.31982468
H       3.60612771      0.22351541      0.24220406
H       2.05330527      2.07256982     -0.88822240
H       0.02361013      2.20293258      0.01382326
H      -1.34966658      0.23196063      0.13414095
