12
Family_1 [H]c1c([H])c([H])c([H])c([H])c1[H] | RMSD: 0.2211 | 6160.00 to state    1 from traj    7 on state    2
C       0.42779403     -0.85488428     -0.17920269
C       1.86962081     -1.06398756      0.19014608
C       2.50016347      0.10958097     -0.14285658
C       1.74086582      1.31889624     -0.17665483
C       0.35080755      1.39050968      0.09112339
C      -0.40698971      0.14867210      0.40068521
H       0.30808826     -1.28273596     -1.09603774
H       1.78572882     -1.17464478      1.52930295
H       3.56490584      0.37907943     -0.14840140
H       2.06168401      2.14001067     -0.78805759
H      -0.26380675      2.27782020     -0.17173320
H      -1.52446116      0.04133399      0.55694989
