12
Family_1 [H]c1c([H])c([H])c([H])c([H])c1[H] | RMSD: 0.4686 | 13865.00 to state    1 from traj    5 on state    2
C       0.32642684     -1.00977208      0.07082970
C       1.88668178     -0.95323254      0.19560743
C       2.48483845      0.13232826     -0.19797713
C       1.76264826      1.28588919     -0.15323377
C       0.28628529      1.34481503      0.02838278
C      -0.40342569      0.23816048      0.20205979
H       0.76025680     -0.88502910     -1.10138780
H       2.59309865     -1.75556974      0.52049014
H       3.46301651      0.30718574      0.01354547
H       2.38634232      2.17029815     -0.04346001
H      -0.23036458      2.30144470      0.25056665
H      -1.38623109      0.36882606      0.68996162
