12
Family_1 [H]c1c([H])c([H])c([H])c([H])c1[H] | RMSD: 0.5060 | 2410.00 to state    1 from traj    4 on state    2
C       0.49635460     -1.00282488     -0.37510019
C       1.65037847     -1.01274596      0.37338578
C       2.32478700      0.16325689     -0.04900128
C       1.61986315      1.34853302     -0.30257230
C       0.36566259      1.51094980      0.09577362
C      -0.07951136      0.13856387      0.29362447
H      -0.05161391     -1.82883695     -0.74309415
H       1.93757580     -1.79474590      1.01697493
H       3.42843762      0.12093944      0.12635323
H       2.31888763      2.28488843     -0.46247789
H      -0.19948127      2.32872647      0.28064990
H      -0.25376773      0.11472021      1.41677589
