12
Family_1 [H]c1c([H])c([H])c([H])c([H])c1[H] | RMSD: 0.4018 | 9890.00 to state    1 from traj    5 on state    2
C       0.32055707     -1.13453903     -0.38094821
C       1.60776984     -0.89720618      0.33293582
C       2.47636866      0.22987324     -0.10311450
C       1.78892580      1.44506990     -0.16038251
C       0.40770752      1.45507649     -0.00320969
C      -0.16436366      0.03479472      0.42193291
H      -0.25037349     -1.97735256     -0.56571587
H       1.95946332     -1.52748764      1.25286767
H       3.43940226      0.12746786     -0.37001227
H       2.33099979      2.29393302     -0.50637366
H       0.09843385      2.48040185      0.08553541
H      -1.10604542     -0.02037566      0.89163163
