12
Family_1 [H]c1c([H])c([H])c([H])c([H])c1[H] | RMSD: 0.5384 | 5475.00 to state    1 from traj    5 on state    2
C       0.36562362     -1.04283079     -0.27348706
C       1.68485150     -1.03356941      0.34741633
C       2.38846144      0.24027723     -0.00896395
C       1.75664084      1.43342345     -0.35635239
C       0.42381346      1.48216407      0.02031296
C      -0.26746057      0.04432095      0.30642981
H      -0.00876213     -1.71874098     -0.93786455
H       1.93226998     -1.92350554      0.91274135
H       3.52024532      0.31249398     -0.10408865
H       2.25158307      2.30741357     -0.28895718
H       0.03503059      2.43835041      0.64103523
H      -0.24523780      0.07119620      1.42130480
