12
Family_1 [H]c1c([H])c([H])c([H])c([H])c1[H] | RMSD: 0.2811 | 16575.00 to state    1 from traj    9 on state    2
C       0.31654717     -1.09153858     -0.31894009
C       1.67323218     -0.89610485      0.26538454
C       2.43362642      0.23363960      0.07703580
C       1.75005114      1.30379261     -0.36114555
C       0.41577979      1.41188793      0.11369863
C      -0.15073077      0.14018824      0.40902617
H       0.01835475     -1.18826772     -1.36840152
H       2.00512093     -1.62104244      1.12007002
H       3.42892295      0.21093967     -0.25646285
H       2.16366029      2.27778993     -0.57485592
H      -0.27315478      2.24182805     -0.10441018
H      -0.88938242     -0.17284168      1.04440980
