12
Family_1 [H]c1c([H])c([H])c([H])c([H])c1[H] | RMSD: 0.4336 | 7180.00 to state    1 from traj    7 on state    2
C       0.30908699     -1.11634234     -0.05396243
C       1.83145157     -1.00946276      0.24840693
C       2.45608577      0.15441064     -0.08925523
C       1.72623100      1.39610419     -0.21439082
C       0.33758217      1.39483055      0.06276170
C      -0.27765029      0.20693845      0.22964013
H       0.48339194     -0.68151940     -0.93190903
H       2.47368233     -1.78091791      0.68560523
H       3.46820048      0.05804599     -0.19215951
H       2.06740982      2.38500191     -0.57881784
H      -0.09013885      2.32384511      0.41938418
H      -1.28509790      0.34222792      0.48040009
