12
Family_1 [H]c1c([H])c([H])c([H])c([H])c1[H] | RMSD: 0.4423 | 6415.00 to state    1 from traj    2 on state    2
C       0.35070016     -1.09432082      0.01111605
C       1.78901216     -0.96004768      0.14892572
C       2.52212323      0.14579944     -0.06265928
C       1.73741912      1.31200691     -0.22465810
C       0.27772167      1.38983642      0.00172578
C      -0.30461556      0.23862312      0.31041994
H       0.54541986     -0.80896652     -1.42154520
H       2.49099716     -1.81016743      0.38672180
H       3.49974066      0.21201345      0.15625813
H       2.23472425      2.30604075     -0.09167624
H      -0.30770510      2.33150729     -0.10281782
H      -1.22149087      0.35168893      0.93566529
