12
Family_1 [H]c1c([H])c([H])c([H])c([H])c1[H] | RMSD: 0.2660 | 6945.00 to state    1 from traj    3 on state    2
C       0.43468854     -0.74796546     -0.29846570
C       1.80468620     -0.97831867      0.27656091
C       2.56355790      0.18841646     -0.07213227
C       1.67385502      1.18715633     -0.32263460
C       0.34846731      1.28914999      0.12764610
C      -0.39378568      0.17236734      0.51774377
H       0.49052745     -1.17462895     -1.27273023
H       2.08185489     -1.79111427      1.06976327
H       3.59759839      0.11434145      0.15330401
H       1.94488947      2.15566235     -0.82342518
H      -0.16576473      2.16261085     -0.21945616
H      -1.41173723      0.17499601      0.43267046
