12
Family_1 [H]c1c([H])c([H])c([H])c([H])c1[H] | RMSD: 0.5534 | 7130.00 to state    1 from traj    5 on state    2
C       0.37626061     -1.10340917     -0.25393696
C       1.69106505     -1.04995697      0.37550131
C       2.29820091      0.20199171     -0.01105951
C       1.72564480      1.44844281     -0.28970252
C       0.38158123      1.55233821      0.04478474
C      -0.16214208      0.10523655      0.23174657
H       0.14297999     -1.54786564     -1.02196170
H       2.39420406     -1.85516524      0.72238402
H       3.40478386      0.08946053     -0.20286226
H       2.33437155      2.19443039     -0.61490444
H      -0.00116652      2.24774977      0.64110836
H      -0.29769094     -0.00909160      1.38189816
