12
Family_1 [H]c1c([H])c([H])c([H])c([H])c1[H] | RMSD: 0.5520 | 8280.00 to state    1 from traj    4 on state    2
C       0.41915013     -1.09838796     -0.21396765
C       1.73518038     -1.09089691      0.43361119
C       2.38208787      0.09336770     -0.16858795
C       1.62750124      1.58825612     -0.11540805
C       0.33897957      1.45703501     -0.00138380
C      -0.11238626      0.24861480      0.20385576
H      -0.08015518     -1.72671491     -1.01506529
H       2.15733270     -2.15374044      0.83498262
H       3.34338068     -0.07641526     -0.53832569
H       2.34999975      2.33155431     -0.20974299
H      -0.35919274      2.16072236      0.13016346
H      -0.38597450      0.06761987      1.21765883
