12
Family_1 [H]c1c([H])c([H])c([H])c([H])c1[H] | RMSD: 0.5398 | 7560.00 to state    1 from traj    3 on state    2
C       0.37636286     -0.97724481      0.10557305
C       1.81706249     -1.05755089      0.17628521
C       2.44457464      0.12961454     -0.16546247
C       1.74703841      1.39101123     -0.10693059
C       0.29850721      1.40206916     -0.13792837
C      -0.30411654      0.17281233      0.32927275
H       0.75148645     -0.92259268     -1.17457971
H       2.35778938     -1.97508195      0.31533586
H       3.43921020      0.12870529     -0.26442977
H       2.18763252      2.36623930      0.39464069
H      -0.31819440      2.24953553     -0.20527318
H      -1.26046166      0.39197070      0.60698244
