10
Family_1 [H]C([H])=C([H])C([H])=C([H])[H] | Aligned Reference | 1736.00 to state    1 from traj    1 on state    2
C     19.945922     8.267681     1.193590
H     18.847682     8.298190     0.876840
C     20.583151     9.479106     0.896849
H     21.538911     9.470753     0.442223
C     19.930743    10.733312     1.107589
H     18.969946    10.969486     1.482354
H     20.581948    11.594917     0.887872
C     20.843073     6.989973     1.070325
H     20.156665     6.385326     1.722434
H     20.021672     6.773816     0.164357
