12
Generated by script
C 0.492444904 -0.9128885165 0.3335635252
C 1.8536088591 -0.9702737705 0.1601836633
C 2.47333927 0.2808288524 -0.1564403451
C 1.6674397893 1.4339081976 0.192677164
C 0.460784007 1.4466501047 -0.5626065322
C -0.1734496714 0.2714257535 -0.0870022847
H -0.0947583976 -1.7735817773 0.5937479347
H 2.3632582582 -1.9105745279 0.0483677991
H 2.7989308661 0.3021557315 -1.1944210125
H 1.8149656746 2.005262653 1.0976131306
H -0.1048094398 2.3095683176 -0.8508762483
H -1.2484504465 0.300724713 0.0011385699
