12
Generated by script
C 0.474154288 -0.9949502075 -0.1118859551
C 1.8195411692 -1.0580793863 0.1686658153
C 2.4309750055 0.1689158854 0.0592925803
C 1.5536588033 1.3103206932 -0.1993510679
C 0.2939851516 1.453286906 0.5159139867
C -0.0780110524 0.3394397844 -0.3447939043
H -0.1613137503 -1.8581799054 -0.1877240553
H 2.3381316668 -1.9655901287 0.4013540576
H 3.492874906 0.3161169865 0.1303875118
H 1.87693008 2.1017256451 -0.851682805
H -0.2495924298 2.3734156255 0.5176014066
H -0.8406613029 0.4855414617 -1.0883633587
