12
Generated by script
C 0.5090777147 -1.0771647745 -0.3496833608
C 1.6651908951 -0.8912296949 0.4632875822
C 2.4444325563 0.2327014548 -0.0196254099
C 1.7653433325 1.4845770895 0.0788422487
C 0.4004071845 1.386836997 0.1961435076
C -0.1962626432 0.1221062976 -0.0716400047
H -0.0068866559 -2.0000304179 -0.5214822725
H 1.7655849504 -1.2911085833 1.4618857835
H 2.8826642659 0.0686447876 -0.999382629
H 2.2417050941 2.4217146559 -0.1470432907
H -0.2342494945 2.2472238977 0.2985323389
H -1.2716061408 0.0530070907 -0.0167366464
