12
Generated by script
C 0.3733918659 -0.9454152552 0.1887979443
C 1.7697731547 -0.9755908231 0.0292367713
C 2.4376063191 0.2203469215 -0.1738720563
C 1.710150887 1.4500758576 0.1425793558
C 0.266024415 1.4334736907 -0.1051474841
C -0.3909903692 0.2318609531 0.0892025697
H -0.1478178737 -1.8831325259 0.2752704136
H 2.2620288413 -1.9259200531 -0.0873224027
H 3.4669835484 0.2191935386 -0.4917970202
H 1.5240046308 1.0673354788 1.1804638274
H -0.2896409952 2.3204958867 -0.3597690131
H -1.4613711602 0.1532630643 0.0063218153
