12
Generated by script
C 0.4866785167 -0.947001356 -0.4921987447
C 1.829447299 -0.9737173874 -0.2046893061
C 2.3577259472 0.2582756802 0.2892492209
C 1.5310441797 1.4101817046 -0.0160938435
C 0.2700214009 1.3008472197 0.6383457481
C -0.2671372379 0.1620055642 -0.0150208632
H -0.0368117634 -1.7959777357 -0.890534131
H 2.37055474 -1.9009753923 -0.1447509582
H 2.6381841925 0.1975641302 1.336999822
H 1.7143696248 2.0599317937 -0.8596120664
H -0.3561447763 2.1100236711 0.9554104687
H -1.3291507573 0.1661828658 -0.2054595336
