12
Generated by script
C 0.2525969391 -1.0425074589 -0.4361345171
C 1.5309363862 -0.8763641246 0.240498745
C 2.4184034692 0.2322499128 -0.1099791751
C 1.8221141556 1.460307993 -0.2807932965
C 0.4838658465 1.436180671 0.0361207113
C -0.0815607085 0.1271850888 0.3629130324
H -0.3071730379 -1.9500807601 -0.3666054386
H 1.8615644155 -1.6349277161 0.9270680924
H 3.4756339272 0.0629171368 -0.199745648
H 2.3485651789 2.3427710045 -0.5820301494
H -0.1359563826 2.312645249 0.081609934
H -0.8253554423 0.0388507137 1.1343372356
