12
Generated by script
C 0.3783500395 -0.9914477404 -0.1722313981
C 1.7470210361 -1.0357264326 -0.2960595466
C 2.3389134712 0.1565445885 0.0536915902
C 1.4329649964 1.2636942137 0.3583024092
C 0.2736540282 1.5223401533 -0.4833455982
C -0.2028188841 0.3085388687 0.1638930708
H -0.2603604306 -1.8468834652 -0.2930544928
H 2.2920259455 -1.9105703766 -0.5867564529
H 3.4010660869 0.296401487 0.1356587528
H 1.6732517538 1.9567109634 1.1442268236
H -0.2689656667 2.4413465566 -0.4261164938
H -1.0493543471 0.3646797276 0.8245110746
