12
Generated by script
C 0.2696128051 -1.0686628277 -0.4018766571
C 1.5008129458 -0.8242372878 0.3347449894
C 2.3611552814 0.3075852596 -0.0107486759
C 1.7273355609 1.5021179106 -0.2611487689
C 0.3746930905 1.4334412861 -0.0194849159
C -0.155765108 0.1158283825 0.3298797503
H -0.2572461176 -1.9952027285 -0.3260746924
H 1.8224365372 -1.5397719705 1.0702225275
H 3.4275628745 0.1787227984 -0.0396755832
H 2.2352709128 2.3957148118 -0.5616840379
H -0.2830871127 2.2823143179 -0.0561229592
H -0.940039888 0.0270744647 1.0601475334
