12
Generated by script
C 0.4734282652 -0.8979539599 -0.0427063366
C 1.8644315598 -0.9016289659 -0.3229154404
C 2.2923933122 0.1916824934 0.4865047876
C 1.721380876 1.432829332 -0.0013585072
C 0.2986182026 1.4851852259 0.0969683821
C -0.3111991026 0.2606097604 0.2213853966
H -0.012300031 -1.859142894 0.0223854667
H 2.3966447582 -1.8160587566 -0.4907783778
H 2.681168875 0.077596578 1.4881403456
H 2.0894591475 1.7294119803 -0.9787195879
H -0.2658963918 2.3708559109 -0.1331421967
H -1.3746414191 0.1527184485 0.327124154
