12
Generated by script
C 0.3188794828 -1.0994306922 0.0772827488
C 1.6781189119 -0.9962451069 -0.1063586286
C 2.2116483212 0.3570598717 -0.2580438633
C 1.7521004751 1.4335860672 0.607729395
C 0.5507107408 1.285087506 -0.200713939
C -0.3142614454 0.1164857838 -0.0379606552
H -0.1944180683 -2.0247267457 0.2412875538
H 2.3392823603 -1.8415016438 -0.1630024175
H 3.0215105885 0.5436783394 -0.9401753602
H 2.2741939029 2.3637535232 0.6727661154
H 0.2512363065 2.0914345234 -0.8457809836
H -1.3818576173 0.2377145359 -0.0372315264
