12
Generated by script
C 0.51982413 -1.0636721332 -0.4693791107
C 1.6455949208 -0.9242543143 0.3929125173
C 2.4305831803 0.2341061263 0.0113181979
C 1.7354453751 1.4738917348 0.1608704459
C 0.3679373227 1.361606137 0.2175373273
C -0.2063022781 0.1123505237 -0.1496724668
H 0.0208601585 -1.976391071 -0.7253859124
H 1.7200676071 -1.3943480678 1.3626204122
H 2.8867202783 0.1365477976 -0.9700128418
H 2.2129792457 2.4258702923 0.0130316588
H -0.2773867327 2.2104185127 0.3463991948
H -1.2821791276 0.0321999997 -0.1402849334
