12
Generated by script
C 0.3817939671 -1.0341457286 -0.3697896237
C 1.7791501705 -1.0159140799 0.0661991883
C 2.4678402504 0.2739993495 -0.0082432636
C 1.7087319859 1.4069881221 0.2264748358
C 0.3069638071 1.2960689235 0.1960060658
C -0.3663890538 0.1057286227 -0.1317874778
H -0.0796268311 -1.9047915514 -0.8056845468
H 1.4420271655 -0.7659205498 1.1068127613
H 3.5281757286 0.3573601695 -0.179745048
H 2.1542889978 2.3856052607 0.2763519105
H -0.2758744883 2.1934471417 0.3117153183
H -1.4224090826 0.1425063379 -0.3385813821
