12
Generated by script
C 0.3751000813 -0.977571234 -0.8221250134
C 1.4746157268 -0.8838224316 0.12889995
C 2.3794509924 0.2650621044 0.1078722062
C 1.7952797101 1.5004562251 -0.0469365649
C 0.4215730696 1.4303150053 -0.0348094205
C -0.1586769583 0.0883350859 0.0122923038
H -0.1580095503 -1.8913199305 -0.9743977002
H 1.6752055534 -1.7133938074 0.7827637164
H 3.4364841277 0.1106143314 0.2218777839
H 2.3435983399 2.4174740649 -0.1157838476
H -0.2212838206 2.291236315 -0.030365865
H -1.0485687949 -0.0939259176 0.5876754505
