12
Generated by script
C 0.4863103682 -1.0319065192 0.5290104894
C 1.6779814743 -0.8995314803 -0.2434825416
C 2.4390668056 0.2512452004 0.205291139
C 1.7728687688 1.494812577 -0.0036542001
C 0.4152332195 1.3906924826 -0.1829994875
C -0.2002378121 0.1468397375 0.1381585261
H -0.0400057271 -1.9413025871 0.7370419616
H 1.8168958644 -1.3543116029 -1.2135473637
H 2.8501216422 0.1466022832 1.2040104387
H 2.2418605868 2.4435648548 0.185391318
H -0.2100874568 2.2441071929 -0.3685688397
H -1.2713447048 0.074485244 0.0309226157
