12
Generated by script
C 0.2827586577 -1.0344104466 0.1768304999
C 1.6190206554 -0.9919811527 -0.1450253066
C 2.188396493 0.3347071465 -0.3813301697
C 1.8588811925 1.4488845632 0.4949899406
C 0.5776042752 1.3320233901 -0.1857680721
C -0.3108529019 0.2044608214 0.0964720722
H -0.2436811216 -1.9338306262 0.4231574031
H 2.2386652648 -1.8641532508 -0.2429252013
H 2.9285666059 0.4733166949 -1.1491724175
H 2.4200470175 2.3582980152 0.4885913175
H 0.2453706816 2.1327697084 -0.821752796
H -1.3679354541 0.3686437824 0.1971997237
