12
Generated by script
C 0.3129086958 -1.045935963 0.4836628504
C 1.4636299868 -0.8842755403 -0.3932221687
C 2.3921849623 0.2301857044 -0.2042130709
C 1.8279628569 1.4588645229 0.0483328002
C 0.4556317292 1.4289049683 -0.0415482595
C -0.1519028938 0.1160928957 -0.2592908719
H -0.2456305105 -1.9565689143 0.5120891048
H 1.6775931884 -1.6447407824 -1.1227500096
H 3.4506106937 0.0623487792 -0.281613145
H 2.3936404415 2.3462333947 0.2470557225
H -0.1672831502 2.3022001798 0.0212678027
H -1.014759909 0.0214104669 -0.893701445
