12
Generated by script
C 0.3206870615 -0.8174070329 -0.3527851433
C 1.7056698939 -1.0070289868 0.0357095909
C 2.5083949595 0.1596011848 -0.1248838976
C 1.797662138 1.3330230278 -0.198421491
C 0.4219805057 1.2986656565 0.1700603065
C -0.3083584235 0.1297149991 0.5094928573
H -0.0521125312 -1.0683927467 -1.335494854
H 1.838514612 -1.4981398137 0.99359536
H 3.5726487586 0.1581163254 0.0275231735
H 2.2700031532 2.2867568399 -0.3431503189
H -0.1302488589 2.2247154719 0.1349933434
H -1.3524049556 0.1772365977 0.7437012802
