12
Generated by script
C 0.3737735078 -1.0420761078 0.1031266545
C 1.7230827402 -1.0366480354 -0.2118492569
C 2.4610614527 0.1971450225 0.0562785439
C 1.7247787757 1.451872756 -0.1214507387
C 0.3740078842 1.4329068671 0.1709847094
C -0.2686478817 0.1889223299 0.3175254787
H -0.2203118176 -1.9376147976 0.0396553815
H 2.1978262899 -1.9309797135 -0.5796934931
H 2.1191238783 0.1628461717 1.1245028563
H 2.2079840188 2.3725121416 -0.4033758841
H -0.2214958866 2.3293682663 0.1531644729
H -1.3314083038 0.184137556 0.4878954426
