12
Generated by script
C 0.3154101058 -1.0384246284 0.3705328336
C 1.6892976198 -0.9537252953 0.0212164254
C 2.4099453335 0.2545832349 -0.20654402
C 1.7555308781 1.4410493023 0.0211962965
C 0.3473039846 1.313120082 0.1797310216
C -0.1891622471 0.0781764241 -0.3620291761
H -0.1674846079 -1.9868230302 0.4909851098
H 2.2097016344 -1.8858843649 -0.1346352539
H 3.4716000268 0.2013198807 -0.3601674606
H 2.2918928839 2.3368504709 0.2773884545
H -0.0201557156 1.5762690105 1.1644815404
H -0.5891739423 0.0039316044 -1.3630884033
