12
Generated by script
C 0.4228198487 -0.9652669297 0.1995085466
C 1.6589581602 -0.9912202494 -0.512001838
C 2.2724237758 0.1774972721 0.0099696513
C 1.5891139128 1.368541763 0.3887897597
C 0.2391549956 1.4350325968 0.1436482749
C -0.3600100721 0.1884314538 -0.2020691771
H 0.253098657 -1.4978922322 1.1239935994
H 2.2345650671 -1.861352861 -0.7544790578
H 3.3377637899 0.135840014 0.1752946591
H 2.1664078669 2.2248155648 0.6840429904
H -0.259459851 2.3775865923 0.0061509923
H -0.7186889669 0.1474765367 -1.2249788968
