12
Generated by script
C 0.4054871337 -0.8113545746 -0.4567502369
C 1.7333291631 -0.9415203398 0.1099970751
C 2.4743061716 0.2818510555 0.1188703552
C 1.709959806 1.41748232 0.0069206331
C 0.3035109965 1.2838832907 0.1769026053
C -0.3931323508 0.0593496541 0.3384075909
H 0.1723398998 -1.0715009277 -1.4791097458
H 1.728807786 -1.4152080434 1.0885735934
H 3.5066487064 0.33011167 0.416037561
H 2.1371334404 2.4024824563 -0.0210273611
H -0.2941607559 2.1810712234 0.1320610585
H -1.4599359808 0.0355198984 0.4340718453
