12
Generated by script
C 0.35987633 -1.0076297 -0.0869459499
C 1.8007300291 -1.0085858974 0.1656641033
C 2.4748026042 0.1857355226 -0.030045808
C 1.7257491046 1.3720769951 -0.1115953649
C 0.3288351035 1.4177688011 0.0548548435
C -0.356249678 0.2301535439 0.2342651776
H 0.545387224 -0.6163939935 -1.1221797699
H 2.3426855021 -1.8990460577 0.4381795887
H 3.5471986201 0.248799069 0.0389681673
H 2.2581731431 2.3040240338 -0.189036571
H -0.1510019334 2.3723317376 0.1858575719
H -1.3909718142 0.2404957495 0.5336081314
