12
Generated by script
C 0.313496621 -1.0590896394 -0.1152378473
C 1.686730112 -1.0372109061 0.0448836256
C 2.3368398799 0.2082616185 0.1279804514
C 1.6721664923 1.4372796406 -0.0229356692
C 0.2984174653 1.4282094124 -0.1998191665
C -0.4067414367 0.1916296217 0.1370690843
H -0.1903075316 -1.9805465476 -0.3554806245
H 2.2798505402 -1.9316393061 -0.0385237396
H 3.4108434971 0.2166643132 0.1970556989
H 2.2541696261 2.3337923626 -0.1515244788
H -0.2128099705 2.3202428736 -0.5220818925
H 0.0375442928 0.2254000587 1.1669686931
