12
Generated by script
C 0.3416145991 -1.0515914854 -0.1243346405
C 1.716805743 -1.0300682532 0.0303394734
C 2.3646100352 0.2152951722 0.1158000509
C 1.6951233559 1.445180095 -0.0161760612
C 0.3199255307 1.437276531 -0.1701528156
C -0.3782466437 0.1920934514 0.1559430498
H -0.1615971419 -1.9691735837 -0.3803330855
H 2.3111588977 -1.922517494 -0.065472103
H 3.439366468 0.2256621515 0.171128492
H 2.2738279953 2.3434149178 -0.1472496211
H -0.1992213429 2.3362593343 -0.4580858569
H 0.0784532044 0.214974086 1.1803421037
