12
Generated by script
C 0.140607481 -0.8931067844 -0.1426472366
C 1.5915973995 -0.7749576024 -0.2846363383
C 2.3635848273 0.0180491621 0.6611741939
C 1.71085214 1.1093627555 -0.0475993026
C 0.2834583142 1.3679579902 0.1407268619
C -0.5402481646 0.2661867122 0.1483757285
H -0.3358103377 -1.8439932818 -0.295842492
H 2.1102954201 -1.3581214189 -1.0240915248
H 3.4277090792 -0.0570156286 0.7233262918
H 2.3090423787 1.7873780041 -0.6294044127
H -0.0690155446 2.3786042904 0.2351561223
H -1.5966033879 0.3117147195 0.3178035995
