12
Generated by script
C 0.3912674137 -1.0294832626 0.020196866
C 1.754583882 -1.1125513123 -0.142351951
C 2.3746877988 0.1007563692 0.0450609194
C 1.4970263215 1.2531389657 0.2496804774
C 0.3097218612 1.4337789454 -0.5728795976
C -0.1576481652 0.3106534878 0.2271242608
H -0.2642444449 -1.8808632476 0.0191824918
H 2.277649645 -2.0262191868 -0.3383229789
H 3.4412618153 0.2296779848 0.0708112736
H 1.7774401351 2.027341878 0.9408881187
H -0.2190096732 2.3621686413 -0.5982843346
H -0.9781638545 0.4573926071 0.9062968424
