12
Generated by script
C 0.3936121368 -0.9040008919 -0.389375559
C 1.6626191749 -1.0856434071 0.2277486796
C 2.2904834451 0.1556568307 -0.038174976
C 1.6279658539 1.409503421 -0.1423602203
C 0.2883611297 1.4444374393 0.1571986892
C -0.3430222738 0.1608446185 0.2607796103
H 0.1392532988 -1.2903558161 -1.3655831483
H 2.2247608066 -1.9960986037 0.2846041531
H 3.3540805434 0.1344943943 -0.2185341604
H 2.2168205129 2.2985417024 -0.2696763999
H -0.1810651276 2.3454268002 0.5101181739
H -0.5413394846 -0.0722804175 1.3064288229
