12
Generated by script
C 0.3791512181 -0.916691727 -0.4284363246
C 1.7481990416 -1.0397069031 0.034571317
C 2.516196963 0.1529833772 -0.1272186351
C 1.7708164546 1.2970124505 -0.2738335147
C 0.3797207846 1.2224525299 0.0214641068
C -0.3267322646 0.0393242507 0.3593427076
H 0.0589202625 -1.2368521896 -1.4094196709
H 1.8347311079 -1.4629371975 1.0307355059
H 3.5715562461 0.1951690828 0.0743471861
H 2.2170085183 2.2624647599 -0.4236302654
H -0.2008287405 2.1276934434 -0.0651194741
H -1.3819122834 0.0560505427 0.5431878483
