12
Generated by script
C 0.4205681142 -0.9615447446 0.0347975115
C 1.8045092131 -1.0217729309 0.3440153626
C 2.2672825132 0.1394290896 -0.3426573086
C 1.7080692815 1.3342257802 0.2603370611
C 0.2906666533 1.4268116642 0.1352727834
C -0.3370751484 0.2334266043 -0.1280854888
H -0.0809824432 -1.9010381391 -0.1380740324
H 2.3150988029 -1.9603296985 0.4196483632
H 2.6689048797 0.121636872 -1.3455605399
H 2.0648172504 1.5335472836 1.2653221438
H -0.2628123612 2.2944201069 0.4462474294
H -1.3990459546 0.1568615944 -0.2688964624
