12
Generated by script
C 0.3545398834 -1.0044989773 -0.1898450643
C 1.6850064838 -0.9186448572 0.3832409196
C 2.4724583074 0.0202549217 -0.3474649605
C 1.7726356861 1.2185054244 -0.0486793675
C 0.3643558372 1.3253344805 0.1390477855
C -0.3955825936 0.2022304423 -0.0797504013
H 0.3212007904 -1.4528042035 -1.1767345353
H 1.9121451045 -1.2346284677 1.3910850078
H 3.5375212728 0.0094961712 -0.4600178347
H 2.3675645953 2.1063154227 0.0990300438
H -0.0681256616 2.3005593284 0.2640324939
H -1.4293671878 0.2726659686 -0.3664561479
