12
Generated by script
C 0.3161300022 -1.0050304156 -0.1686664802
C 1.7499711307 -1.0210405819 0.1279918045
C 2.438677582 0.1678462218 -0.0365572548
C 1.7032768681 1.3614644693 -0.1499850488
C 0.3028449513 1.4199463955 -0.0351964394
C -0.3976339054 0.2378114663 0.1302837123
H 0.5425299993 -0.6171217058 -1.1966457994
H 2.2765528461 -1.9199159449 0.402486237
H 3.508373457 0.2216734353 0.0718989303
H 2.2465798349 2.2882497422 -0.2146574421
H -0.1726737172 2.3795378435 0.0743373229
H -1.438651365 0.2580418712 0.4069613008
