12
Generated by script
C 0.3539253099 -1.0631413103 -0.0279611763
C 1.7316364998 -1.0713331795 0.1021127975
C 2.4334499521 0.1818285687 -0.1821956673
C 1.7280303154 1.4171928361 0.1637426727
C 0.3503057398 1.4118998543 0.0318557339
C -0.3084846289 0.1758161668 -0.0940653936
H -0.2292436434 -1.9625626667 0.0718193203
H 2.2485427536 -1.9855328918 0.3426188736
H 1.9595505031 0.2059496354 -1.1988508031
H 2.2423867278 2.3195721145 0.4500349407
H -0.2352057185 2.3033161675 0.1782353951
H -1.3842218296 0.1750458461 -0.1292032533
