12
Generated by script
C 0.375672991 -1.0568341222 0.111741579
C 1.8155005782 -1.0305977224 -0.1651257527
C 2.4774897069 0.1602997797 0.0646530575
C 1.7178638588 1.3318834269 0.2482662149
C 0.3185944046 1.370619856 0.1342127746
C -0.3550827006 0.186795173 -0.1235269081
H 0.5877007461 -0.7318917324 1.1644070244
H 2.3640025078 -1.9076601381 -0.4651800745
H 3.5460347149 0.2411716662 -0.037821933
H 2.2436058973 2.2628592451 0.370402993
H -0.1758107861 2.3260896298 0.0886412088
H -1.3858971859 0.2070251844 -0.4366601558
