12
Generated by script
C 0.3030269046 -0.9260914201 0.1373973308
C 1.7391144914 -0.7176994151 0.3230262961
C 2.4695104174 0.2022166759 -0.5368886228
C 1.7251450077 1.1840082256 0.2387093984
C 0.2865369376 1.3547769929 0.0362205368
C -0.4538427057 0.2014864294 -0.0810415273
H -0.105025994 -1.91850722 0.1939279448
H 2.2844787645 -1.3203234516 1.0268824052
H 3.5375109088 0.2089689575 -0.5725126984
H 2.2611224646 1.8536407969 0.8871830772
H -0.135426814 2.3423809978 0.0045165481
H -1.507222068 0.1853306117 -0.2730893709
