12
Generated by script
C 0.3224059226 -0.9353691617 0.3076635946
C 1.7285041301 -0.8906770836 0.0944133883
C 2.4592825191 0.2461945318 -0.3346472723
C 1.7077202316 1.2935477589 0.2713096153
C 0.3729900309 1.3473817456 -0.291881286
C -0.4068084749 0.1769840533 -0.0349230891
H -0.1358737352 -1.8759904985 0.5493999596
H 2.29886013 -1.7778967709 0.3215207242
H 3.5221097199 0.2133698327 -0.4647212611
H 1.9690235173 1.7508009301 1.2147351077
H 0.3695428155 1.6125510904 -1.3460520531
H -1.4452380301 0.1040196757 -0.30451249
