12
Generated by script
C 0.2515025895 -1.1137622698 0.226012581
C 1.6146958842 -1.0512932139 0.0508681765
C 2.1835206879 0.2826815381 -0.1403242432
C 1.7474244464 1.3980559393 0.6871524521
C 0.5464028554 1.2545923723 -0.1226359255
C -0.3486306238 0.1137558976 0.0702216663
H -0.2849748075 -2.0205820536 0.4176262582
H 2.2545055831 -1.9139373216 0.0239097315
H 2.9992089842 0.4272763145 -0.8257762926
H 2.293532567 2.315687466 0.7264611574
H 0.2715220692 2.0470430688 -0.7954488727
H -1.4127326765 0.2620493572 0.0621861828
