12
Generated by script
C 0.3501403733 -0.9597768223 -0.1073586164
C 1.77422325 -0.7179890153 0.1234581148
C 2.497532091 0.2621900781 -0.6743769905
C 1.704226376 1.1839941353 0.1257478426
C 0.2661801038 1.3215334184 -0.1041092292
C -0.436002265 0.1537796832 -0.2922336579
H -0.0287706088 -1.9649830211 -0.1101977671
H 2.3200180559 -1.3371635442 0.8128382414
H 3.5657180895 0.301687304 -0.6791014961
H 2.2043774827 1.839166005 0.8157647436
H -0.1839214751 2.2971893694 -0.10299179
H -1.4841400533 0.1161716895 -0.5091212542
