12
Generated by script
C 0.3941280792 -0.9600998069 0.0310212637
C 1.792667438 -0.9758729238 -0.1135473486
C 2.4605486198 0.2322426343 -0.2173553152
C 1.7237265198 1.4352688094 0.1731838873
C 0.284215617 1.433144541 -0.0956276002
C -0.3722497221 0.2192890349 0.0049570357
H -0.1253223168 -1.9026753161 0.0463959173
H 2.2891977422 -1.9144968398 -0.2908084307
H 3.4948119479 0.256164724 -0.5180214095
H 1.5276526503 0.977956764 1.1786889817
H -0.2696793344 2.33386159 -0.3017280393
H -1.442050101 0.1447870651 -0.0899015822
