12
Generated by script
C 0.3970477936 -0.7481284884 0.3594567416
C 1.8138567077 -0.9351801364 0.0472941701
C 2.5440360284 0.2077006398 -0.1811915678
C 1.8106957095 1.3478743235 0.0532360719
C 0.3945640702 1.1556820558 0.3656828269
C -0.4060072063 0.2050433607 -0.3925499335
H -0.0858162093 -1.3875848279 1.0763635957
H 2.2297982211 -1.9256200756 0.0229953066
H 3.5782380209 0.20971963 -0.4589830497
H 2.2248230828 2.3392118657 0.0364195007
H -0.0884968473 1.7878954618 1.0888731962
H -1.4734776443 0.2033051549 -0.3430805776
