12
Generated by script
C 0.3005099789 -0.7241883774 -0.0911233708
C 1.7269782807 -1.0120540301 0.0568241066
C 2.5626271007 0.076473278 0.1485163222
C 1.8931002899 1.2630977105 -0.042500108
C 0.4389098859 1.1731881043 -0.1743413599
C -0.3314754041 0.3124854268 0.7118516156
H -0.3113786076 -1.3435852752 -0.7220622947
H 2.0680736221 -2.0308990995 0.0692846644
H 3.6201580863 0.0055769916 0.3014256406
H 2.378026113 2.2193856352 -0.1129464367
H -0.0812397699 1.8192660856 -0.8585253692
H -1.394067592 0.3931101892 0.7911791969
