12
Generated by script
C 0.3702012343 -0.9037867193 0.1126186989
C 1.7658372657 -0.9497913774 -0.1572836892
C 2.4924043797 0.1935442628 0.0705958287
C 1.7084962216 1.375551412 0.2725344152
C 0.3534844983 1.2657903394 -0.2286694048
C -0.3591513678 0.2553516793 0.4755634094
H -0.1929289095 -1.8167865147 -0.00404055
H 2.2262763487 -1.9004227392 -0.3508045416
H 3.5413307218 0.1511563007 0.3042434434
H 1.7349553644 1.6778042142 1.317973662
H 0.038783124 1.6730447249 -1.1784797925
H -1.4147119672 0.2214349162 0.6558694452
