12
Generated by script
C 0.387854406 -0.9850177743 0.089399873
C 1.7661177474 -0.9780676819 0.2192892555
C 2.459825271 0.263978507 -0.1255522788
C 1.7480179862 1.5104154154 0.165401689
C 0.3703447477 1.4902784136 0.041359265
C -0.2814361755 0.2454626969 -0.0323490014
H -0.1892254505 -1.8831949511 0.2281923515
H 2.2891853894 -1.8763825569 0.5029932505
H 1.9814837094 0.2386860624 -1.1399625581
H 2.2581740582 2.4294064766 0.4019584702
H -0.2210083087 2.3832091407 0.1491247555
H -1.3569306168 0.2377740536 -0.070170806
