12
Generated by script
C 0.3742367376 -0.7729751128 -0.1353255321
C 1.8210163406 -0.971207495 -0.0470799941
C 2.5886522898 0.1675788665 0.02996829
C 1.8371626778 1.3107294413 -0.1106648902
C 0.387265805 1.129540788 -0.1859343347
C -0.2904447481 0.2059899291 0.7124993516
H -0.2222005266 -1.4222671375 -0.7504901163
H 2.2274640421 -1.9656209039 -0.0696078664
H 3.6542807638 0.1627100979 0.1353506519
H 2.2570841468 2.2970787577 -0.1837094818
H -0.2000161702 1.7528197145 -0.8358041304
H -1.3522700955 0.2166368633 0.8301079054
