12
Generated by script
C 0.4381412031 -1.1089705664 0.222714251
C 1.7716493103 -1.0658451494 -0.1456025205
C 2.4402702011 0.2341584513 -0.0685880512
C 1.6181883786 1.4090557285 -0.3649418056
C 0.2853449882 1.3521198939 0.0026316257
C -0.2713250675 0.1009840829 0.3238237089
H -0.1015472831 -2.0383429959 0.2866614548
H 2.2900560161 -1.9711219528 -0.4149196749
H 2.1453836652 0.3120482229 1.0109828716
H 2.0252048297 2.3107179901 -0.7915907972
H -0.3653187831 2.2041715869 -0.0949349637
H -1.3230523397 0.05562266 0.5470512222
