12
Generated by script
C 0.548006889 -0.8790792381 0.0240453021
C 1.8438216827 -1.0109666965 -0.6265292101
C 2.1752056944 0.072860264 0.2870030381
C 1.6454466911 1.4186323312 0.0665584128
C 0.3188617909 1.5016565754 -0.2868824883
C -0.3059405507 0.2768207113 -0.2491755718
H 0.1804048807 -1.6894893684 0.6274680135
H 2.3828228203 -1.9336648677 -0.6215100906
H 2.8968812296 -0.1010013341 1.0647511668
H 2.2830780049 2.2729064522 0.201242084
H -0.182839076 2.4208191512 -0.5111018528
H -1.362432114 0.1396199005 -0.3890761517
