12
Generated by script
C 0.4057758411 -0.9400751349 -0.146088591
C 1.80770076 -0.9870941812 -0.0589143764
C 2.4957871908 0.1948655912 0.1609195223
C 1.7655791355 1.4412168896 -0.0704156514
C 0.3347553918 1.4262215054 0.2466269916
C -0.3414974337 0.2375450721 0.0419743942
H -0.1280765081 -1.8695033069 -0.2438383903
H 2.296169833 -1.9452083406 -0.0104213228
H 3.5379018662 0.1729196861 0.4334562794
H 1.5249004768 1.1016239246 -1.1120098081
H -0.199694035 2.3079127267 0.5588734775
H -1.4087153324 0.1656361359 0.16307147
