12
Generated by script
C 0.4473441839 -0.8665805463 -0.0312377061
C 1.8401983568 -0.9149597841 -0.2955358837
C 2.2944084054 0.1868997796 0.4856331675
C 1.7597246146 1.430090557 -0.0359738501
C 0.3363932571 1.5219121874 0.0508741992
C -0.3078204706 0.3183451413 0.1980030536
H -0.0675268195 -1.8117747273 0.0423863993
H 2.3483256293 -1.847602618 -0.4357380813
H 2.6919125514 0.0897585044 1.4854452558
H 2.128028948 1.6704176025 -1.0298041746
H -0.2023670578 2.4181774087 -0.1993731558
H -1.3744887325 0.2413382538 0.2967556403
