12
Generated by script
C 0.4307182643 -0.9048430271 0.1669596841
C 1.8252895618 -0.9861517922 0.4147750602
C 2.2990729043 0.0862174517 -0.3954337497
C 1.8047320709 1.3532649692 0.1086970737
C 0.3839843393 1.4836813106 0.0384193011
C -0.2951243037 0.2953324726 -0.0750499148
H -0.1084116036 -1.8377525647 0.1120068546
H 2.3094619141 -1.9283761888 0.5734808067
H 2.674346518 -0.0421112031 -1.4003642641
H 2.1974507203 1.6096054033 1.0885356873
H -0.1260068963 2.3990841094 0.2792164377
H -1.3647991614 0.2453000471 -0.1578843069
