12
Generated by script
C 0.2770381878 -0.9805074352 -0.4446510938
C 1.6388702598 -0.9390029398 -0.0493583116
C 2.3757999462 0.2416639385 0.2484887051
C 1.7546098052 1.4484074746 0.038814875
C 0.3457547639 1.3632322393 -0.1829885489
C -0.2446098603 0.1249223007 0.2875875142
H -0.2205893012 -1.9087201314 -0.640323064
H 2.1375637374 -1.8871706946 0.0783664087
H 3.4275814347 0.1592727248 0.449513293
H 2.3195837922 2.3409008109 -0.1623316704
H 0.0747665344 1.6048918359 -1.2069711158
H -0.7345640311 0.0319706532 1.2458929775
