12
Generated by script
C 0.4244423097 -0.9662459182 -0.2221065064
C 1.7715564858 -1.0292369366 0.0377403358
C 2.4087899942 0.240789348 0.189100037
C 1.6594401073 1.3413300299 -0.386156973
C 0.4200743028 1.5047133109 0.2975163571
C -0.2256157061 0.2853864855 -0.0320377725
H -0.1749343052 -1.8427856324 -0.3833117613
H 2.2443064647 -1.9516443673 0.3238955349
H 2.7232982165 0.4249188109 1.2125649607
H 1.8586972317 1.7393844464 -1.3703551899
H -0.130920529 2.4159868939 0.4141876896
H -1.2909860894 0.3276724612 -0.1977128909
