12
Generated by script
C 0.4605395861 -1.0853469043 0.4102595933
C 1.6419979425 -0.9304506697 -0.373493358
C 2.425095824 0.1878617161 0.1175154541
C 1.772285032 1.4481331998 -0.0226665214
C 0.410535032 1.3695144932 -0.1840844767
C -0.2159556174 0.1194564275 0.0873239887
H -0.07559822 -1.9971499085 0.5789506299
H 1.758834286 -1.3397665975 -1.3665169256
H 2.8496961625 0.0294612458 1.1034467669
H 2.2568359288 2.381361703 0.2015172599
H -0.2063876282 2.2376571428 -0.3226450408
H -1.2893070603 0.0648968519 -0.0062893062
