12
Generated by script
C 0.4272615022 -0.9957019087 0.1606347132
C 1.7882339079 -1.0455662308 -0.0173472875
C 2.4255620268 0.2304323314 -0.1094063858
C 1.6354078501 1.3169182126 0.4364381699
C 0.4368190506 1.4840517473 -0.3153843264
C -0.2186213752 0.2551789047 -0.0468445871
H -0.1749968132 -1.8785701908 0.2672406465
H 2.2833080111 -1.9601944331 -0.290451697
H 2.7913666152 0.4320162186 -1.1126434728
H 1.7746436613 1.7025974792 1.4359358187
H -0.1137191292 2.3937477375 -0.4456352024
H -1.2923123525 0.2884755731 0.0539824578
