12
Generated by script
C 0.4090251571 -0.8736618713 -0.1520727373
C 1.7871842457 -0.9083373305 0.2019945718
C 2.5162468026 0.2432633798 0.0331342543
C 1.7334308333 1.4143826401 -0.2058233224
C 0.3498826556 1.2846976034 0.208980908
C -0.305534494 0.2812895543 -0.5616994036
H -0.1565193281 -1.7876082647 -0.0575143888
H 2.2446155622 -1.85769409 0.4093910617
H 3.5787506167 0.2143594953 -0.1292851314
H 1.8433156487 1.7828684818 -1.2219197545
H -0.0169900134 1.6463322464 1.1586090261
H -1.3497160714 0.2373799572 -0.7968789619
