12
Generated by script
C 0.3623358342 -1.0596897288 -0.0131107237
C 1.7405347679 -1.055687499 -0.1423604105
C 2.4351963876 0.1903890668 0.1852564756
C 1.7243645515 1.4331510126 -0.1229093851
C 0.3464350314 1.4159422392 0.0007729537
C -0.306587494 0.1730204477 0.0876665469
H -0.2158027739 -1.9582755886 -0.1442450251
H 2.2624012747 -1.9583251937 -0.4135201844
H 1.9577959533 0.1805817505 1.2004995508
H 2.2350631058 2.347355686 -0.3759572141
H -0.2433999751 2.3085788387 -0.1188172725
H -1.3822326964 0.1660942306 0.1233812305
