12
Generated by script
C 0.3468590807 -1.0014782079 0.2354567666
C 1.7284364147 -1.0006930645 0.154915296
C 2.391749466 0.227014827 -0.0202141373
C 1.7278592647 1.466670313 -0.0476391398
C 0.3463551749 1.4799873638 0.0308506532
C -0.3447548473 0.2112055188 -0.2054504484
H -0.1779120912 -1.8868954219 0.5535855895
H 2.3083591905 -1.8817801131 0.369998064
H 3.4680065615 0.2274827481 -0.0161737692
H 2.3073856141 2.3711995151 0.0229673602
H -0.1786639026 2.4053597769 0.2002493694
H 0.165970821 0.1291097869 -1.2008402203
