12
Generated by script
C 0.3562941751 -1.0156374192 0.1519164117
C 1.7995407359 -1.0276733741 -0.0913736903
C 2.4709631432 0.1739718834 0.0544178746
C 1.7212894362 1.363045311 0.0944976688
C 0.3251768083 1.4019559004 -0.0722772061
C -0.3584535682 0.2077333946 -0.2168963939
H 0.541447217 -0.5890664512 1.1729963127
H 2.3447850086 -1.9297002092 -0.3144919059
H 3.5433839408 0.2348289289 -0.0187541993
H 2.2532008238 2.297277216 0.1419854183
H -0.1546251308 2.3519652003 -0.235284668
H -1.3884784239 0.206407284 -0.5322018217
