12
Generated by script
C 0.3759519895 -0.9720826309 0.0625085871
C 1.8025489261 -1.0458816405 0.0449275317
C 2.4370078221 0.1597580446 -0.129552276
C 1.6566994203 1.3415109394 0.0125346062
C 0.2525326184 1.3808609818 0.210062679
C -0.1505115354 0.2379088193 -0.5390593209
H -0.0349916857 -1.1744007718 1.0476992158
H 2.3408221358 -1.920832961 0.3626663738
H 3.5058516972 0.2489432709 -0.184992859
H 2.1614973922 2.2903360814 -0.0822141591
H -0.2736646789 2.3109428683 0.28512932
H -0.4978363304 0.2840712165 -1.5610912166
