12
Generated by script
C 0.3224619917 -0.9839689509 0.4035728572
C 1.5635807228 -0.9824548172 -0.2989461837
C 2.4424562909 0.0381713289 0.2407829007
C 1.9589050287 1.366651036 0.0541387976
C 0.6120593637 1.4524558565 -0.200066234
C -0.1789234061 0.2906450693 0.0318111724
H -0.3322183354 -1.8210550856 0.5375594889
H 1.6970629288 -1.414772848 -1.28002288
H 2.7781712499 -0.1589231031 1.2535237813
H 2.5374797257 2.2369067966 0.3067567691
H 0.1148797095 2.3895160601 -0.3688857722
H -1.242333621 0.3654054225 -0.1341582223
