6
Family_1 [H+].[H][C-]=C([H])[H] | RMSD: 0.0000 | 776.00 to state    1 from traj    1 on state    2
C     -1.618695     0.188250     0.020069
H     -1.111549    -0.826689    -0.094447
H     -2.778933     0.275765    -0.115852
C     -0.867797     1.420456    -0.010413
H     -2.356730     3.220685     0.106339
H      0.143741     0.916248    -0.014383
6
Family_1 [H+].[H][C-]=C([H])[H] | RMSD: 0.2002 | 2032.00 to state    1 from traj    1 on state    2
C     -1.635571     0.269992     0.017735
H     -1.188093    -0.828370    -0.067636
H     -2.842816     0.213399    -0.113232
C     -0.811893     1.364914    -0.008998
H     -2.731001     2.957971     0.117335
H      0.193382     0.930809    -0.043864
6
Family_1 [H+].[H][C-]=C([H])[H] | RMSD: 0.9736 | 12328.00 to state    1 from traj    1 on state    2
C     -1.451806     0.268536     0.082175
H     -1.248852    -0.508049    -0.891295
H     -2.423499     0.322241     0.258384
C     -1.052850     1.484371    -0.146486
H     -1.832670     2.559968     0.164093
H     -0.382014    -0.506417     1.231846
6
Family_1 [H+].[H][C-]=C([H])[H] | RMSD: 0.2470 | 2244.00 to state    1 from traj    1 on state    2
C     -1.669874     0.208505     0.032868
H     -1.090293    -0.796430    -0.168735
H     -2.819549     0.402393    -0.133821
C     -0.813776     1.430992    -0.006342
H     -2.547443     2.709409     0.053137
H      0.319947     0.903736    -0.069945
6
Family_1 [H+].[H][C-]=C([H])[H] | RMSD: 0.6949 | 7048.00 to state    1 from traj    1 on state    2
C     -1.636699     0.156912    -0.061495
H     -1.271881    -0.692140    -0.551935
H     -2.363587    -0.145010     0.736889
C     -0.926676     1.385421     0.122214
H     -1.802135     3.639558    -0.625985
H      0.250238     1.574466    -0.285766
6
Family_1 [H+].[H][C-]=C([H])[H] | RMSD: 0.2540 | 476.00 to state    1 from traj    1 on state    2
C     -1.645735     0.139454    -0.033415
H     -1.229095    -0.882091    -0.020675
H     -2.668748     0.467734     0.241527
C     -0.834101     1.418461     0.017019
H     -2.459067     3.309384    -0.022002
H      0.174128     1.296188    -0.006762
6
Family_1 [H+].[H][C-]=C([H])[H] | RMSD: 0.9619 | 4008.00 to state    1 from traj    1 on state    2
C     -1.575754     0.176430     0.020977
H     -1.307240    -0.789292     0.351560
H     -2.572049     0.220506    -0.814804
C     -0.928690     1.516997     0.188324
H     -1.584867     2.400925    -0.307241
H     -0.425406     0.744359    -1.726765
6
Family_1 [H+].[H][C-]=C([H])[H] | RMSD: 0.2565 | 376.00 to state    1 from traj    1 on state    2
C     -1.642865     0.194689    -0.016214
H     -1.334125    -0.961055     0.085091
H     -2.920535     0.359512     0.038312
C     -0.806416     1.430687    -0.006302
H     -2.573784     2.864144     0.121341
H      0.281569     1.124768     0.020269
6
Family_1 [H+].[H][C-]=C([H])[H] | RMSD: 0.5431 | 1952.00 to state    1 from traj    1 on state    2
C     -1.580118     0.151505     0.003038
H     -1.239717    -0.615714    -0.738791
H     -2.812457     0.110692     0.395282
C     -0.922044     1.384007     0.096402
H     -2.008865     3.637674    -0.567042
H      0.144275     1.325506    -0.277631
6
Family_1 [H+].[H][C-]=C([H])[H] | RMSD: 0.1937 | 464.00 to state    1 from traj    1 on state    2
C     -1.654413     0.162260    -0.014273
H     -1.253814    -0.850847    -0.092995
H     -2.677709     0.275120     0.139536
C     -0.832089     1.423198     0.015897
H     -2.446993     3.238860    -0.022201
H      0.275163     1.199875    -0.046980
6
Family_1 [H+].[H][C-]=C([H])[H] | RMSD: 0.4890 | 624.00 to state    1 from traj    1 on state    2
C     -1.635333     0.172658    -0.033347
H     -1.482526    -0.896449    -0.472283
H     -2.573208     0.149141     0.502701
C     -0.838011     1.394010     0.088370
H     -2.397489     3.364524    -0.453915
H      0.193077     1.469701    -0.235424
6
Family_1 [H+].[H][C-]=C([H])[H] | RMSD: 0.6246 | 1824.00 to state    1 from traj    1 on state    2
C     -1.700692     0.252997    -0.008360
H     -1.005191    -0.654800    -0.039992
H     -2.756833     0.162920    -0.102215
C     -0.740127     1.338037     0.123380
H     -2.400228     2.648454    -0.325653
H     -0.485447     1.640004    -0.905964
6
Family_1 [H+].[H][C-]=C([H])[H] | RMSD: 0.3253 | 376.00 to state    1 from traj    1 on state    2
C     -1.685028     0.148096    -0.004112
H     -1.254279    -0.798437    -0.366010
H     -2.654903     0.117872     0.261105
C     -0.805275     1.423285     0.034477
H     -2.427391     3.331704    -0.197650
H      0.278512     1.379603    -0.062544
6
Family_1 [H+].[H][C-]=C([H])[H] | RMSD: 0.4748 | 3184.00 to state    1 from traj    1 on state    2
C     -1.642841     0.183209     0.006745
H     -1.650492    -0.948719    -0.463577
H     -2.763212     0.370385     0.229911
C     -0.815021     1.428030     0.055604
H     -2.600164     2.819307    -0.320716
H      0.569240     1.314840    -0.191833
6
Family_1 [H+].[H][C-]=C([H])[H] | RMSD: 0.4637 | 3304.00 to state    1 from traj    1 on state    2
C     -1.661424     0.161189     0.005095
H     -1.720427    -0.887083    -0.448690
H     -2.762065     0.160660     0.256204
C     -0.789290     1.451788     0.034933
H     -2.535897     2.869947    -0.248157
H      0.488599     1.391584    -0.039608
6
Family_1 [H+].[H][C-]=C([H])[H] | RMSD: 0.8852 | 9340.00 to state    1 from traj    1 on state    2
C     -1.715368     0.188486     0.047969
H     -1.305400    -0.062667    -0.972396
H     -2.715615     0.160597     0.575812
C     -0.720303     1.408332    -0.078948
H     -2.268360     2.138086    -0.160143
H     -0.419668     1.491635     0.922581
6
Family_1 [H+].[H][C-]=C([H])[H] | RMSD: 0.3466 | 588.00 to state    1 from traj    1 on state    2
C     -1.672950     0.202632     0.014284
H     -1.381529    -0.812243    -0.038373
H     -2.828365     0.267504    -0.089119
C     -0.765902     1.362031    -0.019048
H     -2.898177     3.249024     0.159624
H      0.436935     1.406516     0.021352
6
Family_1 [H+].[H][C-]=C([H])[H] | RMSD: 0.9494 | 3596.00 to state    1 from traj    1 on state    2
C     -1.458928     0.287626     0.011731
H     -1.011207    -0.745474    -0.564379
H     -2.521147     0.153960     0.483686
C     -1.075662     1.490990    -0.105779
H     -1.440255     2.492709     0.118344
H     -0.557744    -0.339788     1.079713
6
Family_1 [H+].[H][C-]=C([H])[H] | RMSD: 1.0131 | 4836.00 to state    1 from traj    1 on state    2
C     -1.378805     0.253647     0.022113
H     -1.651298    -0.396622     0.768737
H     -2.569686     0.069162    -0.946611
C     -1.103621     1.503177     0.003862
H     -1.369982     2.465096     0.466703
H     -0.560962    -0.316565    -0.601621
6
Family_1 [H+].[H][C-]=C([H])[H] | RMSD: 0.8992 | 1856.00 to state    1 from traj    1 on state    2
C     -1.719448     0.329137     0.042228
H     -1.303732    -0.606018     0.475075
H     -2.278404    -0.221331    -0.827421
C     -0.749024     1.321451     0.025909
H     -2.088540     2.097082     0.306463
H     -0.647523     1.817217    -0.769288
6
Family_1 [H+].[H][C-]=C([H])[H] | RMSD: 0.9196 | 1900.00 to state    1 from traj    1 on state    2
C     -1.728653     0.341975     0.037688
H     -1.320294    -0.550897     0.559359
H     -2.172182    -0.190770    -0.847877
C     -0.732651     1.293789     0.021468
H     -2.249006     2.151483     0.360322
H     -0.662122     1.853777    -0.779968
6
Family_1 [H+].[H][C-]=C([H])[H] | RMSD: 0.4925 | 11024.00 to state    1 from traj    1 on state    2
C     -1.665797     0.157468    -0.086665
H     -1.493380    -0.938596    -0.131442
H     -2.410933     0.294929     0.746898
C     -0.831410     1.473609     0.047373
H     -2.323166     2.803119    -0.257508
H      0.251671     1.159991     0.106961
6
Family_1 [H+].[H][C-]=C([H])[H] | RMSD: 0.6869 | 6024.00 to state    1 from traj    1 on state    2
C     -1.631790     0.249724    -0.098453
H     -0.890702    -0.491871     0.294137
H     -2.708989     0.013104     0.301617
C     -0.848747     1.309029     0.142812
H     -1.898390     3.038671    -0.330299
H     -0.676359     1.621316    -0.797307
6
Family_1 [H+].[H][C-]=C([H])[H] | RMSD: 0.8039 | 8728.00 to state    1 from traj    1 on state    2
C     -1.707474     0.352436     0.057343
H     -1.517122    -0.699414     0.530907
H     -2.324252     0.195506    -0.745118
C     -0.769820     1.336304    -0.124146
H     -2.675176     1.861131     0.796660
H      0.303472     1.275116     0.210270
6
Family_1 [H+].[H][C-]=C([H])[H] | RMSD: 0.9988 | 10492.00 to state    1 from traj    1 on state    2
C     -1.356238     0.102637    -0.027004
H     -1.602864    -0.669648     0.539820
H     -2.822568     0.432765    -0.484987
C     -1.105989     1.639973     0.101575
H     -1.292160     2.767286    -0.032565
H     -0.675014    -0.539961    -0.914111
6
Family_1 [H+].[H][C-]=C([H])[H] | RMSD: 0.3469 | 628.00 to state    1 from traj    1 on state    2
C     -1.660186     0.162563    -0.000058
H     -1.441224    -0.790554     0.375475
H     -2.743991     0.244271    -0.290561
C     -0.793527     1.424896    -0.044678
H     -2.511241     3.032844     0.412578
H      0.202399     1.352614     0.032290
6
Family_1 [H+].[H][C-]=C([H])[H] | RMSD: 1.0435 | 4044.00 to state    1 from traj    1 on state    2
C     -1.695990     0.387429     0.028048
H     -1.760319    -0.653085     0.738100
H     -2.183222     0.270480    -0.896601
C     -0.689770     1.260554     0.023411
H     -2.912319     1.754148     0.410455
H     -0.447901     1.746444    -0.868399
6
Family_1 [H+].[H][C-]=C([H])[H] | RMSD: 0.8492 | 3768.00 to state    1 from traj    1 on state    2
C     -1.460202     0.295402    -0.052869
H     -1.393717    -1.043444     0.831027
H     -2.599671     0.207655    -0.443826
C     -1.045608     1.499939     0.059830
H     -1.609368     2.263573     0.238572
H     -0.270528    -0.065667    -0.712000
6
Family_1 [H+].[H][C-]=C([H])[H] | RMSD: 1.0544 | 6712.00 to state    1 from traj    1 on state    2
C     -1.480579     0.042270    -0.040403
H     -1.588903    -0.590578     0.968019
H     -2.141570     0.292946    -0.701869
C     -1.085613     1.676292     0.094469
H     -1.132425     2.779584     0.193154
H     -0.290896    -0.204960    -1.106824
6
Family_1 [H+].[H][C-]=C([H])[H] | RMSD: 0.8818 | 996.00 to state    1 from traj    1 on state    2
C     -1.589493     0.095918     0.093064
H     -1.373767    -0.875308    -0.319056
H     -2.521193     0.376398    -0.763689
C     -0.903405     1.571075     0.145356
H     -1.490462     2.448639    -0.431479
H     -0.641726     0.941739    -1.329993
6
Family_1 [H+].[H][C-]=C([H])[H] | RMSD: 0.9475 | 4680.00 to state    1 from traj    1 on state    2
C     -1.643048     0.174637    -0.001330
H     -1.502526    -0.652645    -0.770707
H     -2.440482     0.081472     0.781479
C     -0.781749     1.409670    -0.089170
H     -1.938630     2.664335    -0.060250
H     -0.956974     1.783567     1.124558
6
Family_1 [H+].[H][C-]=C([H])[H] | RMSD: 0.9131 | 5444.00 to state    1 from traj    1 on state    2
C     -1.534325     0.274709     0.015445
H     -1.226179    -0.612635     0.587569
H     -2.086603    -0.261272    -0.798024
C     -1.094079     1.442648     0.050690
H     -0.982308     2.574979     0.254106
H     -0.117414     0.590279    -0.834974
6
Family_1 [H+].[H][C-]=C([H])[H] | RMSD: 0.9992 | 8536.00 to state    1 from traj    1 on state    2
C     -1.497966     0.220493     0.039325
H     -1.291105    -0.700410     0.269986
H     -2.175063     0.099707    -0.823819
C     -1.052011     1.533194     0.130103
H     -1.308553     2.473802    -0.136354
H     -0.572293    -0.014650    -1.331943
6
Family_1 [H+].[H][C-]=C([H])[H] | RMSD: 0.9457 | 3424.00 to state    1 from traj    1 on state    2
C     -1.441419     0.114011     0.063099
H     -1.501813    -1.262020    -0.673293
H     -2.486142     0.472596     0.121517
C     -1.024887     1.674404    -0.088668
H     -1.520554     2.633341     0.068186
H     -0.835494    -0.399273     0.784974
6
Family_1 [H+].[H][C-]=C([H])[H] | RMSD: 0.8771 | 7836.00 to state    1 from traj    1 on state    2
C     -1.466745     0.176909    -0.106338
H     -1.165546    -0.452155     0.979831
H     -2.703397     0.182555    -0.173679
C     -1.092847     1.541014     0.094877
H     -1.310145     2.740772     0.118855
H     -0.053349    -0.186567    -0.791720
6
Family_1 [H+].[H][C-]=C([H])[H] | RMSD: 0.5909 | 1668.00 to state    1 from traj    1 on state    2
C     -1.670709     0.120714     0.060919
H     -1.361503    -0.672460    -0.305129
H     -2.870731     0.164912    -0.109891
C     -0.771540     1.403611    -0.117627
H     -2.159100     3.129632     0.364316
H     -0.239322     1.969376     0.723141
6
Family_1 [H+].[H][C-]=C([H])[H] | RMSD: 0.4614 | 1916.00 to state    1 from traj    1 on state    2
C     -1.651021     0.240325    -0.017597
H     -1.132304    -0.552883    -0.544316
H     -2.639265     0.335951     0.467233
C     -0.829832     1.362932     0.090390
H     -2.594608     2.889973    -0.497839
H      0.195514     0.977887    -0.295736
6
Family_1 [H+].[H][C-]=C([H])[H] | RMSD: 0.9471 | 8332.00 to state    1 from traj    1 on state    2
C     -1.369399     0.268094    -0.029049
H     -1.701026    -0.743918    -0.573951
H     -2.438878     0.284247     0.727773
C     -1.149847     1.502048    -0.045867
H     -1.563157     2.592731    -0.134564
H     -0.010134    -0.470675     0.870133
6
Family_1 [H+].[H][C-]=C([H])[H] | RMSD: 0.9238 | 5392.00 to state    1 from traj    1 on state    2
C     -1.623877     0.236381     0.016008
H     -1.727239    -0.483838     0.663768
H     -2.534539     0.293388    -0.791265
C     -0.766570     1.356432     0.041559
H     -2.201193     2.161237     0.280371
H     -0.784943     1.804584    -0.842106
6
Family_1 [H+].[H][C-]=C([H])[H] | RMSD: 0.3212 | 3440.00 to state    1 from traj    1 on state    2
C     -1.630224     0.193873    -0.033773
H     -1.554700    -0.786555     0.104586
H     -2.773181     0.337231     0.165405
C     -0.813285     1.417210    -0.001774
H     -2.623197     2.864286     0.088009
H      0.335424     1.142710     0.062294
6
Family_1 [H+].[H][C-]=C([H])[H] | RMSD: 0.3107 | 3572.00 to state    1 from traj    1 on state    2
C     -1.669240     0.201534    -0.010871
H     -1.408286    -0.892363     0.097347
H     -2.573653     0.413488     0.005365
C     -0.786655     1.403850    -0.009151
H     -2.720693     2.872011     0.145309
H      0.234579     1.232451    -0.012726
6
Family_1 [H+].[H][C-]=C([H])[H] | RMSD: 1.0137 | 1612.00 to state    1 from traj    1 on state    2
C     -1.484450     0.200162    -0.030121
H     -0.992917    -0.791365     0.342605
H     -2.585833    -0.226131    -0.330494
C     -1.078611     1.617499     0.127356
H     -1.133730     2.717017    -0.170215
H     -0.478619    -0.603351    -1.003800
6
Family_1 [H+].[H][C-]=C([H])[H] | RMSD: 1.0558 | 2680.00 to state    1 from traj    1 on state    2
C     -1.343788     0.202261    -0.043273
H     -1.731427    -0.446800    -0.634345
H     -2.917147     0.027353     0.767399
C     -1.087872     1.574914     0.029745
H     -1.385499     2.578019    -0.429917
H     -0.722770    -0.579997     0.454766
6
Family_1 [H+].[H][C-]=C([H])[H] | RMSD: 1.0078 | 1072.00 to state    1 from traj    1 on state    2
C     -1.492208     0.247406    -0.011822
H     -1.526847    -0.844651    -0.377553
H     -2.511110     0.501316     0.667322
C     -0.979782     1.493739    -0.182287
H     -1.840200     2.126945     0.383376
H     -0.398110     0.224294     1.636516
6
Family_1 [H+].[H][C-]=C([H])[H] | RMSD: 1.1207 | 1156.00 to state    1 from traj    1 on state    2
C     -1.454146     0.251150    -0.000387
H     -1.693274    -0.843789    -0.535812
H     -2.426489     0.370652     0.706820
C     -1.001073     1.517861    -0.189791
H     -1.744116     2.131835     0.344408
H     -0.612233     0.017163     1.747398
6
Family_1 [H+].[H][C-]=C([H])[H] | RMSD: 0.1338 | 376.00 to state    1 from traj    1 on state    2
C     -1.657249     0.150000     0.007150
H     -1.220438    -0.823683    -0.113002
H     -2.722374     0.098765    -0.014664
C     -0.839198     1.465791     0.005202
H     -2.254988     3.171134     0.030300
H      0.212946     1.055370    -0.053097
6
Family_1 [H+].[H][C-]=C([H])[H] | RMSD: 0.2000 | 448.00 to state    1 from traj    1 on state    2
C     -1.653313     0.154181     0.011988
H     -1.049125    -0.839298    -0.015535
H     -2.648092     0.076314    -0.128423
C     -0.873522     1.430965    -0.008803
H     -2.176652     3.500340     0.145932
H      0.251109     1.129375    -0.043210
6
Family_1 [H+].[H][C-]=C([H])[H] | RMSD: 0.4351 | 600.00 to state    1 from traj    1 on state    2
C     -1.630585     0.156767     0.034599
H     -1.278804    -0.738150     0.432474
H     -2.560272    -0.005552    -0.614169
C     -0.892647     1.445963    -0.072412
H     -1.970821     3.248740     0.588402
H      0.144211     1.152167     0.040572
6
Family_1 [H+].[H][C-]=C([H])[H] | RMSD: 1.0157 | 3732.00 to state    1 from traj    1 on state    2
C     -1.628240     0.210457     0.055960
H     -0.664785    -0.462934     0.202869
H     -2.191800    -0.045557    -0.901172
C     -0.957379     1.501630     0.146010
H     -1.427545     2.623448    -0.183922
H     -0.638180     0.239198    -1.527676
6
Family_1 [H+].[H][C-]=C([H])[H] | RMSD: 1.0495 | 3920.00 to state    1 from traj    1 on state    2
C     -1.460516     0.292736     0.182296
H     -1.330039    -0.065495    -1.308505
H     -2.285819    -0.187240    -0.363308
C     -1.056093     1.461108    -0.061643
H     -1.458249     2.453379    -0.163253
H     -0.670500    -0.344053     0.394117
6
Family_1 [H+].[H][C-]=C([H])[H] | RMSD: 0.9447 | 2080.00 to state    1 from traj    1 on state    2
C     -1.512829     0.217887    -0.088341
H     -1.554938    -0.959071    -0.346005
H     -1.687555     0.047944     0.910298
C     -1.131555     1.531529     0.043261
H     -1.144620     2.623518    -0.355837
H      0.165027     0.196951     0.325416
6
Family_1 [H+].[H][C-]=C([H])[H] | RMSD: 1.1355 | 1120.00 to state    1 from traj    1 on state    2
C     -1.510408     0.215941     0.042093
H     -1.697175    -0.870896     0.181184
H     -2.229799     0.514384    -0.847224
C     -0.940822     1.511889     0.200400
H     -1.774045     2.037235    -0.419334
H     -0.822623     0.485841    -1.807382
6
Family_1 [H+].[H][C-]=C([H])[H] | RMSD: 0.8299 | 3716.00 to state    1 from traj    1 on state    2
C     -1.385714     0.102602    -0.088784
H     -1.607012    -0.492025     0.642188
H     -2.966435     0.352589    -0.064321
C     -1.073448     1.578852     0.106997
H     -1.326666     2.878360    -0.082999
H     -0.529013    -0.019772    -0.715167
6
Family_1 [H+].[H][C-]=C([H])[H] | RMSD: 0.7806 | 1336.00 to state    1 from traj    1 on state    2
C     -1.725177     0.361832    -0.012650
H     -0.733781    -0.419049     0.158127
H     -2.708397    -0.126914     0.144663
C     -0.749536     1.269782    -0.125217
H     -2.188280     2.227737     0.525302
H     -0.613371     1.631256     0.811403
6
Family_1 [H+].[H][C-]=C([H])[H] | RMSD: 0.9316 | 6492.00 to state    1 from traj    1 on state    2
C     -1.599480     0.214704    -0.018352
H     -1.575887    -0.611526     0.776529
H     -2.641881     0.244611    -0.683101
C     -0.795859     1.371197     0.081857
H     -1.991071     2.432614     0.178559
H     -0.980781     1.792047    -1.031968
6
Family_1 [H+].[H][C-]=C([H])[H] | RMSD: 0.1917 | 448.00 to state    1 from traj    1 on state    2
C     -1.645635     0.159753     0.015659
H     -1.161286    -0.874327    -0.001640
H     -2.670763     0.395679    -0.149443
C     -0.851801     1.401630    -0.011527
H     -2.461121     3.391871     0.153380
H      0.320103     1.236664    -0.054810
6
Family_1 [H+].[H][C-]=C([H])[H] | RMSD: 0.3261 | 1636.00 to state    1 from traj    1 on state    2
C     -1.644397     0.257173    -0.021332
H     -1.328763    -0.856465     0.055459
H     -2.828173     0.155679     0.093869
C     -0.814103     1.427937     0.003641
H     -2.576390     2.581313     0.070780
H      0.296311     0.795068    -0.012584
6
Family_1 [H+].[H][C-]=C([H])[H] | RMSD: 0.3639 | 3292.00 to state    1 from traj    1 on state    2
C     -1.657145     0.185330     0.001307
H     -1.502916    -0.968940    -0.333446
H     -2.813000     0.290805     0.202565
C     -0.780399     1.438568     0.029387
H     -2.592631     2.804233    -0.177999
H      0.221830     1.278892    -0.060141
6
Family_1 [H+].[H][C-]=C([H])[H] | RMSD: 0.2964 | 648.00 to state    1 from traj    1 on state    2
C     -1.611481     0.153235     0.008568
H     -1.247298    -0.910657    -0.106971
H     -2.687113     0.642464    -0.013889
C     -0.852426     1.371062     0.000082
H     -2.624490     3.530154     0.050281
H      0.186318     1.329832    -0.035780
6
Family_1 [H+].[H][C-]=C([H])[H] | RMSD: 0.9178 | 8304.00 to state    1 from traj    1 on state    2
C     -1.490903     0.038342    -0.011900
H     -1.479919    -0.902362    -0.438063
H     -2.926697    -0.185457     0.443671
C     -1.019757     1.742051    -0.041546
H     -0.967843     2.740424    -0.059536
H     -0.441042    -0.112374     0.687495
6
Family_1 [H+].[H][C-]=C([H])[H] | RMSD: 0.4182 | 3052.00 to state    1 from traj    1 on state    2
C     -1.659668     0.236448     0.009404
H     -1.426048    -0.830934     0.234322
H     -2.541010     0.552452    -0.204421
C     -0.792304     1.369365    -0.053830
H     -2.861210     2.723999     0.372913
H      0.313456     1.174947     0.123269
6
Family_1 [H+].[H][C-]=C([H])[H] | RMSD: 0.4239 | 4412.00 to state    1 from traj    1 on state    2
C     -1.608088     0.262744    -0.015521
H     -1.556480    -0.836751     0.212634
H     -2.740593     0.579334    -0.029834
C     -0.802751     1.341705    -0.028071
H     -2.972160     2.772233     0.249715
H      0.264295     1.121899     0.083635
6
Family_1 [H+].[H][C-]=C([H])[H] | RMSD: 0.3073 | 984.00 to state    1 from traj    1 on state    2
C     -1.674183     0.249850    -0.001589
H     -1.309251    -0.831707     0.096539
H     -2.578836     0.293293    -0.058636
C     -0.793531     1.389918    -0.017478
H     -2.729656     2.718754     0.187040
H      0.290521     1.035535    -0.001024
6
Family_1 [H+].[H][C-]=C([H])[H] | RMSD: 0.3022 | 1080.00 to state    1 from traj    1 on state    2
C     -1.675295     0.231032     0.017906
H     -1.285777    -0.756579     0.038971
H     -2.694334     0.349154    -0.157466
C     -0.779742     1.395870    -0.024776
H     -2.711402     2.678064     0.198009
H      0.213229     1.098538    -0.000934
6
Family_1 [H+].[H][C-]=C([H])[H] | RMSD: 0.1670 | 2484.00 to state    1 from traj    1 on state    2
C     -1.630867     0.206359     0.008456
H     -1.297456    -0.790751     0.070336
H     -2.618378     0.082048    -0.154570
C     -0.850458     1.399972    -0.018111
H     -2.413401     3.255597     0.208482
H      0.164197     1.067408    -0.012482
6
Family_1 [H+].[H][C-]=C([H])[H] | RMSD: 0.2246 | 4004.00 to state    1 from traj    1 on state    2
C     -1.633016     0.226165     0.016570
H     -1.290796    -0.759970    -0.152489
H     -2.903260     0.294763    -0.047784
C     -0.814790     1.401158     0.006164
H     -2.625367     2.853312     0.008928
H      0.254985     0.976058    -0.082834
6
Family_1 [H+].[H][C-]=C([H])[H] | RMSD: 0.5180 | 1176.00 to state    1 from traj    1 on state    2
C     -1.654159     0.189465    -0.032895
H     -1.078748    -0.536406    -0.551697
H     -2.531338    -0.199067     0.562616
C     -0.889984     1.411726     0.089209
H     -2.006313     3.355457    -0.492107
H      0.199884     1.055567    -0.193123
6
Family_1 [H+].[H][C-]=C([H])[H] | RMSD: 0.8449 | 2116.00 to state    1 from traj    1 on state    2
C     -1.642770     0.179351     0.054396
H     -1.107781    -0.690452     0.563396
H     -2.105578    -0.019249    -0.986849
C     -0.963391     1.564282     0.007434
H     -1.461638     2.374915     0.409815
H     -0.002543     0.313044    -0.726392
6
Family_1 [H+].[H][C-]=C([H])[H] | RMSD: 0.9643 | 2044.00 to state    1 from traj    1 on state    2
C     -1.482564     0.183119    -0.041084
H     -1.238493    -1.228505     0.934938
H     -2.463423     0.188964    -0.674309
C     -1.024693     1.581959     0.081832
H     -1.371898     2.722400     0.253077
H     -0.782235     0.039862    -1.002533
6
Family_1 [H+].[H][C-]=C([H])[H] | RMSD: 1.0593 | 1696.00 to state    1 from traj    1 on state    2
C     -1.504776     0.148737    -0.029924
H     -1.282656    -1.345514     0.634963
H     -2.253395    -0.147717    -0.495202
C     -1.024612     1.700380     0.069223
H     -1.179993     2.661501     0.162864
H     -0.876301    -0.446932    -0.774178
6
Family_1 [H+].[H][C-]=C([H])[H] | RMSD: 0.8393 | 1928.00 to state    1 from traj    1 on state    2
C     -1.632940     0.354975     0.124115
H     -1.422553    -0.781277    -0.609370
H     -2.402015    -0.882128    -0.617550
C     -0.937688     1.382414     0.004545
H     -1.315590     2.373149    -0.035967
H      0.039220     1.342906    -0.273469
6
Family_1 [H+].[H][C-]=C([H])[H] | RMSD: 0.3227 | 448.00 to state    1 from traj    1 on state    2
C     -1.621125     0.131566    -0.007660
H     -1.267280    -0.873480    -0.399633
H     -2.693884     0.200466     0.285253
C     -0.887506     1.447904     0.045375
H     -2.108682     3.399498    -0.258054
H      0.230180     1.207877    -0.080251
6
Family_1 [H+].[H][C-]=C([H])[H] | RMSD: 0.3545 | 1728.00 to state    1 from traj    1 on state    2
C     -1.623497     0.283258    -0.013076
H     -1.323010    -0.781145    -0.213638
H     -2.716691     0.352745     0.219505
C     -0.819781     1.368221     0.035230
H     -2.741003     2.652357    -0.153261
H      0.162310     0.852380    -0.119873
6
Family_1 [H+].[H][C-]=C([H])[H] | RMSD: 0.3357 | 732.00 to state    1 from traj    1 on state    2
C     -1.599118     0.220068     0.007453
H     -1.623323    -0.881483    -0.319665
H     -2.751633     0.325065     0.126341
C     -0.829954     1.396968     0.030926
H     -2.661760     2.944926    -0.161482
H      0.249038     1.098232    -0.105799
6
Family_1 [H+].[H][C-]=C([H])[H] | RMSD: 0.9209 | 4056.00 to state    1 from traj    1 on state    2
C     -1.514115     0.236240     0.007780
H     -0.944818    -0.559666     0.552804
H     -2.309087    -0.025641    -0.712749
C     -1.096560     1.510401     0.065474
H     -1.117412     2.609186     0.168230
H     -0.252439    -0.081461    -0.884435
6
Family_1 [H+].[H][C-]=C([H])[H] | RMSD: 0.3155 | 520.00 to state    1 from traj    1 on state    2
C     -1.603693     0.107160     0.032052
H     -1.291635    -0.941232    -0.160402
H     -2.641799     0.258845    -0.198771
C     -0.902652     1.436599     0.001595
H     -2.053766     3.667373     0.061220
H      0.120289     1.374905    -0.106249
6
Family_1 [H+].[H][C-]=C([H])[H] | RMSD: 0.4414 | 2020.00 to state    1 from traj    1 on state    2
C     -1.665598     0.283318     0.033844
H     -1.276865    -0.733476    -0.047692
H     -2.697403     0.575334    -0.196895
C     -0.757545     1.304962    -0.029766
H     -3.237798     2.872031     0.201359
H      0.353748     1.115493    -0.008646
6
Family_1 [H+].[H][C-]=C([H])[H] | RMSD: 0.2338 | 404.00 to state    1 from traj    1 on state    2
C     -1.653252     0.143505    -0.024984
H     -1.010529    -0.985287    -0.167576
H     -2.687193     0.242562     0.278905
C     -0.866802     1.460075     0.019983
H     -2.153513     3.308284    -0.083690
H      0.147683     1.081522     0.028673
6
Family_1 [H+].[H][C-]=C([H])[H] | RMSD: 1.0398 | 7272.00 to state    1 from traj    1 on state    2
C     -1.767550     0.391792     0.069968
H     -1.672069    -0.931697     0.432016
H     -2.173116     0.239255    -0.904368
C     -0.666286     1.267793    -0.023490
H     -2.871940     1.581187     0.459790
H     -0.013777     2.091002    -0.544534
6
Family_1 [H+].[H][C-]=C([H])[H] | RMSD: 1.0339 | 10356.00 to state    1 from traj    1 on state    2
C     -1.432559     0.203511    -0.108888
H     -1.579923    -0.907782     0.988758
H     -2.791849    -0.367671    -0.200618
C     -1.065250     1.632245     0.091147
H     -1.165751     2.557172     0.155292
H     -0.431094    -0.401172    -0.735322
6
Family_1 [H+].[H][C-]=C([H])[H] | RMSD: 0.1861 | 1680.00 to state    1 from traj    1 on state    2
C     -1.637454     0.181482     0.024432
H     -1.279493    -0.819217    -0.086811
H     -2.788929     0.129196    -0.163863
C     -0.839715     1.399664    -0.012583
H     -2.440822     3.370636     0.133268
H      0.294691     1.233784    -0.027064
6
Family_1 [H+].[H][C-]=C([H])[H] | RMSD: 0.2820 | 3340.00 to state    1 from traj    1 on state    2
C     -1.633517     0.196567     0.006036
H     -1.426074    -0.783865     0.173277
H     -2.753704     0.378347    -0.174123
C     -0.830076     1.419190    -0.035419
H     -2.548183     2.837150     0.280363
H      0.351629     1.070358     0.067325
6
Family_1 [H+].[H][C-]=C([H])[H] | RMSD: 0.4365 | 4604.00 to state    1 from traj    1 on state    2
C     -1.624168     0.064783    -0.004274
H     -1.147522    -0.760493    -0.286470
H     -2.758781    -0.020028     0.157738
C     -0.936387     1.503723     0.033437
H     -1.607711     3.604379    -0.158272
H      0.293052     1.241163    -0.063780
6
Family_1 [H+].[H][C-]=C([H])[H] | RMSD: 0.8741 | 8020.00 to state    1 from traj    1 on state    2
C     -1.535792     0.176079    -0.034704
H     -1.401323    -0.573579    -0.771459
H     -2.101897     0.266030     0.927383
C     -1.041910     1.515562    -0.003863
H     -1.434835     2.576534    -0.381346
H     -0.078588     0.328791     0.681703
6
Family_1 [H+].[H][C-]=C([H])[H] | RMSD: 0.9415 | 17064.00 to state    1 from traj    1 on state    2
C     -1.392857     0.221485    -0.060630
H     -1.914587    -0.964817     0.961478
H     -2.678148     0.019012    -0.536826
C     -1.039102     1.531391     0.066737
H     -1.408876     2.563851     0.272950
H     -0.751668     0.250075    -0.773655
6
Family_1 [H+].[H][C-]=C([H])[H] | RMSD: 1.0798 | 1548.00 to state    1 from traj    1 on state    2
C     -1.384055     0.203652    -0.044148
H     -1.500000    -1.272313     0.604995
H     -2.460078    -0.048169    -0.409560
C     -1.111965     1.628205     0.088948
H     -1.060154     2.708902     0.062889
H     -0.969711    -0.461421    -0.795424
6
Family_1 [H+].[H][C-]=C([H])[H] | RMSD: 0.9419 | 8184.00 to state    1 from traj    1 on state    2
C     -1.617332     0.185912    -0.028075
H     -1.101531    -0.806578    -0.499796
H     -2.148410    -0.217319     0.773970
C     -0.991280     1.548843    -0.105221
H     -1.151753     2.547095     0.100963
H     -0.246639     0.560843     1.209889
6
Family_1 [H+].[H][C-]=C([H])[H] | RMSD: 0.2112 | 364.00 to state    1 from traj    1 on state    2
C     -1.676373     0.168817     0.007693
H     -1.182981    -0.844606     0.150104
H     -2.752954     0.351289    -0.189987
C     -0.797173     1.437138    -0.017540
H     -2.495805     2.939444     0.222136
H      0.174005     1.172654    -0.068200
6
Family_1 [H+].[H][C-]=C([H])[H] | RMSD: 0.9169 | 7412.00 to state    1 from traj    1 on state    2
C     -1.587457     0.232837    -0.008923
H     -1.424674    -0.739950     0.432173
H     -2.480353     0.044574    -0.639651
C     -0.903417     1.436463     0.187951
H     -1.703726     2.446097    -0.292376
H     -0.442509     1.113265    -1.636671
6
Family_1 [H+].[H][C-]=C([H])[H] | RMSD: 0.7958 | 8600.00 to state    1 from traj    1 on state    2
C     -1.431955     0.165022    -0.000790
H     -1.936455    -0.457395     0.782657
H     -2.303889     0.596686    -0.720192
C     -1.091253     1.398795    -0.011464
H     -1.406552     2.815420     0.473210
H     -0.019077     1.166178    -0.392942
6
Family_1 [H+].[H][C-]=C([H])[H] | RMSD: 0.4441 | 560.00 to state    1 from traj    1 on state    2
C     -1.577821     0.114767    -0.024885
H     -1.174322    -0.856716    -0.050323
H     -2.635242     0.071532     0.145966
C     -0.962809     1.421546     0.012191
H     -1.733418     3.875070     0.015577
H      0.084593     1.358723     0.036762
6
Family_1 [H+].[H][C-]=C([H])[H] | RMSD: 0.9879 | 3340.00 to state    1 from traj    1 on state    2
C     -1.476383     0.177326    -0.067617
H     -2.717295    -1.307965     0.637457
H     -2.509461     0.242002    -0.061681
C     -0.954823     1.467949    -0.011145
H     -1.600679     2.320344     0.316867
H      0.065200     1.895870     0.042580
6
Family_1 [H+].[H][C-]=C([H])[H] | RMSD: 0.9107 | 10996.00 to state    1 from traj    1 on state    2
C     -1.533210     0.237415    -0.045861
H     -1.063464    -0.733514    -0.032390
H     -2.580678    -0.033500     0.522453
C     -1.010343     1.570856    -0.109101
H     -1.572905     2.398473     0.318947
H     -0.206503    -0.423410     1.034189
6
Family_1 [H+].[H][C-]=C([H])[H] | RMSD: 1.0080 | 2400.00 to state    1 from traj    1 on state    2
C     -1.355231     0.173963     0.016915
H     -1.767934    -0.189071    -0.966185
H     -3.082730     0.619807     0.608099
C     -1.063816     1.524136     0.019392
H     -1.605686     2.276149    -0.528556
H     -0.450770    -0.186054     0.450728
6
Family_1 [H+].[H][C-]=C([H])[H] | RMSD: 0.9866 | 3536.00 to state    1 from traj    1 on state    2
C     -1.352173     0.189659    -0.007586
H     -1.575825    -0.647412    -0.860508
H     -3.047479     0.852237     0.706427
C     -1.067881     1.536328     0.030596
H     -1.745899     2.336504    -0.530840
H     -0.525923    -0.352808     0.407459
6
Family_1 [H+].[H][C-]=C([H])[H] | RMSD: 1.0168 | 4272.00 to state    1 from traj    1 on state    2
C     -1.453697     0.157802     0.019890
H     -1.268800    -1.372041    -0.777401
H     -2.465954     0.130270     0.479544
C     -1.076201     1.642868    -0.044282
H     -1.009437     2.650181    -0.162489
H     -0.842077    -0.109784     0.747718
6
Family_1 [H+].[H][C-]=C([H])[H] | RMSD: 0.2666 | 500.00 to state    1 from traj    1 on state    2
C     -1.644767     0.122780    -0.023326
H     -1.398017    -0.915450    -0.065210
H     -2.638685     0.242434     0.182328
C     -0.847206     1.452871     0.015517
H     -2.290371     3.332971    -0.020191
H      0.288904     1.319916    -0.007161
6
Family_1 [H+].[H][C-]=C([H])[H] | RMSD: 0.2759 | 564.00 to state    1 from traj    1 on state    2
C     -1.635743     0.181304    -0.037883
H     -1.413228    -0.883366     0.088779
H     -2.733412     0.203903     0.169267
C     -0.814170     1.394666     0.015433
H     -2.576922     3.332096     0.047834
H      0.184222     1.323443    -0.041651
6
Family_1 [H+].[H][C-]=C([H])[H] | RMSD: 0.3187 | 5792.00 to state    1 from traj    1 on state    2
C     -1.627762     0.164553     0.016952
H     -1.099713    -0.867797     0.320165
H     -2.626499     0.023280    -0.420900
C     -0.909402     1.460401    -0.040114
H     -1.978392     3.310039     0.414670
H      0.204927     0.926874    -0.041234
6
Family_1 [H+].[H][C-]=C([H])[H] | RMSD: 0.3820 | 7368.00 to state    1 from traj    1 on state    2
C     -1.671253     0.244431     0.046059
H     -1.347946    -0.712176     0.056034
H     -2.679692     0.374801    -0.384295
C     -0.779532     1.387627    -0.038068
H     -2.721789     2.536509     0.280631
H      0.220486     1.108613    -0.050875
6
Family_1 [H+].[H][C-]=C([H])[H] | RMSD: 0.2234 | 8420.00 to state    1 from traj    1 on state    2
C     -1.657094     0.194810     0.014710
H     -1.036957    -0.842882     0.133013
H     -2.685757    -0.064584    -0.250321
C     -0.872034     1.446722    -0.028700
H     -2.200336     3.253614     0.287486
H      0.327613     0.848704    -0.006763
6
Family_1 [H+].[H][C-]=C([H])[H] | RMSD: 1.0118 | 4112.00 to state    1 from traj    1 on state    2
C     -1.598531     0.166001     0.255641
H     -1.121188    -0.722317    -0.383896
H     -1.839456     0.873492    -1.759649
C     -1.018272     1.401072    -0.038127
H     -1.473708     2.601565     0.322826
H     -0.116378     1.329344    -0.774383
6
Family_1 [H+].[H][C-]=C([H])[H] | RMSD: 0.9338 | 1508.00 to state    1 from traj    1 on state    2
C     -1.632702     0.212900    -0.029110
H     -1.285596    -0.639601     0.518310
H     -2.612748    -0.288997    -0.508106
C     -0.868657     1.440761     0.155765
H     -1.402141     2.476950    -0.173388
H     -0.625837     1.501983    -1.349274
6
Family_1 [H+].[H][C-]=C([H])[H] | RMSD: 0.2604 | 660.00 to state    1 from traj    1 on state    2
C     -1.638725     0.158630     0.003663
H     -1.359641    -0.857191     0.265404
H     -2.738943     0.272320    -0.251225
C     -0.829219     1.423495    -0.034558
H     -2.424690     3.211898     0.337613
H      0.198792     1.275694     0.013060
6
Family_1 [H+].[H][C-]=C([H])[H] | RMSD: 0.2125 | 1636.00 to state    1 from traj    1 on state    2
C     -1.639731     0.225303    -0.005471
H     -1.368641    -0.875035     0.087223
H     -2.737741     0.115677    -0.052588
C     -0.812666     1.416151    -0.012736
H     -2.532108     2.929160     0.171210
H      0.128741     1.025988     0.007820
6
Family_1 [H+].[H][C-]=C([H])[H] | RMSD: 0.4744 | 3272.00 to state    1 from traj    1 on state    2
C     -1.654540     0.129553     0.021174
H     -1.257286    -0.588477     0.421787
H     -2.513163    -0.154920    -0.506420
C     -0.897228     1.455579    -0.064124
H     -1.862447     3.385488     0.542015
H      0.307225     1.224808     0.051112
6
Family_1 [H+].[H][C-]=C([H])[H] | RMSD: 0.2736 | 1244.00 to state    1 from traj    1 on state    2
C     -1.647752     0.215640     0.009289
H     -1.346178    -0.703549     0.000184
H     -2.690694     0.053782    -0.092890
C     -0.813517     1.358161    -0.021712
H     -2.702687     3.435235     0.193509
H      0.335542     1.216446     0.043938
6
Family_1 [H+].[H][C-]=C([H])[H] | RMSD: 0.6626 | 2492.00 to state    1 from traj    1 on state    2
C     -1.640857     0.199541    -0.066939
H     -1.064619    -0.570943     0.215074
H     -2.690603     0.324923     0.489898
C     -0.824086     1.338293    -0.095533
H     -2.078648     2.953209     0.378459
H     -0.526378     1.723303     0.849256
6
Family_1 [H+].[H][C-]=C([H])[H] | RMSD: 0.3149 | 576.00 to state    1 from traj    1 on state    2
C     -1.640285     0.169241    -0.043886
H     -1.359080    -0.870304    -0.098263
H     -2.778263     0.049691     0.333645
C     -0.836254     1.413804     0.039901
H     -2.388351     3.404625    -0.125954
H      0.303617     1.307757    -0.065221
6
Family_1 [H+].[H][C-]=C([H])[H] | RMSD: 0.3533 | 2240.00 to state    1 from traj    1 on state    2
C     -1.630078     0.203898     0.037052
H     -1.385083    -0.841984    -0.425594
H     -2.710571     0.611677     0.021996
C     -0.808678     1.393587     0.015045
H     -2.699283     2.794826    -0.142586
H      0.122653     1.155185    -0.077870
6
Family_1 [H+].[H][C-]=C([H])[H] | RMSD: 0.3535 | 2312.00 to state    1 from traj    1 on state    2
C     -1.609879     0.185628     0.043076
H     -1.531633    -0.797856    -0.451679
H     -2.727458     0.565098    -0.008199
C     -0.829669     1.417413     0.011765
H     -2.601734     2.789845    -0.141986
H      0.197974     1.096415    -0.054882
6
Family_1 [H+].[H][C-]=C([H])[H] | RMSD: 0.5390 | 4568.00 to state    1 from traj    1 on state    2
C     -1.606122     0.092327    -0.065941
H     -1.074770    -0.908999    -0.195347
H     -2.451809     0.039008     0.578780
C     -0.975374     1.510277     0.046862
H     -1.458635     3.495231    -0.237579
H      0.013786     1.033474     0.078203
6
Family_1 [H+].[H][C-]=C([H])[H] | RMSD: 0.9568 | 8768.00 to state    1 from traj    1 on state    2
C     -1.727723     0.232270    -0.010846
H     -1.448486    -0.210978    -0.857980
H     -2.409540    -0.064242     0.932547
C     -0.706504     1.346479    -0.063421
H     -2.373189     2.405025    -0.200766
H     -0.495028     1.813146     1.007854
6
Family_1 [H+].[H][C-]=C([H])[H] | RMSD: 1.0517 | 1264.00 to state    1 from traj    1 on state    2
C     -1.436471     0.225110    -0.001446
H     -1.477495    -1.222910     0.577344
H     -2.379998    -0.332441    -0.668880
C     -1.088062     1.623516     0.039689
H     -1.032094     2.629826     0.269453
H     -0.760612    -0.347276    -0.636884
6
Family_1 [H+].[H][C-]=C([H])[H] | RMSD: 1.1105 | 2240.00 to state    1 from traj    1 on state    2
C     -1.371531     0.210874    -0.001584
H     -1.636406    -0.836474     0.485288
H     -2.226831    -0.099142    -0.654429
C     -1.152457     1.608390     0.090764
H     -1.220283     2.837524     0.054502
H     -0.573161    -0.824843    -0.951282
6
Family_1 [H+].[H][C-]=C([H])[H] | RMSD: 0.9984 | 5244.00 to state    1 from traj    1 on state    2
C     -1.299804     0.225415    -0.063070
H     -1.658628    -0.649336     0.727523
H     -2.825538     0.432154    -0.352745
C     -1.155700     1.533416     0.099354
H     -1.505351     2.712341     0.032311
H     -0.483200    -0.698003    -0.842711
6
Family_1 [H+].[H][C-]=C([H])[H] | RMSD: 0.7336 | 1888.00 to state    1 from traj    1 on state    2
C     -1.589039     0.205257     0.114353
H     -1.034567    -0.682464    -0.329927
H     -2.451266     0.223380    -0.834252
C     -0.954250     1.307400     0.061644
H     -1.572386     3.336980    -0.100284
H     -0.368481     1.852591    -0.835946
6
Family_1 [H+].[H][C-]=C([H])[H] | RMSD: 0.6914 | 2036.00 to state    1 from traj    1 on state    2
C     -1.603148     0.199380     0.092900
H     -0.999018    -0.578905    -0.263727
H     -2.137632     0.259943    -0.679111
C     -0.955593     1.307023     0.050267
H     -1.653812     3.427872    -0.059691
H     -0.452117     1.696099    -0.706677
6
Family_1 [H+].[H][C-]=C([H])[H] | RMSD: 0.9271 | 1972.00 to state    1 from traj    1 on state    2
C     -1.660376     0.073103    -0.025149
H     -1.284992    -0.653198    -0.549679
H     -2.421613     0.206181     0.876043
C     -0.857220     1.584961    -0.134629
H     -1.561969     2.457196     0.131250
H     -0.464272     0.987697     1.442956
6
Family_1 [H+].[H][C-]=C([H])[H] | RMSD: 0.9951 | 2188.00 to state    1 from traj    1 on state    2
C     -1.693735     0.048469    -0.059247
H     -1.859470    -0.607102     0.966495
H     -2.413012     0.805976    -0.438172
C     -0.699533     1.542324     0.086346
H     -2.341593     1.971055     0.149516
H     -0.600230     1.629515    -1.004014
6
Family_1 [H+].[H][C-]=C([H])[H] | RMSD: 0.3700 | 492.00 to state    1 from traj    1 on state    2
C     -1.609614     0.156533    -0.019627
H     -1.349356    -0.993757    -0.278130
H     -2.682973     0.382810     0.273172
C     -0.881135     1.389055     0.050910
H     -2.404881     3.563923    -0.220994
H      0.384464     1.385118    -0.150086
6
Family_1 [H+].[H][C-]=C([H])[H] | RMSD: 0.9328 | 7084.00 to state    1 from traj    1 on state    2
C     -1.603778     0.254797     0.189777
H     -1.150400    -0.620320    -0.204601
H     -1.728119     0.613903    -1.395107
C     -0.987696     1.354472    -0.016601
H     -1.589202     2.355565     0.265561
H     -0.384813     1.230140    -0.732654
6
Family_1 [H+].[H][C-]=C([H])[H] | RMSD: 0.2213 | 380.00 to state    1 from traj    1 on state    2
C     -1.634379     0.157703    -0.014572
H     -1.313594    -0.841938    -0.136335
H     -2.711358     0.243781     0.176013
C     -0.836363     1.415653     0.012136
H     -2.415954     3.346543    -0.030421
H      0.149767     1.258834     0.016486
6
Family_1 [H+].[H][C-]=C([H])[H] | RMSD: 0.2988 | 568.00 to state    1 from traj    1 on state    2
C     -1.604200     0.178204    -0.007984
H     -1.396194    -0.940748    -0.159292
H     -2.700416     0.371188     0.104497
C     -0.864671     1.374646     0.031413
H     -2.556193     3.519901    -0.083404
H      0.339364     1.301221    -0.144253
6
Family_1 [H+].[H][C-]=C([H])[H] | RMSD: 0.3777 | 1988.00 to state    1 from traj    1 on state    2
C     -1.669154     0.257535    -0.014669
H     -1.302401    -0.690899    -0.154276
H     -2.633598     0.378219     0.186542
C     -0.790752     1.343868     0.039401
H     -2.932786     2.894954    -0.131023
H      0.448512     1.090740    -0.199227
6
Family_1 [H+].[H][C-]=C([H])[H] | RMSD: 0.3667 | 2128.00 to state    1 from traj    1 on state    2
C     -1.673654     0.231350    -0.016930
H     -1.342684    -0.865104    -0.213347
H     -2.752569     0.334214     0.260627
C     -0.760755     1.364882     0.029968
H     -2.893014     2.969577    -0.131364
H      0.264196     1.295947    -0.074551
6
Family_1 [H+].[H][C-]=C([H])[H] | RMSD: 0.9516 | 3496.00 to state    1 from traj    1 on state    2
C     -1.402809     0.241517    -0.071851
H     -1.385985    -0.399986     0.733579
H     -3.357424    -0.338712    -0.288509
C     -1.058862     1.520793     0.086668
H     -1.186460     2.583696     0.075914
H     -0.469360    -0.089295    -0.700819
6
Family_1 [H+].[H][C-]=C([H])[H] | RMSD: 1.0226 | 4852.00 to state    1 from traj    1 on state    2
C     -1.406145     0.187325    -0.027761
H     -1.138880    -0.164282     0.789007
H     -3.152468     0.109370    -0.655810
C     -1.089990     1.525932     0.075928
H     -1.109831     2.589340     0.172548
H     -0.587391    -0.194217    -0.882966
6
Family_1 [H+].[H][C-]=C([H])[H] | RMSD: 0.9057 | 5672.00 to state    1 from traj    1 on state    2
C     -1.391570     0.130190    -0.041742
H     -1.693225    -0.676521     0.666647
H     -2.849477     0.417469    -0.489528
C     -1.073421     1.582821     0.116732
H     -1.354330     2.619299    -0.036004
H     -0.462633    -0.017104    -1.037942
6
Family_1 [H+].[H][C-]=C([H])[H] | RMSD: 0.1797 | 448.00 to state    1 from traj    1 on state    2
C     -1.671302     0.160331     0.015919
H     -1.316352    -0.833915    -0.084487
H     -2.646025     0.149298    -0.088196
C     -0.824832     1.457102    -0.004677
H     -2.380284     3.057222     0.084018
H      0.354074     1.109405    -0.048571
6
Family_1 [H+].[H][C-]=C([H])[H] | RMSD: 0.2879 | 532.00 to state    1 from traj    1 on state    2
C     -1.615426     0.245716    -0.020141
H     -1.383370    -0.794258    -0.256018
H     -2.596472     0.162102     0.278122
C     -0.849807     1.363221     0.044326
H     -2.607071     3.186601    -0.189284
H      0.230117     1.028796    -0.124282
6
Family_1 [H+].[H][C-]=C([H])[H] | RMSD: 0.8792 | 2824.00 to state    1 from traj    1 on state    2
C     -1.614835     0.156306     0.015027
H     -1.094432    -0.080556     0.985696
H     -2.308031    -0.164087    -0.853873
C     -0.984299     1.411333    -0.119957
H     -1.327970     3.150251     0.968667
H     -0.030836     1.169738     0.146540
6
Family_1 [H+].[H][C-]=C([H])[H] | RMSD: 0.9994 | 8900.00 to state    1 from traj    1 on state    2
C     -1.346421     0.219491    -0.001943
H     -1.907212    -0.475038     0.651760
H     -3.100105     0.037909    -0.590498
C     -1.056802     1.578159    -0.038837
H     -1.585028     2.350209     0.491509
H     -0.503335    -0.578481    -0.070135
6
Family_1 [H+].[H][C-]=C([H])[H] | RMSD: 0.3235 | 520.00 to state    1 from traj    1 on state    2
C     -1.620284     0.219322    -0.001485
H     -1.371093    -0.732743    -0.235008
H     -2.745544     0.218081     0.132972
C     -0.818562     1.332902     0.023213
H     -2.802938     3.517073    -0.081079
H      0.248369     1.256613    -0.079070
6
Family_1 [H+].[H][C-]=C([H])[H] | RMSD: 0.9952 | 16112.00 to state    1 from traj    1 on state    2
C     -1.483802     0.235359    -0.014126
H     -1.161608    -0.727330     0.581057
H     -2.423230    -0.258019    -0.578358
C     -1.133751     1.565342     0.064428
H     -0.831952     2.458625     0.156359
H     -0.125013    -0.175025    -0.761718
6
Family_1 [H+].[H][C-]=C([H])[H] | RMSD: 0.8211 | 2072.00 to state    1 from traj    1 on state    2
C     -1.696376     0.328890    -0.028092
H     -1.308469    -0.286509     0.776919
H     -2.482068    -0.207755    -0.551012
C     -0.782922     1.334733     0.063139
H     -2.211379     2.078094     0.237349
H     -0.187281     1.347800    -0.884141
6
Family_1 [H+].[H][C-]=C([H])[H] | RMSD: 0.9495 | 4116.00 to state    1 from traj    1 on state    2
C     -1.641239     0.132591    -0.075106
H     -0.949496    -0.634472     0.176128
H     -2.530282     0.141504     0.695637
C     -0.884360     1.515317    -0.163959
H     -1.401733     2.549419     0.534675
H     -0.755971     1.062428     1.438901
6
Family_1 [H+].[H][C-]=C([H])[H] | RMSD: 0.4957 | 3272.00 to state    1 from traj    1 on state    2
C     -1.649889     0.086209    -0.004785
H     -1.400456    -0.805814     0.534669
H     -2.612745    -0.080767    -0.414057
C     -0.888026     1.501095    -0.050060
H     -1.800188     3.363897     0.515046
H      0.322660     1.363704     0.014572
6
Family_1 [H+].[H][C-]=C([H])[H] | RMSD: 0.4369 | 4396.00 to state    1 from traj    1 on state    2
C     -1.669804     0.082764     0.053088
H     -0.919666    -0.714643     0.001312
H     -2.723404    -0.205846    -0.476980
C     -0.885657     1.512285    -0.025501
H     -1.649253     3.532225     0.258753
H      0.010657     1.136997    -0.115089
6
Family_1 [H+].[H][C-]=C([H])[H] | RMSD: 0.9434 | 1764.00 to state    1 from traj    1 on state    2
C     -1.445596     0.076316    -0.107928
H     -2.151247    -0.423260     0.247878
H     -2.557086     1.442040     0.658194
C     -0.999772     1.366155     0.011444
H     -1.818907     2.610865    -0.076787
H     -0.066260     1.937160     0.317105
6
Family_1 [H+].[H][C-]=C([H])[H] | RMSD: 0.9739 | 5260.00 to state    1 from traj    1 on state    2
C     -1.364786     0.198078    -0.033655
H     -1.776329    -0.865536     1.009643
H     -2.584446     0.450934    -0.796129
C     -1.114681     1.512995     0.072028
H     -1.331215     2.622199     0.301099
H     -0.495188     0.158633    -0.975137
6
Family_1 [H+].[H][C-]=C([H])[H] | RMSD: 1.0158 | 4592.00 to state    1 from traj    1 on state    2
C     -1.401009     0.209383    -0.100309
H     -1.813714    -0.861782     1.084528
H     -2.282594    -0.088909    -0.283655
C     -1.143007     1.565412     0.050084
H     -0.981789     2.575320     0.330752
H     -0.339941    -0.017687    -0.536436
6
Family_1 [H+].[H][C-]=C([H])[H] | RMSD: 0.9512 | 5664.00 to state    1 from traj    1 on state    2
C     -1.423583     0.258707    -0.126821
H     -1.686442    -0.958469     1.111507
H     -2.628491    -0.051744    -0.122921
C     -1.014498     1.541870     0.083076
H     -1.679520     2.535698     0.217968
H     -0.685869    -0.225757    -0.688574
6
Family_1 [H+].[H][C-]=C([H])[H] | RMSD: 1.0060 | 3160.00 to state    1 from traj    1 on state    2
C     -1.619476     0.270937    -0.036112
H     -1.042906    -0.819954    -0.428600
H     -2.146369     0.329919     0.890297
C     -0.915962     1.421383    -0.151339
H     -1.700403     2.173090     0.246434
H     -0.630572     0.906622     1.522193
6
Family_1 [H+].[H][C-]=C([H])[H] | RMSD: 0.6280 | 4280.00 to state    1 from traj    1 on state    2
C     -1.564645     0.082814     0.035463
H     -0.922715    -0.878555     0.026872
H     -2.526890     0.044801    -0.395366
C     -1.051234     1.496271    -0.012813
H     -1.025057     3.633922     0.201007
H     -0.087081     1.138791    -0.105682
6
Family_1 [H+].[H][C-]=C([H])[H] | RMSD: 0.4885 | 3220.00 to state    1 from traj    1 on state    2
C     -1.630536     0.199927    -0.024695
H     -1.781811    -0.768083     0.393570
H     -2.722900     0.422815    -0.105944
C     -0.790113     1.408375    -0.031972
H     -2.735934     2.648437     0.329245
H      0.352610     1.287643     0.055083
6
Family_1 [H+].[H][C-]=C([H])[H] | RMSD: 0.4845 | 3320.00 to state    1 from traj    1 on state    2
C     -1.636916     0.189973    -0.026815
H     -1.829436    -0.885850     0.350678
H     -2.708099     0.328812    -0.051826
C     -0.770456     1.426643    -0.036068
H     -2.714886     2.694809     0.323803
H      0.206170     1.353975     0.123359
6
Family_1 [H+].[H][C-]=C([H])[H] | RMSD: 0.2893 | 596.00 to state    1 from traj    1 on state    2
C     -1.600054     0.177804    -0.008733
H     -1.156245    -0.845166     0.419480
H     -2.750621     0.536385    -0.249298
C     -0.890396     1.403143    -0.051829
H     -2.368354     3.202293     0.443501
H      0.218912     1.023249     0.104674
6
Family_1 [H+].[H][C-]=C([H])[H] | RMSD: 0.2087 | 388.00 to state    1 from traj    1 on state    2
C     -1.615795     0.154733     0.004839
H     -1.177905    -0.733448     0.120057
H     -2.608692     0.263217    -0.167082
C     -0.902925     1.407648    -0.018442
H     -2.221549     3.499013     0.223600
H      0.288694     1.109215    -0.017761
6
Family_1 [H+].[H][C-]=C([H])[H] | RMSD: 0.3095 | 588.00 to state    1 from traj    1 on state    2
C     -1.614878     0.169045     0.002866
H     -1.182538    -0.957165     0.162747
H     -2.744658     0.234490    -0.196596
C     -0.864934     1.375131    -0.021802
H     -2.404150     3.723569     0.271705
H      0.148271     1.354030    -0.015509
6
Family_1 [H+].[H][C-]=C([H])[H] | RMSD: 0.5358 | 5976.00 to state    1 from traj    1 on state    2
C     -1.563932     0.204795    -0.006039
H     -1.448048    -0.626346    -0.711882
H     -2.553567    -0.003555     0.450292
C     -0.917478     1.385086     0.097010
H     -2.053610     3.331300    -0.568290
H     -0.108804     1.108921    -0.257383
6
Family_1 [H+].[H][C-]=C([H])[H] | RMSD: 0.9034 | 2228.00 to state    1 from traj    1 on state    2
C     -1.630250     0.203600     0.040752
H     -1.153893    -0.735981     0.107323
H     -2.415902     0.031414    -0.717342
C     -0.884185     1.460982     0.156894
H     -1.530108     2.437433    -0.296420
H     -0.670619     1.187335    -1.451933
6
Family_1 [H+].[H][C-]=C([H])[H] | RMSD: 0.9852 | 2348.00 to state    1 from traj    1 on state    2
C     -1.631073     0.271570     0.066290
H     -1.208644    -0.836956     0.038945
H     -2.169661     0.088834    -0.853584
C     -0.886573     1.432071     0.152592
H     -1.655504     2.132867    -0.282116
H     -0.698442     1.070039    -1.514652
6
Family_1 [H+].[H][C-]=C([H])[H] | RMSD: 0.2451 | 448.00 to state    1 from traj    1 on state    2
C     -1.640075     0.120639     0.015200
H     -1.046542    -0.826322    -0.217535
H     -2.734745     0.269032    -0.005213
C     -0.881977     1.429377     0.009696
H     -2.149461     3.578715    -0.019582
H      0.251002     1.263901    -0.057608
6
Family_1 [H+].[H][C-]=C([H])[H] | RMSD: 0.4474 | 1836.00 to state    1 from traj    1 on state    2
C     -1.658143     0.319693     0.012421
H     -1.331021    -0.742922    -0.161363
H     -2.835256     0.221953     0.001991
C     -0.780485     1.365158     0.012276
H     -2.810438     2.308225    -0.025523
H      0.302918     0.891426    -0.112663
6
Family_1 [H+].[H][C-]=C([H])[H] | RMSD: 0.1941 | 620.00 to state    1 from traj    1 on state    2
C     -1.616649     0.138616     0.007539
H     -1.329338    -0.967219     0.061827
H     -2.904253     0.224389    -0.157418
C     -0.850050     1.454746    -0.012387
H     -2.259846     3.294115     0.173815
H      0.154111     1.217561    -0.023739
6
Family_1 [H+].[H][C-]=C([H])[H] | RMSD: 0.3367 | 332.00 to state    1 from traj    1 on state    2
C     -1.604628     0.167075    -0.007865
H     -1.185374    -0.693392     0.413710
H     -2.707725     0.053480    -0.282135
C     -0.927170     1.433999    -0.049146
H     -2.018739     3.372891     0.449930
H      0.348216     0.943965     0.094536
6
Family_1 [H+].[H][C-]=C([H])[H] | RMSD: 0.3003 | 1636.00 to state    1 from traj    1 on state    2
C     -1.601969     0.261790     0.006320
H     -1.359037    -0.884084     0.227954
H     -2.580305     0.451005    -0.212942
C     -0.858470     1.362736    -0.044513
H     -2.714793     2.949234     0.352320
H      0.240225     0.881345     0.084480
6
Family_1 [H+].[H][C-]=C([H])[H] | RMSD: 0.1699 | 2844.00 to state    1 from traj    1 on state    2
C     -1.603918     0.258857     0.007058
H     -1.077657    -0.861224    -0.238580
H     -2.661465     0.222119     0.070240
C     -0.873777     1.368794     0.019602
H     -2.518820     3.225478    -0.062853
H      0.049645     0.773893    -0.089752
6
Family_1 [H+].[H][C-]=C([H])[H] | RMSD: 0.2788 | 612.00 to state    1 from traj    1 on state    2
C     -1.607124     0.173408     0.005593
H     -1.270972    -0.889372     0.227757
H     -2.658447     0.194421    -0.239188
C     -0.888734     1.394358    -0.044534
H     -2.282636     3.539581     0.369508
H      0.220179     1.229194     0.102652
6
Family_1 [H+].[H][C-]=C([H])[H] | RMSD: 0.4736 | 4596.00 to state    1 from traj    1 on state    2
C     -1.582263     0.067338    -0.000767
H     -1.117491    -0.777281    -0.179955
H     -2.713042     0.020655     0.044925
C     -0.980775     1.500038     0.020542
H     -1.405026     3.659437    -0.060189
H      0.044191     1.175664    -0.043703
6
Family_1 [H+].[H][C-]=C([H])[H] | RMSD: 1.0996 | 6324.00 to state    1 from traj    1 on state    2
C     -1.532342     0.281346     0.034346
H     -1.176567    -0.568251    -0.679666
H     -2.397448    -0.146907     0.535358
C     -0.999010     1.522398    -0.188132
H     -1.593010     2.275096     0.340562
H     -0.401921    -0.297947     1.632931
6
Family_1 [H+].[H][C-]=C([H])[H] | RMSD: 0.8548 | 7120.00 to state    1 from traj    1 on state    2
C     -1.352913     0.214352     0.038476
H     -1.996241    -0.328855    -0.642335
H     -2.932401     0.415213     0.143489
C     -1.038000     1.511561     0.013560
H     -1.916786     2.418952    -0.288100
H     -0.396927    -0.315907     0.163621
6
Family_1 [H+].[H][C-]=C([H])[H] | RMSD: 0.9471 | 3020.00 to state    1 from traj    1 on state    2
C     -1.469358     0.097464    -0.044199
H     -2.123652    -0.654665    -0.693492
H     -2.397657     0.930993     0.965415
C     -1.010021     1.475950    -0.015943
H     -1.635878     2.451089    -0.363906
H     -0.031046     1.279116     0.805333
6
Family_1 [H+].[H][C-]=C([H])[H] | RMSD: 0.9100 | 3176.00 to state    1 from traj    1 on state    2
C     -1.702226     0.216570     0.181906
H     -1.129654    -0.770414    -0.080786
H     -1.949964     0.404288    -1.420582
C     -0.883298     1.404773    -0.022778
H     -1.701328     2.223116     0.340332
H     -0.142505     1.578442    -0.738357
6
Family_1 [H+].[H][C-]=C([H])[H] | RMSD: 0.3792 | 616.00 to state    1 from traj    1 on state    2
C     -1.641328     0.248385    -0.002532
H     -1.556620    -0.788649    -0.008345
H     -2.729924     0.379983     0.009528
C     -0.776040     1.361781    -0.000674
H     -2.916020     2.776321     0.076161
H      0.275432     1.200947    -0.042419
6
Family_1 [H+].[H][C-]=C([H])[H] | RMSD: 0.4020 | 1936.00 to state    1 from traj    1 on state    2
C     -1.647702     0.285289    -0.004437
H     -1.272680    -0.839816    -0.005836
H     -2.550865     0.625354     0.054385
C     -0.798210     1.322929    -0.008856
H     -3.064873     2.804666     0.102921
H      0.301405     1.001606     0.003649
6
Family_1 [H+].[H][C-]=C([H])[H] | RMSD: 0.3407 | 2124.00 to state    1 from traj    1 on state    2
C     -1.649848     0.275115     0.009236
H     -1.255622    -0.680052    -0.061582
H     -2.861902     0.405693    -0.019096
C     -0.784798     1.339201    -0.012678
H     -2.940054     2.765744     0.102373
H      0.336320     1.027775     0.016031
6
Family_1 [H+].[H][C-]=C([H])[H] | RMSD: 0.3296 | 616.00 to state    1 from traj    1 on state    2
C     -1.628583     0.233612     0.011081
H     -1.107935    -0.778511    -0.185572
H     -2.650943     0.353096     0.005448
C     -0.833275     1.308702     0.014933
H     -2.899031     3.681655    -0.003923
H      0.260896     1.120859    -0.129210
6
Family_1 [H+].[H][C-]=C([H])[H] | RMSD: 0.2827 | 944.00 to state    1 from traj    1 on state    2
C     -1.642388     0.215462    -0.001794
H     -1.295686    -0.916989    -0.070504
H     -2.680753     0.296546     0.028788
C     -0.808625     1.350300     0.004076
H     -2.803432     3.435467     0.061459
H      0.253640     1.282692    -0.050219
6
Family_1 [H+].[H][C-]=C([H])[H] | RMSD: 0.4796 | 1304.00 to state    1 from traj    1 on state    2
C     -1.584336     0.162138    -0.001348
H     -1.268774    -0.728077     0.534571
H     -2.654942    -0.048224    -0.431470
C     -0.935618     1.409116    -0.067806
H     -1.869895     3.579493     0.588133
H      0.088854     1.229078     0.129498
6
Family_1 [H+].[H][C-]=C([H])[H] | RMSD: 0.5050 | 2536.00 to state    1 from traj    1 on state    2
C     -1.605310     0.157923     0.028821
H     -1.204317    -0.567663     0.454284
H     -2.496614    -0.005556    -0.576215
C     -0.933046     1.391351    -0.084028
H     -1.912344     3.615786     0.636371
H      0.127797     1.251611     0.140101
6
Family_1 [H+].[H][C-]=C([H])[H] | RMSD: 0.2631 | 496.00 to state    1 from traj    1 on state    2
C     -1.671139     0.172021    -0.015179
H     -1.221207    -0.895006    -0.152316
H     -2.816357     0.276602     0.179222
C     -0.795834     1.406941     0.029563
H     -2.589095     3.228727    -0.092734
H      0.290605     1.330095    -0.108855
6
Family_1 [H+].[H][C-]=C([H])[H] | RMSD: 0.4663 | 3304.00 to state    1 from traj    1 on state    2
C     -1.623013     0.215707    -0.020143
H     -1.434903    -0.717414    -0.523086
H     -2.579698    -0.136321     0.418015
C     -0.869895     1.392089     0.092661
H     -2.260667     3.280798    -0.467768
H      0.248243     1.169783    -0.294545
6
Family_1 [H+].[H][C-]=C([H])[H] | RMSD: 0.8762 | 7704.00 to state    1 from traj    1 on state    2
C     -1.523508     0.257962     0.008551
H     -0.903736    -0.564579    -0.533374
H     -2.466781    -0.446516     0.321660
C     -1.107274     1.514203    -0.015650
H     -0.987305     2.764317    -0.120608
H     -0.026347    -0.114948     0.413625
6
Family_1 [H+].[H][C-]=C([H])[H] | RMSD: 1.0977 | 24308.00 to state    1 from traj    4 on state    2
C     -1.728050     0.458181     0.035389
H     -1.519800    -0.457922     0.817069
H     -2.426445     0.132780    -0.976401
C     -0.642946     1.204464    -0.004543
H     -3.113221     1.560057     0.549083
H     -0.420224     1.708373    -0.760587
6
Family_1 [H+].[H][C-]=C([H])[H] | RMSD: 1.2077 | 8180.00 to state    1 from traj    1 on state    2
C     -1.414729     0.214381    -0.107525
H     -1.485210    -1.368893     1.109653
H     -2.483798     0.253641    -0.261995
C     -0.989910     1.637985     0.078203
H     -1.652697     2.418006     0.251978
H     -1.457095    -0.620129    -0.753531
6
Family_1 [H+].[H][C-]=C([H])[H] | RMSD: 0.3076 | 476.00 to state    1 from traj    1 on state    2
C     -1.611343     0.119955    -0.002303
H     -1.352988    -1.005337     0.045427
H     -2.674813     0.256238    -0.086678
C     -0.901552     1.437350     0.000759
H     -2.121448     3.573495     0.120630
H      0.360388     1.374088    -0.064261
6
Family_1 [H+].[H][C-]=C([H])[H] | RMSD: 0.2665 | 668.00 to state    1 from traj    1 on state    2
C     -1.591341     0.145481     0.001378
H     -1.289979    -0.916078     0.017175
H     -2.671871     0.217196    -0.090058
C     -0.896256     1.409725    -0.003430
H     -2.173278     3.642206     0.129297
H      0.044816     1.280170    -0.035241
6
Family_1 [H+].[H][C-]=C([H])[H] | RMSD: 0.1970 | 3064.00 to state    1 from traj    1 on state    2
C     -1.650617     0.228373    -0.006329
H     -1.087162    -0.662877    -0.154895
H     -2.786412     0.215455     0.135793
C     -0.827524     1.377165     0.013182
H     -2.632793     3.142628    -0.031191
H      0.303387     0.928543    -0.034646
6
Family_1 [H+].[H][C-]=C([H])[H] | RMSD: 0.2641 | 4100.00 to state    1 from traj    1 on state    2
C     -1.651112     0.222716    -0.001920
H     -1.324782    -0.704075    -0.049636
H     -2.698350     0.336757     0.038565
C     -0.812314     1.404209     0.001836
H     -2.647093     2.770522     0.043721
H      0.291911     0.965711    -0.034932
6
Family_1 [H+].[H][C-]=C([H])[H] | RMSD: 1.0568 | 9948.00 to state    1 from traj    1 on state    2
C     -1.371126     0.251581     0.027081
H     -1.811276    -0.643025    -0.714912
H     -2.726146    -0.353963     0.427671
C     -1.061087     1.521571    -0.104235
H     -1.259758     2.683325     0.065680
H     -0.953063    -0.059822     1.137619
6
Family_1 [H+].[H][C-]=C([H])[H] | RMSD: 1.0474 | 18804.00 to state    1 from traj    1 on state    2
C     -1.526418     0.046869     0.063375
H     -2.150686    -0.605646     0.592331
H     -1.512151     1.653755    -0.889082
C     -0.973178     1.389663    -0.083595
H     -2.343840     2.996498     0.658764
H      0.059348     1.592962    -0.124350
6
Family_1 [H+].[H][C-]=C([H])[H] | RMSD: 0.8651 | 5296.00 to state    1 from traj    1 on state    2
C     -1.644198     0.051909     0.165111
H     -1.275268    -0.727283    -0.514960
H     -2.101262     0.921196    -0.999269
C     -0.914202     1.546604     0.049998
H     -1.569206     2.310077    -0.170036
H     -0.300906     1.203473    -0.882192
6
Family_1 [H+].[H][C-]=C([H])[H] | RMSD: 0.9956 | 1408.00 to state    1 from traj    1 on state    2
C     -1.410751     0.168458     0.051091
H     -1.358822    -1.042670    -0.869086
H     -2.493462     0.090203     0.276618
C     -1.132464     1.618312    -0.034691
H     -0.936486     2.707678    -0.201063
H     -0.638810    -0.290955     0.594827
6
Family_1 [H+].[H][C-]=C([H])[H] | RMSD: 0.4127 | 3344.00 to state    1 from traj    1 on state    2
C     -1.660089     0.291347     0.039286
H     -1.438460    -0.753648     0.112987
H     -2.657389     0.222318    -0.349389
C     -0.781758     1.351266    -0.064097
H     -2.877957     2.647417     0.397351
H      0.338355     1.065884     0.131409
6
Family_1 [H+].[H][C-]=C([H])[H] | RMSD: 0.8884 | 1112.00 to state    1 from traj    1 on state    2
C     -1.731664     0.202020     0.012283
H     -1.647423    -0.536493    -0.829737
H     -2.479999     0.131341     0.684669
C     -0.721799     1.442861    -0.038282
H     -2.264193     1.895213    -0.254197
H     -0.105427     1.664891     0.705776
6
Family_1 [H+].[H][C-]=C([H])[H] | RMSD: 0.3263 | 576.00 to state    1 from traj    1 on state    2
C     -1.663656     0.217612     0.004146
H     -1.217206    -0.641647     0.381728
H     -2.621894     0.239472    -0.305540
C     -0.825876     1.401076    -0.053628
H     -2.505833     2.864314     0.447830
H      0.277675     1.004926     0.062317
6
Family_1 [H+].[H][C-]=C([H])[H] | RMSD: 0.8978 | 3924.00 to state    1 from traj    1 on state    2
C     -1.441645     0.154458     0.050105
H     -1.641706    -0.886530    -0.682183
H     -2.404864     0.431456     0.264957
C     -1.064811     1.609606    -0.100187
H     -1.541690     2.503504     0.070284
H     -0.277325    -0.313623     0.940422
6
Family_1 [H+].[H][C-]=C([H])[H] | RMSD: 1.0553 | 6660.00 to state    1 from traj    1 on state    2
C     -1.369292     0.262594    -0.019491
H     -1.266135    -1.021232     0.565650
H     -2.363502     0.583569    -0.559722
C     -1.142041     1.530641     0.104642
H     -1.512373     2.547704     0.006807
H     -0.665461    -0.722829    -1.030647
6
Family_1 [H+].[H][C-]=C([H])[H] | RMSD: 0.2754 | 400.00 to state    1 from traj    1 on state    2
C     -1.588441     0.138343    -0.003636
H     -1.311477    -0.960695     0.074011
H     -2.739625     0.243742    -0.073928
C     -0.907209     1.420124    -0.020225
H     -2.146675     3.622913     0.199989
H      0.203425     1.278672     0.080969
6
Family_1 [H+].[H][C-]=C([H])[H] | RMSD: 0.8066 | 3020.00 to state    1 from traj    1 on state    2
C     -1.547056     0.154682    -0.026976
H     -1.316587    -0.948309    -0.542787
H     -2.331328     0.053713     0.710929
C     -0.955410     1.509741    -0.055478
H     -1.435472     2.974564    -0.065605
H     -0.829744     0.842130     0.876675
6
Family_1 [H+].[H][C-]=C([H])[H] | RMSD: 0.6525 | 2316.00 to state    1 from traj    1 on state    2
C     -1.606162     0.181631    -0.074103
H     -1.267845    -0.397044     0.762376
H     -2.615354     0.632070    -0.172929
C     -0.860277     1.321733     0.075665
H     -2.171850     2.907970     0.109412
H     -0.287367     1.698220    -0.720754
6
Family_1 [H+].[H][C-]=C([H])[H] | RMSD: 0.2277 | 508.00 to state    1 from traj    1 on state    2
C     -1.618921     0.165788     0.018531
H     -1.299695    -0.894041    -0.222176
H     -2.677462     0.394032    -0.011838
C     -0.843865     1.390032     0.003408
H     -2.513801     3.432884     0.000443
H      0.105009     1.283307    -0.031129
6
Family_1 [H+].[H][C-]=C([H])[H] | RMSD: 0.1860 | 1432.00 to state    1 from traj    1 on state    2
C     -1.658511     0.141422    -0.009121
H     -1.197001    -0.748991    -0.133829
H     -2.733554     0.042331     0.123705
C     -0.847927     1.478761     0.015323
H     -2.179428     3.169556    -0.036086
H      0.244177     0.986351    -0.030968
6
Family_1 [H+].[H][C-]=C([H])[H] | RMSD: 0.2822 | 392.00 to state    1 from traj    1 on state    2
C     -1.622658     0.167563     0.009419
H     -1.076295    -0.791993    -0.356911
H     -2.680241     0.305303     0.128464
C     -0.881348     1.378773     0.034285
H     -2.363741     3.618532    -0.167099
H      0.225498     1.197338    -0.128499
6
Family_1 [H+].[H][C-]=C([H])[H] | RMSD: 0.3893 | 556.00 to state    1 from traj    1 on state    2
C     -1.601915     0.169632    -0.004335
H     -1.195454    -0.707154    -0.295755
H     -2.656571     0.394458     0.184752
C     -0.871281     1.332021     0.038007
H     -2.598536     3.866876    -0.161133
H      0.188654     1.307422    -0.132369
6
Family_1 [H+].[H][C-]=C([H])[H] | RMSD: 0.8085 | 3580.00 to state    1 from traj    1 on state    2
C     -1.567961     0.226117    -0.024727
H     -1.277234    -0.688467    -0.582029
H     -2.535572    -0.020871     0.775281
C     -0.909036     1.420286    -0.081974
H     -1.669423     2.769312    -0.005464
H     -0.734383     1.076840     1.080351
6
Family_1 [H+].[H][C-]=C([H])[H] | RMSD: 0.8787 | 1480.00 to state    1 from traj    1 on state    2
C     -1.470564     0.183872    -0.231173
H     -1.860753    -0.682673     0.607218
H     -2.790896     0.388322     1.221795
C     -1.010608     1.450679     0.080244
H     -1.475883     2.427849    -0.224942
H     -0.039339     1.144539     0.191065
6
Family_1 [H+].[H][C-]=C([H])[H] | RMSD: 0.7186 | 2104.00 to state    1 from traj    1 on state    2
C     -1.577690     0.155996    -0.066843
H     -1.348697    -1.003414     0.263434
H     -2.585007     0.570212     0.071299
C     -0.888184     1.353626     0.135177
H     -1.894362     3.207765    -0.292321
H     -0.521091     1.992097    -0.859946
6
Family_1 [H+].[H][C-]=C([H])[H] | RMSD: 1.1002 | 3528.00 to state    1 from traj    1 on state    2
C     -1.592360     0.375394    -0.035385
H     -1.751472    -0.383039     0.798366
H     -2.592589     0.388438    -0.479982
C     -0.739016     1.202536     0.047333
H     -2.465033     1.828376     0.256659
H     -1.142686     2.118942    -0.720706
6
Family_1 [H+].[H][C-]=C([H])[H] | RMSD: 0.9824 | 4156.00 to state    1 from traj    1 on state    2
C     -1.450939     0.199326    -0.027826
H     -1.486753    -0.818820     0.904859
H     -2.228698     0.218425    -0.746383
C     -1.110694     1.559092     0.079694
H     -1.337138     2.627799     0.247708
H     -0.155524    -0.225316    -1.027516
6
Family_1 [H+].[H][C-]=C([H])[H] | RMSD: 0.9431 | 6560.00 to state    1 from traj    1 on state    2
C     -1.553250     0.300314     0.006378
H     -1.135029    -0.640789     0.542200
H     -2.426140    -0.082847    -0.798090
C     -0.984931     1.430985     0.139751
H     -1.471514     2.321247    -0.062398
H     -0.454884     0.527612    -1.426222
6
Family_1 [H+].[H][C-]=C([H])[H] | RMSD: 1.0433 | 13164.00 to state    1 from traj    1 on state    2
C     -1.524812     0.126705     0.157325
H     -1.798206    -0.999896     0.122272
H     -1.532600     1.418004    -1.181892
C     -1.041868     1.366986    -0.160795
H     -1.753870     2.776135     0.803074
H     -0.063304     1.762245     0.294609
6
Family_1 [H+].[H][C-]=C([H])[H] | RMSD: 0.6593 | 6660.00 to state    1 from traj    1 on state    2
C     -1.661512     0.286464    -0.027756
H     -1.105681    -0.565752    -0.095565
H     -2.911735     0.327150     0.091585
C     -0.752417     1.270557     0.133624
H     -2.543668     2.643913    -0.419530
H     -0.407029     1.796557    -0.841255
6
Family_1 [H+].[H][C-]=C([H])[H] | RMSD: 0.8786 | 1072.00 to state    1 from traj    1 on state    2
C     -1.521685     0.265357     0.251081
H     -1.793889    -0.522417    -0.818831
H     -2.739650     0.077165    -1.356897
C     -0.981586     1.399557    -0.069744
H     -1.556948     2.160519     0.193754
H      0.186947     1.200974    -0.182062
6
Family_1 [H+].[H][C-]=C([H])[H] | RMSD: 0.4749 | 1980.00 to state    1 from traj    1 on state    2
C     -1.661510     0.309135     0.023721
H     -1.210329    -0.735709     0.198141
H     -2.797540     0.507106    -0.260619
C     -0.761322     1.313490    -0.073792
H     -3.138345     2.647295     0.442338
H      0.284184     1.001450     0.213490
6
Family_1 [H+].[H][C-]=C([H])[H] | RMSD: 0.4890 | 2012.00 to state    1 from traj    1 on state    2
C     -1.661323     0.308201     0.019702
H     -1.257509    -0.702517     0.247007
H     -2.777651     0.493036    -0.272075
C     -0.757414     1.312974    -0.071417
H     -3.155325     2.636533     0.453517
H      0.279661     1.010374     0.184495
6
Family_1 [H+].[H][C-]=C([H])[H] | RMSD: 0.2590 | 640.00 to state    1 from traj    1 on state    2
C     -1.617853     0.117736     0.058757
H     -1.307919    -0.961964    -0.234589
H     -2.826326     0.319076    -0.321737
C     -0.861600     1.441368    -0.016595
H     -2.237310     3.458342     0.107984
H      0.184206     1.361587    -0.057327
6
Family_1 [H+].[H][C-]=C([H])[H] | RMSD: 1.0659 | 6940.00 to state    1 from traj    1 on state    2
C     -1.439548     0.108782    -0.005701
H     -1.576604    -1.036925     0.703733
H     -2.736064    -0.150395    -0.817776
C     -1.029776     1.675999     0.093202
H     -1.083056     2.783639     0.142064
H     -0.912323    -0.108376    -1.073932
6
Family_1 [H+].[H][C-]=C([H])[H] | RMSD: 0.1739 | 332.00 to state    1 from traj    1 on state    2
C     -1.654866     0.189604     0.005169
H     -1.236038    -0.747488    -0.004525
H     -2.697095     0.188232    -0.062089
C     -0.824309     1.392530    -0.010534
H     -2.546846     3.285903     0.137710
H      0.289319     1.175984    -0.010448
6
Family_1 [H+].[H][C-]=C([H])[H] | RMSD: 0.8533 | 2488.00 to state    1 from traj    1 on state    2
C     -1.515006     0.213445    -0.014499
H     -1.257732    -0.812542     0.646699
H     -2.372003    -0.272416    -0.567337
C     -1.067836     1.571637     0.025868
H     -1.220884     2.709860     0.321180
H     -0.104781    -0.140546    -0.539292
6
Family_1 [H+].[H][C-]=C([H])[H] | RMSD: 0.8376 | 2496.00 to state    1 from traj    1 on state    2
C     -1.595309     0.273504    -0.033827
H     -0.999092    -0.549750    -0.375215
H     -2.408749    -0.286514     0.673689
C     -0.978249     1.501110    -0.075951
H     -1.615305     2.470497     0.074088
H     -0.042876    -0.025134     0.932235
6
Family_1 [H+].[H][C-]=C([H])[H] | RMSD: 0.7429 | 692.00 to state    1 from traj    1 on state    2
C     -1.598939     0.144670     0.014314
H     -1.277905    -0.561795     0.854364
H     -2.292970     0.032557    -0.779501
C     -0.989470     1.420136    -0.096534
H     -1.456550     3.279326     0.839183
H      0.138359     1.359009     0.062376
6
Family_1 [H+].[H][C-]=C([H])[H] | RMSD: 0.9103 | 12132.00 to state    1 from traj    1 on state    2
C     -1.645745     0.228870     0.006596
H     -1.827205    -0.711208     0.622146
H     -2.292544     0.106640    -0.733476
C     -0.745101     1.383745     0.073618
H     -2.323699     2.402847     0.173946
H     -0.799715     1.741141    -1.021705
6
Family_1 [H+].[H][C-]=C([H])[H] | RMSD: 0.4762 | 404.00 to state    1 from traj    1 on state    2
C     -1.587714     0.135087     0.004331
H     -1.441776    -0.808229     0.590971
H     -2.617216     0.183993    -0.511781
C     -0.913132     1.436145    -0.067687
H     -1.963579     3.354869     0.606066
H      0.090130     1.301892     0.066393
6
Family_1 [H+].[H][C-]=C([H])[H] | RMSD: 0.6088 | 1732.00 to state    1 from traj    1 on state    2
C     -1.678279     0.292180     0.060736
H     -1.265787    -0.591589    -0.392795
H     -2.725218     0.472753    -0.006660
C     -0.754086     1.280565    -0.106386
H     -2.698362     2.415035     0.270927
H     -0.059071     1.718309     0.669189
6
Family_1 [H+].[H][C-]=C([H])[H] | RMSD: 0.6061 | 1780.00 to state    2 from traj    3 on state    1
C     -1.679438     0.296557     0.060893
H     -1.279625    -0.539705    -0.284380
H     -2.730473     0.476924    -0.089632
C     -0.737836     1.258486    -0.113889
H     -2.850958     2.540348     0.354924
H     -0.067197     1.747864     0.647283
6
Family_1 [H+].[H][C-]=C([H])[H] | RMSD: 0.8873 | 2948.00 to state    1 from traj    1 on state    2
C     -1.599585     0.282717    -0.030956
H     -1.834468    -0.812814    -0.103239
H     -2.062842     1.264528     0.395083
C     -0.814822     1.201388    -0.013548
H     -2.998891     2.530931    -0.010025
H     -0.066219     2.088061     0.245190
6
Family_1 [H+].[H][C-]=C([H])[H] | RMSD: 0.9644 | 2356.00 to state    1 from traj    1 on state    2
C     -1.468086     0.156819     0.039915
H     -1.767207    -0.678739     0.456570
H     -2.163441    -0.172117    -0.914613
C     -1.072935     1.601953     0.062904
H     -1.263778     2.767762     0.173629
H     -0.259303    -0.119040    -0.944023
6
Family_1 [H+].[H][C-]=C([H])[H] | RMSD: 0.2581 | 536.00 to state    1 from traj    1 on state    2
C     -1.640207     0.244519     0.035317
H     -1.349991    -0.764694    -0.209109
H     -2.744174     0.253030    -0.140455
C     -0.800909     1.391926    -0.001135
H     -2.665407     2.772905     0.030818
H      0.115409     0.994232    -0.091839
6
Family_1 [H+].[H][C-]=C([H])[H] | RMSD: 0.2800 | 4492.00 to state    1 from traj    1 on state    2
C     -1.631227     0.178452     0.020004
H     -0.999742    -0.690380    -0.376857
H     -2.800616     0.121211     0.047107
C     -0.868515     1.379947     0.036424
H     -2.311934     3.599805    -0.164970
H      0.166698     1.154809    -0.180932
6
Family_1 [H+].[H][C-]=C([H])[H] | RMSD: 0.5231 | 1120.00 to state    1 from traj    1 on state    2
C     -1.553568     0.113928    -0.036970
H     -1.377501    -0.893302    -0.299682
H     -2.582141     0.042017     0.384829
C     -0.983438     1.443846     0.060336
H     -1.601546     3.711638    -0.283329
H      0.059625     1.332539    -0.083528
6
Family_1 [H+].[H][C-]=C([H])[H] | RMSD: 0.5952 | 1316.00 to state    1 from traj    1 on state    2
C     -1.596853     0.087473     0.020591
H     -1.203446    -0.853876    -0.606792
H     -2.646325     0.032265     0.178069
C     -0.952291     1.428970     0.056839
H     -1.643530     3.915708    -0.342546
H      0.136365     1.591278    -0.154643
6
Family_1 [H+].[H][C-]=C([H])[H] | RMSD: 0.7612 | 5844.00 to state    1 from traj    1 on state    2
C     -1.787097     0.249142     0.132674
H     -0.646327     0.056002    -0.424328
H     -2.324004    -0.361810    -0.665835
C     -0.813099     1.294762    -0.060511
H     -1.786905     2.817271     0.243008
H      0.008616     1.846695    -0.016007
6
Family_1 [H+].[H][C-]=C([H])[H] | RMSD: 0.3156 | 408.00 to state    1 from traj    1 on state    2
C     -1.644850     0.125257    -0.011738
H     -1.363596    -0.760764     0.350187
H     -2.810366     0.189304    -0.205115
C     -0.840014     1.439951    -0.032210
H     -2.286552     3.317822     0.350702
H      0.337641     1.357947     0.024616
6
Family_1 [H+].[H][C-]=C([H])[H] | RMSD: 0.3534 | 624.00 to state    1 from traj    1 on state    2
C     -1.663985     0.160766     0.008452
H     -1.305948    -0.959503     0.302144
H     -2.673038     0.132154    -0.321854
C     -0.813009     1.406011    -0.041234
H     -2.456023     3.450044     0.403428
H      0.218360     1.462920     0.003617
6
Family_1 [H+].[H][C-]=C([H])[H] | RMSD: 0.3001 | 1620.00 to state    1 from traj    1 on state    2
C     -1.648193     0.243195     0.030115
H     -1.382951    -1.028130     0.075118
H     -2.603141     0.266005    -0.290321
C     -0.821019     1.414816    -0.038510
H     -2.591612     2.756523     0.289950
H      0.268319     1.004095     0.022002
6
Family_1 [H+].[H][C-]=C([H])[H] | RMSD: 1.0563 | 16792.00 to state    2 from traj    6 on state    1
C     -1.398446     0.261713     0.075058
H     -1.500297    -0.898857    -1.015948
H     -2.556067    -0.022514     0.237920
C     -1.044251     1.565843    -0.051610
H     -1.593362     2.558394    -0.180884
H     -0.975594    -0.658765     0.676227
6
Family_1 [H+].[H][C-]=C([H])[H] | RMSD: 0.2154 | 276.00 to state    1 from traj    1 on state    2
C     -1.621475     0.160839    -0.002603
H     -1.186749    -0.670285    -0.218524
H     -2.599235     0.141750     0.122679
C     -0.882471     1.420449     0.025579
H     -2.195405     3.399605    -0.095431
H      0.085887     1.041637    -0.085788
6
Family_1 [H+].[H][C-]=C([H])[H] | RMSD: 1.0184 | 4008.00 to state    1 from traj    1 on state    2
C     -1.654000     0.353173    -0.006449
H     -2.003002    -0.524857    -0.684086
H     -2.513970     0.286987     0.640708
C     -0.730110     1.270449     0.005883
H     -2.620599     1.630352    -0.339652
H     -0.185856     2.015780     0.386490
6
Family_1 [H+].[H][C-]=C([H])[H] | RMSD: 0.9182 | 3484.00 to state    1 from traj    1 on state    2
C     -1.522017    -0.086726     0.139692
H     -1.819152    -0.947103    -0.273742
H     -1.857490     1.492665    -0.829347
C     -1.042408     1.567550    -0.072819
H     -1.358170     3.036600     0.280416
H     -0.140048     1.527636     0.022545
6
Family_1 [H+].[H][C-]=C([H])[H] | RMSD: 0.9691 | 8500.00 to state    1 from traj    1 on state    2
C     -1.519528     0.265235     0.033784
H     -1.003165    -0.436753    -0.811535
H     -2.472912     0.268326     0.598777
C     -1.029654     1.417346    -0.145827
H     -1.383235     2.391729     0.124269
H     -0.497176     0.482429     1.420277
6
Family_1 [H+].[H][C-]=C([H])[H] | RMSD: 1.0904 | 2936.00 to state    1 from traj    1 on state    2
C     -1.409857     0.176958    -0.088821
H     -1.335638    -0.881740     1.181268
H     -2.499667    -0.065797    -0.454020
C     -1.141197     1.615516     0.043116
H     -0.953330     2.805488     0.424966
H     -0.545540    -0.461679    -0.610884
6
Family_1 [H+].[H][C-]=C([H])[H] | RMSD: 0.1574 | 404.00 to state    1 from traj    1 on state    2
C     -1.633449     0.172205     0.014202
H     -1.307331    -0.894861    -0.085660
H     -2.732503     0.390509    -0.076752
C     -0.830118     1.424156    -0.001565
H     -2.496432     3.100166     0.066919
H      0.159624     1.137290    -0.058373
6
Family_1 [H+].[H][C-]=C([H])[H] | RMSD: 0.9124 | 2196.00 to state    1 from traj    1 on state    2
C     -1.429955     0.263423    -0.051770
H     -1.841264    -1.171096     0.746041
H     -2.381530    -0.179803    -0.440723
C     -1.022389     1.540866     0.078617
H     -1.616745     2.651699     0.167286
H     -0.670822    -0.045295    -0.795796
6
Family_1 [H+].[H][C-]=C([H])[H] | RMSD: 0.9517 | 2296.00 to state    1 from traj    1 on state    2
C     -1.436956     0.257686    -0.023994
H     -1.793751    -1.389734     0.556150
H     -2.314108    -0.061935    -0.507720
C     -1.026249     1.577752     0.082136
H     -1.588166     2.503101     0.094785
H     -0.684936    -0.167099    -0.839298
6
Family_1 [H+].[H][C-]=C([H])[H] | RMSD: 0.2737 | 400.00 to state    1 from traj    1 on state    2
C     -1.598227     0.156655    -0.028801
H     -1.259906    -1.002949    -0.100965
H     -2.640795     0.492367     0.244830
C     -0.899564     1.403295     0.023249
H     -2.342342     3.470118    -0.066394
H      0.274197     1.207423    -0.014605
6
Family_1 [H+].[H][C-]=C([H])[H] | RMSD: 0.2731 | 628.00 to state    1 from traj    1 on state    2
C     -1.606806     0.173052    -0.008611
H     -1.457294    -0.809209    -0.130626
H     -2.664431     0.218522     0.107182
C     -0.848907     1.384104     0.015289
H     -2.503667     3.501288    -0.020847
H      0.155166     1.289652    -0.038565
6
Family_1 [H+].[H][C-]=C([H])[H] | RMSD: 0.8916 | 19040.00 to state    1 from traj    6 on state    2
C     -1.529609     0.273934     0.007383
H     -1.188836    -0.639165     0.446312
H     -2.289983     0.354851    -0.702982
C     -0.998487     1.422284     0.140836
H     -1.642851     2.342186    -0.130646
H     -0.486069     0.485370    -1.382096
6
Family_1 [H+].[H][C-]=C([H])[H] | RMSD: 0.9272 | 1324.00 to state    1 from traj    1 on state    2
C     -1.590512     0.213603    -0.041410
H     -1.306536    -0.427628     0.791547
H     -2.604666     0.038184    -0.638503
C     -0.920411     1.448757     0.166621
H     -1.621255     2.403788    -0.102887
H     -0.279902     0.932334    -1.545417
6
Family_1 [H+].[H][C-]=C([H])[H] | RMSD: 0.9787 | 3600.00 to state    1 from traj    1 on state    2
C     -1.427289     0.170973     0.038259
H     -1.367018    -0.170816    -1.007417
H     -3.226144     0.063047     0.387436
C     -1.062257     1.560445     0.056028
H     -1.220257     2.401620    -0.605577
H     -0.253668    -0.170048     0.098785
6
Family_1 [H+].[H][C-]=C([H])[H] | RMSD: 0.3810 | 656.00 to state    1 from traj    1 on state    2
C     -1.615522     0.170469    -0.002307
H     -1.030172    -0.923521    -0.260893
H     -2.679277     0.147027     0.133897
C     -0.889462     1.362307     0.026455
H     -2.298289     3.940858    -0.088087
H      0.124608     1.326396    -0.075933
6
Family_1 [H+].[H][C-]=C([H])[H] | RMSD: 0.5937 | 3120.00 to state    1 from traj    1 on state    2
C     -1.657204     0.171235    -0.011892
H     -1.683598    -0.654806    -0.589220
H     -2.697060     0.185395     0.409591
C     -0.775236     1.399531     0.111959
H     -2.564464     2.941473    -0.581271
H      0.197579     1.566023    -0.434738
6
Family_1 [H+].[H][C-]=C([H])[H] | RMSD: 0.9292 | 10472.00 to state    1 from traj    1 on state    2
C     -1.384059     0.279834    -0.090613
H     -1.886952    -1.014770     0.579930
H     -2.512000     0.168703     0.008934
C     -1.021076     1.521185     0.104739
H     -1.800117     2.382701    -0.080045
H     -0.873828    -0.242167    -0.680412
6
Family_1 [H+].[H][C-]=C([H])[H] | RMSD: 0.2857 | 616.00 to state    1 from traj    1 on state    2
C     -1.626832     0.175399    -0.004790
H     -1.154096    -0.891647     0.147568
H     -2.683334     0.005129    -0.121382
C     -0.886222     1.400065    -0.024462
H     -2.209590     3.651111     0.264913
H      0.260053     1.217506     0.054182
6
Family_1 [H+].[H][C-]=C([H])[H] | RMSD: 0.3182 | 2100.00 to state    1 from traj    1 on state    2
C     -1.617992     0.243928     0.010461
H     -1.379848    -0.728733     0.316445
H     -2.701237     0.227383    -0.308049
C     -0.826392     1.354700    -0.062108
H     -2.673733     3.105390     0.463561
H      0.149597     1.102050     0.140166
6
Family_1 [H+].[H][C-]=C([H])[H] | RMSD: 0.2739 | 424.00 to state    1 from traj    1 on state    2
C     -1.654824     0.143460    -0.028083
H     -1.176360    -0.831618    -0.100979
H     -2.615379     0.173621     0.241049
C     -0.854531     1.417575     0.022449
H     -2.288739     3.509459    -0.054579
H      0.249431     1.302574    -0.021640
6
Family_1 [H+].[H][C-]=C([H])[H] | RMSD: 0.7833 | 3272.00 to state    1 from traj    1 on state    2
C     -1.314954     0.195912     0.050316
H     -1.732557    -0.772445     0.104889
H     -2.080890     1.301111    -0.550530
C     -1.197528     1.409269    -0.009404
H     -1.724808     2.994090     0.189752
H     -0.255527     0.105250    -0.234883
6
Family_1 [H+].[H][C-]=C([H])[H] | RMSD: 1.0270 | 4972.00 to state    1 from traj    1 on state    2
C     -1.405758     0.193867    -0.052137
H     -1.501834    -0.535297     0.801630
H     -2.878655    -0.272340    -0.510992
C     -1.087944     1.579535     0.090187
H     -1.027215     2.645853     0.128333
H     -0.609857    -0.214680    -0.875642
6
Family_1 [H+].[H][C-]=C([H])[H] | RMSD: 0.9990 | 9920.00 to state    1 from traj    1 on state    2
C     -1.424719     0.216511    -0.110435
H     -1.608546    -1.009454     1.035421
H     -2.589347    -0.226691    -0.225702
C     -1.029497     1.585100     0.093057
H     -1.441856     2.789179     0.183641
H     -0.848316    -0.265619    -0.789570
6
Family_1 [H+].[H][C-]=C([H])[H] | RMSD: 0.9127 | 5844.00 to state    1 from traj    1 on state    2
C     -1.575020     0.173760    -0.095496
H     -1.437800    -0.820963    -0.226866
H     -2.666011     0.026896     1.014268
C     -0.870933     1.515120    -0.047184
H     -1.548645     2.389909    -0.052269
H     -0.934062     1.034829     0.961716
6
Family_1 [H+].[H][C-]=C([H])[H] | RMSD: 0.7008 | 2440.00 to state    1 from traj    1 on state    2
C     -1.675863     0.304425     0.111317
H     -1.214807    -0.579159    -0.395096
H     -2.533155     0.095675    -0.372764
C     -0.785753     1.293177    -0.158200
H     -2.231136     2.424501     0.512028
H     -0.420782     1.777291     0.811194
6
Family_1 [H+].[H][C-]=C([H])[H] | RMSD: 0.6396 | 3596.00 to state    1 from traj    1 on state    2
C     -1.657108     0.232804    -0.047952
H     -0.945708    -0.640190     0.120592
H     -2.577667     0.278303     0.440455
C     -0.813846     1.345551    -0.109090
H     -2.166033     2.839469     0.404650
H     -0.599203     1.470061     0.902288
6
Family_1 [H+].[H][C-]=C([H])[H] | RMSD: 0.7881 | 5064.00 to state    1 from traj    1 on state    2
C     -1.786773     0.202576     0.051482
H     -1.204770    -0.636643     0.167222
H     -2.708090    -0.253998    -0.354884
C     -0.679212     1.413710    -0.158089
H     -2.122532     2.357799     0.715007
H     -0.312425     2.028521     0.739675
6
Family_1 [H+].[H][C-]=C([H])[H] | RMSD: 0.7617 | 5612.00 to state    1 from traj    1 on state    2
C     -1.588679     0.209042    -0.046191
H     -0.831596    -0.493839     0.265991
H     -2.534805     0.529661     0.328221
C     -0.909288     1.308188    -0.133821
H     -1.815362     3.085934     0.546292
H     -0.784975     1.554242     1.001174
6
Family_1 [H+].[H][C-]=C([H])[H] | RMSD: 0.7125 | 1164.00 to state    1 from traj    1 on state    2
C     -1.724588     0.290607     0.033470
H     -1.265933    -0.317892    -0.757846
H     -2.488757    -0.206940     0.465385
C     -0.758296     1.383516    -0.061801
H     -2.390192     2.214952    -0.081083
H     -0.001590     1.116389     0.707836
6
Family_1 [H+].[H][C-]=C([H])[H] | RMSD: 0.7318 | 1244.00 to state    1 from traj    1 on state    2
C     -1.729699     0.293073     0.026613
H     -1.283683    -0.414606    -0.885011
H     -2.487031    -0.257755     0.596342
C     -0.747142     1.370606    -0.042172
H     -2.437757     2.351798    -0.204911
H     -0.009999     1.251527     0.675694
6
Family_1 [H+].[H][C-]=C([H])[H] | RMSD: 0.4325 | 1604.00 to state    1 from traj    1 on state    2
C     -1.639658     0.261280    -0.002958
H     -1.400859    -0.787492     0.495029
H     -2.711481     0.144875    -0.324809
C     -0.820218     1.396904    -0.074406
H     -2.552249     2.662935     0.561973
H      0.243960     0.976129     0.186374
6
Family_1 [H+].[H][C-]=C([H])[H] | RMSD: 0.2508 | 368.00 to state    1 from traj    1 on state    2
C     -1.713072     0.187869     0.007732
H     -0.969103    -0.747839     0.053124
H     -2.725671     0.378568    -0.087383
C     -0.791119     1.435946    -0.017663
H     -2.538279     2.758066     0.167075
H      0.340478     1.017171    -0.017763
6
Family_1 [H+].[H][C-]=C([H])[H] | RMSD: 0.2260 | 564.00 to state    1 from traj    1 on state    2
C     -1.650059     0.230478     0.012416
H     -1.294946    -0.779475     0.053169
H     -2.773145     0.261734    -0.153249
C     -0.795775     1.386912    -0.016899
H     -2.680567     2.910649     0.185266
H      0.160721     1.089614    -0.035056
6
Family_1 [H+].[H][C-]=C([H])[H] | RMSD: 1.0017 | 5936.00 to state    1 from traj    1 on state    2
C     -1.586036     0.202951     0.194508
H     -1.460640    -0.787994    -0.279717
H     -1.908002     0.668707    -1.422109
C     -0.995474     1.365645     0.006055
H     -1.393484     2.394800     0.156444
H     -0.209135     1.788423    -0.847747
6
Family_1 [H+].[H][C-]=C([H])[H] | RMSD: 0.9991 | 6052.00 to state    1 from traj    1 on state    2
C     -1.504567     0.176443     0.164784
H     -1.766282    -0.812477    -0.131099
H     -1.891859     0.901933    -1.330786
C     -1.040563     1.381366     0.020042
H     -1.427111     2.494381     0.137278
H     -0.319512     1.608628    -0.881007
6
Family_1 [H+].[H][C-]=C([H])[H] | RMSD: 0.8918 | 2872.00 to state    1 from traj    1 on state    2
C     -1.624159     0.125295     0.024726
H     -1.329001    -0.710054    -0.713282
H     -2.599515     0.062407     0.594770
C     -0.859598     1.508184    -0.149981
H     -1.581925     2.659035     0.183706
H     -0.625613     1.279427     1.424021
6
Family_1 [H+].[H][C-]=C([H])[H] | RMSD: 0.8974 | 6644.00 to state    1 from traj    1 on state    2
C     -1.640035     0.182000    -0.009524
H     -1.152894    -0.665387     0.449387
H     -2.640431    -0.025789    -0.578180
C     -0.852936     1.399296     0.138221
H     -1.514994     2.767841    -0.127335
H     -0.717950     1.835945    -1.280671
6
Family_1 [H+].[H][C-]=C([H])[H] | RMSD: 0.3123 | 660.00 to state    1 from traj    1 on state    2
C     -1.653354     0.129954    -0.010676
H     -1.125878    -0.670558    -0.268752
H     -2.963001    -0.028115     0.200752
C     -0.835142     1.443190     0.040794
H     -2.174896     3.454099    -0.176471
H      0.184177     1.254324    -0.117689
6
Family_1 [H+].[H][C-]=C([H])[H] | RMSD: 0.3665 | 1676.00 to state    1 from traj    1 on state    2
C     -1.699057     0.182550     0.003331
H     -1.296713    -0.896834    -0.380810
H     -2.703320     0.347954     0.250787
C     -0.772552     1.436344     0.025673
H     -2.599245     2.748970    -0.191576
H      0.318463     1.264517    -0.027284
6
Family_1 [H+].[H][C-]=C([H])[H] | RMSD: 0.2006 | 420.00 to state    1 from traj    1 on state    2
C     -1.608183     0.161262    -0.009438
H     -1.383578    -0.953230     0.165974
H     -2.746001     0.338477    -0.081895
C     -0.872306     1.439385    -0.021140
H     -2.347295     3.203753     0.225968
H      0.301875     1.093033     0.051025
6
Family_1 [H+].[H][C-]=C([H])[H] | RMSD: 1.0188 | 1536.00 to state    1 from traj    1 on state    2
C     -1.459871     0.039419    -0.015791
H     -1.149216    -0.850395    -0.565147
H     -2.723728     0.598370     0.693881
C     -1.005394     1.645328    -0.085105
H     -1.272179     2.891482    -0.017397
H     -1.211288     0.040463     1.087620
6
Family_1 [H+].[H][C-]=C([H])[H] | RMSD: 1.0662 | 2172.00 to state    1 from traj    1 on state    2
C     -1.651558     0.362344     0.125925
H     -1.939302    -0.604288     0.245643
H     -2.440797     0.670045    -0.964181
C     -0.723298     1.308715    -0.179243
H     -3.027630     1.391390     0.874220
H     -0.025965     1.385883     0.476359
6
Family_1 [H+].[H][C-]=C([H])[H] | RMSD: 1.0739 | 2572.00 to state    1 from traj    1 on state    2
C     -1.560562     0.023921     0.180339
H     -2.015637    -0.698565    -0.215897
H     -1.400461     1.634196    -1.200572
C     -0.997574     1.460954    -0.056713
H     -1.945132     2.610559     0.312344
H      0.111439     1.515349    -0.372244
6
Family_1 [H+].[H][C-]=C([H])[H] | RMSD: 0.9402 | 4540.00 to state    1 from traj    1 on state    2
C     -1.366934     0.201268    -0.039566
H     -1.921339    -0.373172     0.835236
H     -2.999167    -0.189266    -0.444633
C     -1.075792     1.557768    -0.040477
H     -1.406178     2.641592     0.551532
H     -0.298288    -0.284437     0.008348
6
Family_1 [H+].[H][C-]=C([H])[H] | RMSD: 0.2928 | 532.00 to state    1 from traj    1 on state    2
C     -1.650744     0.156751    -0.010674
H     -1.441383    -0.951163     0.106707
H     -2.905232     0.373022    -0.014772
C     -0.795327     1.466062    -0.012027
H     -2.489481     2.788981     0.147806
H      0.250977     1.207071     0.027478
6
Family_1 [H+].[H][C-]=C([H])[H] | RMSD: 0.2982 | 664.00 to state    1 from traj    1 on state    2
C     -1.611260     0.203674    -0.012167
H     -1.589905    -0.912458     0.090414
H     -2.777206     0.315670     0.002670
C     -0.824646     1.433617    -0.011186
H     -2.558691     2.799363     0.141938
H      0.219559     1.042816     0.039969
6
Family_1 [H+].[H][C-]=C([H])[H] | RMSD: 0.2978 | 2100.00 to state    1 from traj    1 on state    2
C     -1.658951     0.212369    -0.018085
H     -1.116370    -0.668661    -0.103273
H     -2.523106     0.529203     0.206711
C     -0.816953     1.347326     0.016926
H     -2.801573     3.205382    -0.040242
H      0.211408     1.104080    -0.052662
6
Family_1 [H+].[H][C-]=C([H])[H] | RMSD: 0.3629 | 3768.00 to state    1 from traj    1 on state    2
C     -1.657257     0.215414     0.010901
H     -1.375023    -0.872330    -0.292271
H     -2.767672     0.482254     0.110031
C     -0.786384     1.401668     0.025230
H     -2.708802     2.678968    -0.139372
H      0.237421     1.197301    -0.112192
6
Family_1 [H+].[H][C-]=C([H])[H] | RMSD: 0.4992 | 664.00 to state    1 from traj    1 on state    2
C     -1.626290     0.080804    -0.023902
H     -1.054673    -0.805792     0.078050
H     -2.807602    -0.079619     0.033730
C     -0.907659     1.441723     0.007360
H     -1.761140     3.978300     0.102430
H      0.085415     1.519987    -0.020391
6
Family_1 [H+].[H][C-]=C([H])[H] | RMSD: 0.7990 | 1996.00 to state    1 from traj    1 on state    2
C     -1.563746     0.117655    -0.001970
H     -0.889380    -0.547951     0.560662
H     -2.503708    -0.154358    -0.438693
C     -1.058170     1.401638    -0.088679
H     -1.071893     3.956406     0.668015
H     -0.024821     1.397316     0.286877
6
Family_1 [H+].[H][C-]=C([H])[H] | RMSD: 0.3246 | 520.00 to state    1 from traj    1 on state    2
C     -1.657624     0.171122     0.050891
H     -1.500925    -0.852683    -0.312752
H     -2.676648     0.425992    -0.181410
C     -0.789780     1.419171     0.003345
H     -2.658503     2.918579    -0.021455
H      0.266839     1.313515    -0.133928
6
Family_1 [H+].[H][C-]=C([H])[H] | RMSD: 0.2894 | 2108.00 to state    1 from traj    1 on state    2
C     -1.624755     0.218081    -0.015685
H     -1.200834    -0.767159     0.156462
H     -2.680868     0.639801    -0.007049
C     -0.836031     1.346767    -0.009075
H     -2.815576     3.158369     0.170711
H      0.287499     1.077586    -0.028372
6
Family_1 [H+].[H][C-]=C([H])[H] | RMSD: 0.4340 | 21068.00 to state    1 from traj    1 on state    2
C     -1.672122     0.271634    -0.006057
H     -1.231619    -0.576739     0.382940
H     -2.757918     0.209583    -0.205752
C     -0.780652     1.381677    -0.056885
H     -2.663501     2.468848     0.434137
H      0.147791     0.952809     0.135388
6
Family_1 [H+].[H][C-]=C([H])[H] | RMSD: 0.3801 | 344.00 to state    1 from traj    1 on state    2
C     -1.629055     0.187308     0.013977
H     -1.402180    -0.745085    -0.555971
H     -2.628369     0.258477     0.241460
C     -0.842538     1.377695     0.054009
H     -2.530147     3.313125    -0.332585
H      0.279686     1.280232    -0.166293
6
Family_1 [H+].[H][C-]=C([H])[H] | RMSD: 0.5299 | 576.00 to state    1 from traj    1 on state    2
C     -1.617293     0.221851    -0.019701
H     -1.513554    -0.737637    -0.497323
H     -2.661567     0.290432     0.437091
C     -0.803111     1.307861     0.076237
H     -2.935531     3.552083    -0.403008
H      0.219696     1.422387    -0.213717
6
Family_1 [H+].[H][C-]=C([H])[H] | RMSD: 0.8617 | 772.00 to state    1 from traj    1 on state    2
C     -1.598354     0.141059     0.254614
H     -1.528104    -0.385434    -0.855738
H     -2.544133     0.244749    -1.286539
C     -0.965942     1.453745    -0.096844
H     -1.347925     2.417745     0.249652
H      0.243771     1.474596     0.009413
6
Family_1 [H+].[H][C-]=C([H])[H] | RMSD: 0.8562 | 848.00 to state    1 from traj    1 on state    2
C     -1.594136     0.148758     0.248796
H     -1.476683    -0.254690    -0.893141
H     -2.454372     0.319652    -1.200715
C     -0.972623     1.435298    -0.093549
H     -1.362781     2.392034     0.206531
H      0.146800     1.422736     0.034171
6
Family_1 [H+].[H][C-]=C([H])[H] | RMSD: 0.3559 | 352.00 to state    1 from traj    1 on state    2
C     -1.633328     0.112190    -0.037881
H     -1.180456    -0.805867    -0.139276
H     -2.650968     0.091625     0.319865
C     -0.891285     1.443840     0.036850
H     -1.999014     3.612293    -0.132998
H      0.181197     1.315629    -0.038583
6
Family_1 [H+].[H][C-]=C([H])[H] | RMSD: 0.4110 | 1924.00 to state    1 from traj    1 on state    2
C     -1.636786     0.288904    -0.018013
H     -1.286860    -0.622680     0.275427
H     -2.703733     0.482476    -0.032085
C     -0.793074     1.310223    -0.042657
H     -3.061757     2.867174     0.331044
H      0.274061     0.973180     0.145259
6
Family_1 [H+].[H][C-]=C([H])[H] | RMSD: 0.4569 | 2040.00 to state    1 from traj    1 on state    2
C     -1.644954     0.295776    -0.018075
H     -1.286880    -0.843106     0.336997
H     -2.737282     0.557867    -0.080763
C     -0.773648     1.307035    -0.045713
H     -3.158867     2.853236     0.376583
H      0.270606     1.088245     0.123980
6
Family_1 [H+].[H][C-]=C([H])[H] | RMSD: 0.8856 | 3636.00 to state    1 from traj    1 on state    2
C     -1.549594     0.276807    -0.016040
H     -1.345308    -0.544098     0.436306
H     -2.379598     0.149642    -0.564362
C     -0.951226     1.404066     0.180550
H     -1.787382     2.416299    -0.281645
H     -0.420450     0.704245    -1.553831
6
Family_1 [H+].[H][C-]=C([H])[H] | RMSD: 0.8914 | 3804.00 to state    1 from traj    1 on state    2
C     -1.694640     0.334598     0.040521
H     -1.562508    -0.512944     0.800606
H     -2.496859    -0.003495    -0.788205
C     -0.768629     1.349621    -0.165886
H     -2.511908     1.901095     1.035644
H      0.191093     1.301561     0.442487
6
Family_1 [H+].[H][C-]=C([H])[H] | RMSD: 0.4446 | 564.00 to state    1 from traj    1 on state    2
C     -1.631892     0.121937    -0.030708
H     -1.347992    -0.804934    -0.496260
H     -2.557146     0.293918     0.557989
C     -0.874910     1.444656     0.057682
H     -2.138232     3.290767    -0.388158
H      0.181900     1.308054     0.001737
6
Family_1 [H+].[H][C-]=C([H])[H] | RMSD: 1.0581 | 1332.00 to state    1 from traj    1 on state    2
C     -1.636881     0.270740     0.018747
H     -1.872130    -0.451736    -0.848247
H     -2.682730     0.559126     0.586518
C     -0.710165     1.299656     0.000396
H     -2.503281     1.778446    -0.390574
H     -0.706917     2.156665     0.420916
6
Family_1 [H+].[H][C-]=C([H])[H] | RMSD: 1.0398 | 7612.00 to state    1 from traj    1 on state    2
C     -1.352670     0.263613    -0.091648
H     -1.803445    -0.725843     0.990792
H     -2.532840     0.303072    -0.361989
C     -1.034390     1.482129     0.121669
H     -1.890242     2.681910     0.075606
H     -1.061748    -0.306011    -1.065407
6
Family_1 [H+].[H][C-]=C([H])[H] | RMSD: 0.1817 | 468.00 to state    1 from traj    1 on state    2
C     -1.648339     0.157664     0.010890
H     -1.145147    -0.783602     0.109939
H     -2.622567     0.517106    -0.179076
C     -0.842605     1.424198    -0.017567
H     -2.444384     3.089848     0.203100
H      0.161666     1.082512    -0.057689
6
Family_1 [H+].[H][C-]=C([H])[H] | RMSD: 0.1877 | 656.00 to state    1 from traj    1 on state    2
C     -1.659474     0.203277    -0.000578
H     -1.066299    -0.792089     0.165116
H     -2.744690     0.368031    -0.137839
C     -0.826159     1.388188    -0.017700
H     -2.594910     3.143106     0.230510
H      0.292186     1.072394    -0.043278
6
Family_1 [H+].[H][C-]=C([H])[H] | RMSD: 0.2442 | 2140.00 to state    1 from traj    1 on state    2
C     -1.631150     0.161660     0.035864
H     -1.319424    -0.862172     0.096734
H     -2.720775     0.048306    -0.400551
C     -0.876414     1.455069    -0.028452
H     -2.190784     3.255388     0.287336
H      0.378593     1.048879    -0.075112
6
Family_1 [H+].[H][C-]=C([H])[H] | RMSD: 0.7784 | 3312.00 to state    1 from traj    1 on state    2
C     -1.603199     0.042093     0.015955
H     -0.940105    -0.747802     0.449596
H     -2.628064    -0.057662    -0.548870
C     -1.024329     1.500187    -0.045163
H     -0.873385     3.634951     0.481823
H      0.018611     1.548017    -0.037803
6
Family_1 [H+].[H][C-]=C([H])[H] | RMSD: 0.2030 | 620.00 to state    1 from traj    1 on state    2
C     -1.618284     0.150866    -0.017464
H     -1.301529    -0.748008    -0.151660
H     -2.821325     0.134344     0.182137
C     -0.857132     1.444783     0.027474
H     -2.242710     3.270625    -0.094223
H      0.130115     1.084618    -0.058815
6
Family_1 [H+].[H][C-]=C([H])[H] | RMSD: 0.9353 | 4560.00 to state    1 from traj    1 on state    2
C     -1.409819     0.175638     0.055114
H     -1.452289    -0.249587    -1.087200
H     -2.885225     0.254823     0.488683
C     -1.089437     1.494817    -0.056491
H     -1.234723     2.661313    -0.273597
H     -0.379138     0.183678     0.885244
6
Family_1 [H+].[H][C-]=C([H])[H] | RMSD: 1.0504 | 9908.00 to state    1 from traj    1 on state    2
C     -1.405476     0.245989     0.082639
H     -1.522257    -1.065073    -0.967049
H     -2.553424    -0.218474     0.173278
C     -1.096497     1.557940    -0.096759
H     -0.994235     2.575395    -0.003287
H     -0.849088    -0.032071     0.962030
6
Family_1 [H+].[H][C-]=C([H])[H] | RMSD: 0.2135 | 432.00 to state    1 from traj    1 on state    2
C     -1.607833     0.136423    -0.031326
H     -1.262357    -1.017923     0.112290
H     -2.677357     0.360206     0.104465
C     -0.889464     1.450178     0.005001
H     -2.193497     3.370196     0.092420
H      0.158489     1.136913     0.001215
6
Family_1 [H+].[H][C-]=C([H])[H] | RMSD: 1.0594 | 12968.00 to state    1 from traj    1 on state    2
C     -1.474586     0.097584    -0.089794
H     -1.100521    -1.171208     0.903161
H     -2.404082     0.269395    -0.257280
C     -1.077432     1.684234     0.097639
H     -0.976221     2.726110     0.101905
H     -0.841869    -0.301050    -0.844540
6
Family_1 [H+].[H][C-]=C([H])[H] | RMSD: 0.8898 | 2604.00 to state    1 from traj    1 on state    2
C     -1.670778     0.106344    -0.007699
H     -1.237029    -0.690818     0.564543
H     -2.494314    -0.031632    -0.695515
C     -0.848401     1.550801     0.152363
H     -1.528186     2.565932    -0.122657
H     -0.454461     1.165344    -1.473421
6
Family_1 [H+].[H][C-]=C([H])[H] | RMSD: 0.9604 | 3400.00 to state    1 from traj    1 on state    2
C     -1.649025     0.225368     0.217873
H     -1.148747    -0.916102    -0.196303
H     -1.833342     0.519359    -1.595026
C     -0.968966     1.423893    -0.047213
H     -1.519787     2.235347     0.406169
H     -0.034694     1.264155    -0.651659
6
Family_1 [H+].[H][C-]=C([H])[H] | RMSD: 0.3180 | 536.00 to state    1 from traj    1 on state    2
C     -1.686881     0.125025    -0.027469
H     -1.460602    -0.868198     0.197379
H     -2.585572     0.363834     0.055454
C     -0.789996     1.491213    -0.006586
H     -2.438078     2.786219     0.150739
H      0.266213     1.214396    -0.001059
6
Family_1 [H+].[H][C-]=C([H])[H] | RMSD: 1.0233 | 4372.00 to state    1 from traj    1 on state    2
C     -1.601646     0.064174     0.199881
H     -2.061742    -0.400855    -0.668167
H     -1.367322     1.093879    -0.963989
C     -0.949236     1.404183    -0.071038
H     -1.892021     2.696965     0.170919
H     -0.015136     1.868365    -0.077301
6
Family_1 [H+].[H][C-]=C([H])[H] | RMSD: 0.8860 | 1868.00 to state    1 from traj    1 on state    2
C     -1.566096     0.093620     0.104835
H     -1.936548     0.157269    -1.060458
H     -2.765991     0.061599    -0.083474
C     -0.912892     1.422707     0.049253
H     -1.530713     2.718782    -0.519630
H      0.040361     1.749114    -0.175783
6
Family_1 [H+].[H][C-]=C([H])[H] | RMSD: 0.1481 | 348.00 to state    1 from traj    1 on state    2
C     -1.646948     0.164286    -0.007011
H     -1.225564    -0.861961    -0.110363
H     -2.667673     0.314479     0.111654
C     -0.841670     1.443195     0.006429
H     -2.384305     3.098438     0.001000
H      0.199405     1.049640     0.001357
6
Family_1 [H+].[H][C-]=C([H])[H] | RMSD: 0.9173 | 2304.00 to state    1 from traj    1 on state    2
C     -1.580385     0.233240    -0.040473
H     -1.190518    -0.629464    -0.372442
H     -1.975017    -0.164008     0.739446
C     -1.019362     1.473318    -0.086649
H     -1.182825     2.569107     0.092136
H     -0.405605     0.644393     1.052319
6
Family_1 [H+].[H][C-]=C([H])[H] | RMSD: 0.3495 | 476.00 to state    1 from traj    1 on state    2
C     -1.696375     0.112566    -0.019416
H     -1.454519    -0.839489    -0.252760
H     -2.665586     0.188042     0.324113
C     -0.779677     1.516850     0.024098
H     -2.337272     2.791445    -0.159408
H      0.229508     1.199218     0.028978
6
Family_1 [H+].[H][C-]=C([H])[H] | RMSD: 0.2949 | 492.00 to state    1 from traj    1 on state    2
C     -1.628918     0.098921     0.014875
H     -1.247182    -0.901667     0.048294
H     -2.750159     0.241411    -0.190638
C     -0.876557     1.447604    -0.023758
H     -2.092390     3.572653     0.215956
H      0.212452     1.414532     0.028960
6
Family_1 [H+].[H][C-]=C([H])[H] | RMSD: 0.3147 | 712.00 to state    1 from traj    1 on state    2
C     -1.601750     0.136280    -0.006509
H     -1.251241    -0.938846     0.178327
H     -2.614647     0.281426    -0.128269
C     -0.908065     1.407972    -0.023900
H     -2.155549     3.681863     0.262606
H      0.195868     1.329567     0.046393
6
Family_1 [H+].[H][C-]=C([H])[H] | RMSD: 0.8290 | 11684.00 to state    1 from traj    1 on state    2
C     -1.558507     0.269361     0.035397
H     -0.864223    -0.375453    -0.791842
H     -2.606177     0.169307     0.484049
C     -1.009515     1.456239    -0.084200
H     -1.659095     2.387891    -0.043756
H     -0.002496     0.011384     0.929782
6
Family_1 [H+].[H][C-]=C([H])[H] | RMSD: 0.1974 | 3552.00 to state    1 from traj    1 on state    2
C     -1.634118     0.168861     0.013145
H     -1.284371    -0.831991    -0.317781
H     -2.720103     0.197235     0.097945
C     -0.837698     1.439406     0.015609
H     -2.324369     3.125584    -0.101468
H      0.050490     1.100403    -0.024605
6
Family_1 [H+].[H][C-]=C([H])[H] | RMSD: 0.2754 | 30312.00 to state    1 from traj    1 on state    2
C     -1.703402     0.137594     0.003318
H     -1.086314    -0.775564     0.332061
H     -2.746948     0.163646    -0.293100
C     -0.810482     1.489003    -0.031364
H     -2.263026     2.928936     0.351485
H      0.319212     1.055801    -0.059540
6
Family_1 [H+].[H][C-]=C([H])[H] | RMSD: 1.0004 | 42652.00 to state    1 from traj    1 on state    2
C     -1.372113     0.271540    -0.059032
H     -1.411332    -0.497273     0.822504
H     -3.115986    -0.137243    -0.493731
C     -1.061778     1.486089     0.104704
H     -1.367185     2.636419     0.089272
H     -0.835747    -0.190410    -0.965534
6
Family_1 [H+].[H][C-]=C([H])[H] | RMSD: 0.8912 | 2920.00 to state    1 from traj    1 on state    2
C     -1.647254     0.186531     0.202649
H     -1.067818    -0.946414    -0.327819
H     -2.067043     0.403784    -1.437957
C     -0.948630     1.412990    -0.005845
H     -1.438453     2.643259     0.205564
H     -0.226686     1.594808    -0.788123
6
Family_1 [H+].[H][C-]=C([H])[H] | RMSD: 0.6025 | 724.00 to state    1 from traj    1 on state    2
C     -1.596516     0.158959    -0.015008
H     -1.548461    -0.825832    -0.749717
H     -2.470149     0.039591     0.555574
C     -0.924375     1.430673     0.100883
H     -1.915622     3.273964    -0.616708
H      0.240655     1.325557    -0.215690
6
Family_1 [H+].[H][C-]=C([H])[H] | RMSD: 0.9301 | 14576.00 to state    1 from traj    1 on state    2
C     -1.476506     0.297038    -0.041737
H     -1.088295    -1.087794     0.684796
H     -2.404030     0.130261    -0.378298
C     -1.033816     1.527250     0.042007
H     -1.564839     2.367985     0.245827
H     -0.762352    -0.393256    -0.558833
6
Family_1 [H+].[H][C-]=C([H])[H] | RMSD: 0.3470 | 640.00 to state    1 from traj    1 on state    2
C     -1.634828     0.143982    -0.017144
H     -1.309587    -0.999681     0.172251
H     -2.667489     0.180190    -0.034055
C     -0.869636     1.407590    -0.022709
H     -2.302646     3.642158     0.246912
H      0.390405     1.444121     0.086491
6
Family_1 [H+].[H][C-]=C([H])[H] | RMSD: 0.9763 | 10432.00 to state    1 from traj    1 on state    2
C     -1.373878     0.210090     0.003392
H     -1.515960    -0.684216    -0.283852
H     -2.501402     0.904148     0.357411
C     -1.115167     1.524844    -0.119093
H     -1.653928     2.313228     0.241062
H     -0.401759    -0.451255     1.060749
6
Family_1 [H+].[H][C-]=C([H])[H] | RMSD: 0.9017 | 14636.00 to state    1 from traj    1 on state    2
C     -1.517534     0.243486    -0.007311
H     -0.978799    -0.391110     0.616105
H     -2.386139     0.133884    -0.714156
C     -1.053572     1.434950     0.120254
H     -1.320441     2.669487     0.006113
H     -0.409865     0.342855    -1.257137
6
Family_1 [H+].[H][C-]=C([H])[H] | RMSD: 0.2379 | 572.00 to state    1 from traj    1 on state    2
C     -1.614494     0.202686    -0.017955
H     -1.368402    -0.990241     0.035269
H     -2.796245     0.148121     0.064774
C     -0.840379     1.388713    -0.004501
H     -2.552087     3.429018     0.120241
H      0.236495     1.205329     0.044005
6
Family_1 [H+].[H][C-]=C([H])[H] | RMSD: 0.4640 | 1968.00 to state    1 from traj    1 on state    2
C     -1.646857     0.207822     0.003669
H     -1.187821    -0.657513     0.613519
H     -2.733220     0.401134    -0.434809
C     -0.825594     1.364471    -0.100072
H     -2.543009     3.025817     0.705901
H      0.193270     1.250448     0.260820
6
Family_1 [H+].[H][C-]=C([H])[H] | RMSD: 0.5108 | 2144.00 to state    1 from traj    1 on state    2
C     -1.643040     0.222247    -0.002544
H     -1.513182    -0.613128     0.578691
H     -2.556447     0.252867    -0.346080
C     -0.809900     1.365688    -0.105129
H     -2.608658     2.904347     0.695234
H      0.175012     1.289416     0.351875
6
Family_1 [H+].[H][C-]=C([H])[H] | RMSD: 0.4668 | 3484.00 to state    1 from traj    1 on state    2
C     -1.680749     0.254615    -0.020807
H     -1.351494    -0.741679    -0.449016
H     -2.762760     0.121349     0.422741
C     -0.759667     1.367511     0.076653
H     -2.780844     2.808998    -0.399989
H      0.242587     1.237422    -0.242466
6
Family_1 [H+].[H][C-]=C([H])[H] | RMSD: 0.9092 | 5968.00 to state    1 from traj    1 on state    2
C     -1.555448     0.328410     0.050124
H     -0.714595    -0.802941    -0.424163
H     -2.533170     0.044003     0.129232
C     -1.011547     1.485563    -0.149913
H     -1.682204     2.271469     0.387869
H     -0.214256    -0.372420     1.092829
6
Family_1 [H+].[H][C-]=C([H])[H] | RMSD: 1.0089 | 6472.00 to state    1 from traj    1 on state    2
C     -1.405104     0.114364    -0.025084
H     -1.302929    -0.459630     0.852500
H     -2.965676     0.076612    -0.640650
C     -1.099239     1.628329     0.009618
H     -1.028930     2.779852     0.418528
H     -0.593232    -0.407386    -0.449379
6
Family_1 [H+].[H][C-]=C([H])[H] | RMSD: 0.9547 | 7372.00 to state    1 from traj    1 on state    2
C     -1.348207     0.233550     0.078135
H     -1.410665    -0.302069    -0.759080
H     -2.915964     0.302204     0.025768
C     -1.091283     1.497826    -0.069162
H     -1.507530     2.622134    -0.026335
H     -0.829373    -0.497952     0.649443
6
Family_1 [H+].[H][C-]=C([H])[H] | RMSD: 0.9212 | 9176.00 to state    1 from traj    1 on state    2
C     -1.555397     0.175373     0.023480
H     -1.025737    -1.313210     0.339948
H     -2.404295    -0.232178    -0.617676
C     -1.001382     1.651362     0.025083
H     -1.112756     2.603625     0.225101
H     -0.723174    -0.070200    -0.529311
6
Family_1 [H+].[H][C-]=C([H])[H] | RMSD: 0.2995 | 576.00 to state    1 from traj    1 on state    2
C     -1.633514     0.221478    -0.016736
H     -1.358840    -0.704838    -0.297712
H     -2.719209     0.213665     0.302634
C     -0.821457     1.379406     0.039682
H     -2.610227     3.064693    -0.204828
H      0.209217     1.105680    -0.076796
6
Family_1 [H+].[H][C-]=C([H])[H] | RMSD: 0.3180 | 6052.00 to state    1 from traj    1 on state    2
C     -1.678875     0.257363    -0.009132
H     -1.257366    -0.737734     0.100118
H     -2.728153     0.230166    -0.015326
C     -0.775323     1.387455    -0.006479
H     -2.734107     2.636130     0.141188
H      0.231348     1.027140    -0.043256
6
Family_1 [H+].[H][C-]=C([H])[H] | RMSD: 0.6943 | 452.00 to state    1 from traj    1 on state    2
C     -1.637563     0.147065    -0.022077
H     -1.527075    -0.578122    -0.787644
H     -2.372670    -0.231082     0.662331
C     -0.888655     1.424549     0.092712
H     -1.849100     3.345741    -0.616200
H      0.118732     1.491435    -0.103429
6
Family_1 [H+].[H][C-]=C([H])[H] | RMSD: 0.7913 | 1644.00 to state    1 from traj    1 on state    2
C     -1.593755     0.180435     0.013569
H     -1.006582    -0.521421     0.540184
H     -2.534666    -0.045527    -0.493315
C     -0.994965     1.580698    -0.087022
H     -1.382139     2.365799     0.617342
H      0.038026    -0.029131     0.207742
6
Family_1 [H+].[H][C-]=C([H])[H] | RMSD: 0.9001 | 3968.00 to state    1 from traj    1 on state    2
C     -1.519634     0.039486    -0.070824
H     -1.873220    -0.251016     0.860879
H     -2.366698     0.866781    -0.321119
C     -0.925976     1.455049     0.098445
H     -1.716014     2.791181     0.051567
H     -0.634671     1.539481    -0.923724
6
Family_1 [H+].[H][C-]=C([H])[H] | RMSD: 0.9389 | 2152.00 to state    1 from traj    1 on state    2
C     -1.432876     0.131754    -0.035752
H     -1.187677    -1.057172    -0.287782
H     -2.734896     0.677471     0.593246
C     -1.032286     1.581396    -0.070618
H     -1.342386     2.628819     0.056583
H     -1.092678     0.092362     0.902138
6
Family_1 [H+].[H][C-]=C([H])[H] | RMSD: 0.2785 | 596.00 to state    1 from traj    1 on state    2
C     -1.681769     0.169310    -0.000333
H     -1.390051    -0.988998    -0.151534
H     -2.735198     0.188276     0.069446
C     -0.788119     1.444569     0.019499
H     -2.537345     3.020531    -0.043996
H      0.361268     1.304551    -0.105573
6
Family_1 [H+].[H][C-]=C([H])[H] | RMSD: 0.3590 | 2220.00 to state    1 from traj    1 on state    2
C     -1.657343     0.183650    -0.002004
H     -1.298692    -0.767175     0.008757
H     -2.789222     0.710104     0.026818
C     -0.779828     1.379096    -0.013083
H     -2.847154     2.894582     0.107975
H      0.243901     1.296134     0.032942
6
Family_1 [H+].[H][C-]=C([H])[H] | RMSD: 0.3525 | 3304.00 to state    1 from traj    1 on state    2
C     -1.636984     0.231271     0.000808
H     -1.539965    -0.782627     0.033909
H     -2.806210     0.380325    -0.046787
C     -0.787713     1.378339    -0.008561
H     -2.826461     2.789470     0.123357
H      0.332835     1.188064    -0.021381
6
Family_1 [H+].[H][C-]=C([H])[H] | RMSD: 0.3357 | 4540.00 to state    1 from traj    1 on state    2
C     -1.646479     0.210975    -0.021913
H     -1.433054    -0.665396     0.118837
H     -2.822889     0.411908     0.071605
C     -0.793911     1.380231    -0.006079
H     -2.777522     2.862138     0.123263
H      0.380655     1.185870     0.016559
6
Family_1 [H+].[H][C-]=C([H])[H] | RMSD: 0.3563 | 392.00 to state    1 from traj    1 on state    2
C     -1.696290     0.264829     0.022655
H     -1.289814    -0.867678    -0.098107
H     -2.683461     0.276688    -0.089932
C     -0.751612     1.377448    -0.016745
H     -2.851130     2.611813     0.119263
H      0.261097     1.165154    -0.004928
6
Family_1 [H+].[H][C-]=C([H])[H] | RMSD: 0.5965 | 2356.00 to state    1 from traj    1 on state    2
C     -1.673690     0.122453     0.002394
H     -1.809854    -0.741969     0.595881
H     -2.681172     0.346035    -0.450584
C     -0.751497     1.461714    -0.067904
H     -2.531470     2.678852     0.573482
H      0.188532     1.595484     0.058539
6
Family_1 [H+].[H][C-]=C([H])[H] | RMSD: 1.0240 | 5276.00 to state    1 from traj    1 on state    2
C     -1.440801     0.237070    -0.078760
H     -1.196908    -0.851770     0.959750
H     -2.666241    -0.070407    -0.369326
C     -1.081080     1.584333     0.068271
H     -1.257927     2.524240     0.247752
H     -0.560715    -0.550495    -0.716470
6
Family_1 [H+].[H][C-]=C([H])[H] | RMSD: 0.9277 | 7760.00 to state    1 from traj    1 on state    2
C     -1.460244     0.262186    -0.027083
H     -1.283372    -0.404400     0.621644
H     -2.304128    -0.088978    -0.547093
C     -1.110727     1.468764     0.101255
H     -1.182304     2.634079     0.044284
H     -0.327049    -0.011315    -1.005928
6
Family_1 [H+].[H][C-]=C([H])[H] | RMSD: 0.9491 | 7804.00 to state    2 from traj    3 on state    1
C     -1.475913     0.278159    -0.035517
H     -1.173290    -0.591614     0.671193
H     -2.406980    -0.096026    -0.564719
C     -1.088580     1.467835     0.129280
H     -1.208260     2.573366    -0.021490
H     -0.385514     0.064398    -1.205520
6
Family_1 [H+].[H][C-]=C([H])[H] | RMSD: 0.8757 | 1768.00 to state    1 from traj    1 on state    2
C     -1.660399     0.359613     0.028186
H     -1.555654    -0.230550    -0.885054
H     -2.448984    -0.178139     0.569951
C     -0.813370     1.295430    -0.037696
H     -2.181792     1.953682    -0.238476
H     -0.068651     1.488878     0.663613
6
Family_1 [H+].[H][C-]=C([H])[H] | RMSD: 0.3356 | 2028.00 to state    1 from traj    1 on state    2
C     -1.679169     0.233763    -0.001667
H     -1.215555    -0.598890     0.154923
H     -2.762322     0.303204    -0.092429
C     -0.770199     1.340886    -0.028840
H     -2.961016     3.119924     0.259750
H      0.393054     1.167571     0.037980
6
Family_1 [H+].[H][C-]=C([H])[H] | RMSD: 0.2284 | 4796.00 to state    1 from traj    1 on state    2
C     -1.622403     0.184516    -0.009164
H     -1.206693    -0.986681    -0.014223
H     -2.542821     0.451459     0.044418
C     -0.861227     1.381273     0.003240
H     -2.533980     3.444741     0.074014
H      0.145924     1.187866    -0.036911
6
Family_1 [H+].[H][C-]=C([H])[H] | RMSD: 0.2914 | 584.00 to state    1 from traj    1 on state    2
C     -1.635591     0.222393    -0.024447
H     -1.457910    -0.971372    -0.099213
H     -2.667992     0.271366     0.224517
C     -0.821693     1.402413     0.019324
H     -2.644283     2.981284    -0.049375
H      0.318673     1.112888    -0.018163
6
Family_1 [H+].[H][C-]=C([H])[H] | RMSD: 0.2150 | 3412.00 to state    1 from traj    1 on state    2
C     -1.644612     0.202474    -0.001085
H     -1.348839    -0.837585     0.164682
H     -2.654435     0.212530    -0.131418
C     -0.831334     1.426602    -0.024475
H     -2.472698     2.946816     0.246512
H      0.246841     1.021514     0.021506
6
Family_1 [H+].[H][C-]=C([H])[H] | RMSD: 0.6003 | 22952.00 to state    1 from traj    1 on state    2
C     -1.618599     0.209017    -0.009764
H     -1.494772    -0.512784    -0.750224
H     -2.607653     0.177357     0.553444
C     -0.858592     1.434721     0.100108
H     -2.272256     2.612055    -0.638535
H      0.160383     0.891948    -0.244478
6
Family_1 [H+].[H][C-]=C([H])[H] | RMSD: 0.2396 | 556.00 to state    1 from traj    1 on state    2
C     -1.671827     0.200612     0.034861
H     -1.170439    -0.716705     0.094347
H     -2.646318     0.352535    -0.323994
C     -0.811125     1.406480    -0.043511
H     -2.561379     2.900308     0.311187
H      0.232486     1.069090     0.018250
6
Family_1 [H+].[H][C-]=C([H])[H] | RMSD: 0.4674 | 1624.00 to state    1 from traj    1 on state    2
C     -1.569437     0.175633     0.000689
H     -0.976235    -0.803694     0.255273
H     -2.630037    -0.078388    -0.246945
C     -0.990572     1.392777    -0.049732
H     -1.715963     3.870285     0.409978
H      0.094765     1.077948     0.162799
6
Family_1 [H+].[H][C-]=C([H])[H] | RMSD: 0.5496 | 1916.00 to state    1 from traj    1 on state    2
C     -1.589826     0.145120     0.025366
H     -0.919471    -0.620005     0.182183
H     -2.555341    -0.112937    -0.385967
C     -0.989776     1.385203    -0.049867
H     -1.638713     4.026088     0.407012
H      0.119513     1.226836     0.085436
6
Family_1 [H+].[H][C-]=C([H])[H] | RMSD: 0.5484 | 2012.00 to state    1 from traj    1 on state    2
C     -1.611163     0.117764     0.024296
H     -0.883556    -0.741552     0.199849
H     -2.632215    -0.078077    -0.393505
C     -0.976859     1.419218    -0.047526
H     -1.553796     3.934174     0.401844
H      0.175899     1.326086     0.065328
6
Family_1 [H+].[H][C-]=C([H])[H] | RMSD: 0.2870 | 632.00 to state    1 from traj    1 on state    2
C     -1.603377     0.139693    -0.017948
H     -1.220259    -0.960915     0.195930
H     -2.808903     0.309836    -0.048121
C     -0.879126     1.409432    -0.022928
H     -2.256996     3.614186     0.249208
H      0.135150     1.332833     0.086771
6
Family_1 [H+].[H][C-]=C([H])[H] | RMSD: 0.2784 | 1548.00 to state    1 from traj    1 on state    2
C     -1.639281     0.235983     0.010988
H     -1.217986    -0.814429     0.227783
H     -2.821447     0.203509    -0.274167
C     -0.836000     1.426829    -0.032560
H     -2.493910     2.760896     0.316914
H      0.296275     0.791314    -0.016764
6
Family_1 [H+].[H][C-]=C([H])[H] | RMSD: 0.3207 | 4540.00 to state    1 from traj    1 on state    2
C     -1.650580     0.238085     0.001807
H     -1.382252    -0.859621    -0.357066
H     -2.594839    -0.113973     0.183575
C     -0.824925     1.427791     0.040611
H     -2.420032     2.942030    -0.198103
H      0.162727     0.936344    -0.137136
6
Family_1 [H+].[H][C-]=C([H])[H] | RMSD: 0.2970 | 372.00 to state    1 from traj    1 on state    2
C     -1.683106     0.163464    -0.014775
H     -1.317970    -0.889649    -0.220075
H     -2.693473     0.263789     0.256573
C     -0.795966     1.474258     0.024457
H     -2.442651     2.776258    -0.131120
H      0.262210     1.089860    -0.024027
6
Family_1 [H+].[H][C-]=C([H])[H] | RMSD: 0.2367 | 452.00 to state    1 from traj    1 on state    2
C     -1.656467     0.178409    -0.009919
H     -1.342328    -0.857648    -0.061634
H     -2.798097     0.288262     0.084904
C     -0.793168     1.408641     0.011583
H     -2.617459     3.125386     0.010261
H      0.215232     1.288049    -0.056630
6
Family_1 [H+].[H][C-]=C([H])[H] | RMSD: 0.2827 | 636.00 to state    1 from traj    1 on state    2
C     -1.641271     0.204580    -0.009922
H     -1.347046    -0.844240    -0.159807
H     -2.831651     0.316282     0.149311
C     -0.807582     1.374377     0.023046
H     -2.729131     3.209651    -0.069313
H      0.355865     1.258793    -0.079849
6
Family_1 [H+].[H][C-]=C([H])[H] | RMSD: 0.2369 | 1564.00 to state    1 from traj    1 on state    2
C     -1.640091     0.186090     0.003661
H     -1.477334    -0.847723    -0.110377
H     -2.644230     0.174072     0.025317
C     -0.838424     1.452218     0.001352
H     -2.443625     2.929958     0.031335
H      0.366660     0.976968    -0.009285
6
Family_1 [H+].[H][C-]=C([H])[H] | RMSD: 0.3386 | 6968.00 to state    1 from traj    1 on state    2
C     -1.651513     0.217403    -0.021034
H     -1.317239    -0.613913     0.445755
H     -2.618072     0.066056    -0.169560
C     -0.828792     1.383421    -0.051693
H     -2.524934     3.137929     0.454828
H      0.283041     1.089846     0.132281
6
Family_1 [H+].[H][C-]=C([H])[H] | RMSD: 0.3510 | 10528.00 to state    1 from traj    1 on state    2
C     -1.624707     0.242251     0.016430
H     -1.569372    -0.798271    -0.296231
H     -2.740648     0.191733     0.046480
C     -0.811559     1.412178     0.025564
H     -2.636271     2.683327    -0.124644
H      0.244336     0.964387    -0.129271
6
Family_1 [H+].[H][C-]=C([H])[H] | RMSD: 0.8345 | 4296.00 to state    1 from traj    1 on state    2
C     -1.634299     0.256115     0.023247
H     -1.401214    -0.776785     0.461673
H     -2.490217    -0.202471    -0.769946
C     -0.785545     1.370714     0.075501
H     -2.037138     2.750158     0.138877
H     -0.969068     1.599153    -1.010547
6
Family_1 [H+].[H][C-]=C([H])[H] | RMSD: 0.9465 | 6248.00 to state    1 from traj    1 on state    2
C     -1.526816     0.224917    -0.035028
H     -1.292217    -0.646713    -0.184196
H     -2.130691    -0.156144     0.593162
C     -1.052130     1.512697    -0.136595
H     -1.220530     2.637215     0.347717
H     -0.358391     0.215619     1.285039
6
Family_1 [H+].[H][C-]=C([H])[H] | RMSD: 0.9435 | 6352.00 to state    1 from traj    1 on state    2
C     -1.513757     0.247884    -0.020898
H     -1.245166    -0.894743    -0.402722
H     -2.380806    -0.006608     0.669885
C     -1.035996     1.496669    -0.143271
H     -1.303916     2.523435     0.274189
H     -0.419788     0.345213     1.411557
6
Family_1 [H+].[H][C-]=C([H])[H] | RMSD: 0.9608 | 6672.00 to state    1 from traj    1 on state    2
C     -1.516585     0.243833     0.044635
H     -1.227307    -0.306511    -0.722710
H     -2.350101     0.424531     0.495715
C     -1.006046     1.417928    -0.177397
H     -1.639030     2.385152     0.270414
H     -0.456415     0.450638     1.535255
6
Family_1 [H+].[H][C-]=C([H])[H] | RMSD: 0.2045 | 1612.00 to state    1 from traj    1 on state    2
C     -1.586985     0.131348     0.025323
H     -1.477827    -0.931257    -0.052970
H     -2.740423     0.196760    -0.206697
C     -0.902691     1.486180    -0.015394
H     -2.115870     3.253033     0.145243
H      0.268583     0.962349    -0.007175
6
Family_1 [H+].[H][C-]=C([H])[H] | RMSD: 0.2002 | 2716.00 to state    1 from traj    1 on state    2
C     -1.604027     0.171571     0.037838
H     -1.414618    -0.912309    -0.075563
H     -2.571997     0.430519    -0.260132
C     -0.862783     1.424495    -0.019931
H     -2.405876     3.129276     0.160710
H      0.054493     1.089125    -0.041669
6
Family_1 [H+].[H][C-]=C([H])[H] | RMSD: 0.2142 | 4520.00 to state    1 from traj    1 on state    2
C     -1.678020     0.118556    -0.019282
H     -1.268862    -0.935132    -0.040280
H     -2.858633     0.151399     0.142043
C     -0.804030     1.501724     0.009524
H     -2.275504     3.050130     0.008442
H      0.246596     1.181695     0.002790
6
Family_1 [H+].[H][C-]=C([H])[H] | RMSD: 0.9769 | 1816.00 to state    1 from traj    1 on state    2
C     -1.523937     0.186355    -0.040038
H     -1.017724    -1.336945     0.649925
H     -2.364365    -0.101057    -0.364071
C     -1.019679     1.657755     0.034349
H     -1.261610     2.645330     0.266102
H     -0.779100    -0.426322    -0.487449
6
Family_1 [H+].[H][C-]=C([H])[H] | RMSD: 1.0689 | 4616.00 to state    1 from traj    1 on state    2
C     -1.416182     0.211900    -0.075431
H     -1.641957    -1.046871     1.043910
H     -2.693060    -0.337071    -0.539885
C     -1.030000     1.589229     0.092285
H     -1.274349     2.782398     0.241584
H     -0.974422    -0.105300    -0.949726
6
Family_1 [H+].[H][C-]=C([H])[H] | RMSD: 1.0420 | 6440.00 to state    1 from traj    1 on state    2
C     -1.381749     0.086854    -0.047584
H     -1.428651    -0.231152     0.971639
H     -2.983271     0.455111    -0.596195
C     -1.121913     1.614941     0.051411
H     -1.082561     2.611117     0.288717
H     -0.404401    -0.358293    -0.713045
6
Family_1 [H+].[H][C-]=C([H])[H] | RMSD: 1.0405 | 3016.00 to state    1 from traj    1 on state    2
C     -1.551428     0.291158     0.077846
H     -0.902931    -0.892875    -1.082186
H     -2.333156    -0.265886     0.194252
C     -1.003001     1.575555     0.019794
H     -1.472231     2.277758    -0.417532
H     -0.585633    -0.607324     0.138744
6
Family_1 [H+].[H][C-]=C([H])[H] | RMSD: 0.2484 | 452.00 to state    1 from traj    1 on state    2
C     -1.604153     0.161443    -0.000623
H     -1.287861    -0.769892     0.255641
H     -2.572582     0.337575    -0.197303
C     -0.903261     1.409541    -0.043405
H     -2.265417     3.379143     0.355218
H      0.271681     1.088656     0.107792
6
Family_1 [H+].[H][C-]=C([H])[H] | RMSD: 0.5744 | 5624.00 to state    1 from traj    1 on state    2
C     -1.561179     0.077268    -0.008845
H     -0.883796    -0.634519     0.241045
H     -2.776367     0.188714    -0.175642
C     -1.020512     1.428804    -0.031072
H     -1.356854     3.922210     0.302795
H      0.047899     1.332551     0.104159
6
Family_1 [H+].[H][C-]=C([H])[H] | RMSD: 0.3783 | 544.00 to state    1 from traj    1 on state    2
C     -1.651769     0.207514    -0.033561
H     -1.413247    -0.762572    -0.023867
H     -2.678997     0.508071     0.269759
C     -0.801187     1.415273     0.016896
H     -2.660182     2.600336    -0.047811
H      0.249347     1.072388    -0.002779
6
Family_1 [H+].[H][C-]=C([H])[H] | RMSD: 0.2952 | 3692.00 to state    1 from traj    1 on state    2
C     -1.594650     0.174890    -0.002318
H     -0.975458    -0.569067    -0.327946
H     -2.726527     0.289106     0.193235
C     -0.904057     1.374069     0.039483
H     -2.228642     3.572338    -0.193166
H     -0.027300     1.005545    -0.118243
6
Family_1 [H+].[H][C-]=C([H])[H] | RMSD: 0.4608 | 4972.00 to state    1 from traj    1 on state    2
C     -1.666264     0.316351    -0.000582
H     -1.310708    -0.579756    -0.250462
H     -2.723997     0.169014     0.146355
C     -0.769766     1.349704     0.043097
H     -2.828736     2.396343    -0.181722
H      0.158679     0.917041    -0.224054
6
Family_1 [H+].[H][C-]=C([H])[H] | RMSD: 0.3350 | 732.00 to state    1 from traj    1 on state    2
C     -1.580256     0.202519     0.005348
H     -1.406711    -0.846911     0.260993
H     -2.673876     0.168303    -0.255434
C     -0.888299     1.356753    -0.056127
H     -2.441996     3.626030     0.428051
H      0.205385     1.227614     0.168171
6
Family_1 [H+].[H][C-]=C([H])[H] | RMSD: 0.2554 | 1228.00 to state    1 from traj    1 on state    2
C     -1.618401     0.143262     0.007452
H     -1.318226    -0.815222    -0.065909
H     -2.800189     0.351507    -0.057117
C     -0.849464     1.393245     0.001048
H     -2.464757     3.542422     0.071423
H      0.257744     1.367597    -0.052959
6
Family_1 [H+].[H][C-]=C([H])[H] | RMSD: 1.0006 | 17020.00 to state    1 from traj    1 on state    2
C     -1.405163     0.190852     0.004477
H     -1.623419    -0.481605     0.791992
H     -2.796669     0.093937    -0.837578
C     -1.060450     1.551377     0.016109
H     -1.174845     2.360140     0.402443
H     -0.757321     0.022511    -0.605434
6
Family_1 [H+].[H][C-]=C([H])[H] | RMSD: 0.3272 | 728.00 to state    1 from traj    1 on state    2
C     -1.603635     0.159050    -0.002041
H     -1.317759    -0.911501    -0.364108
H     -2.671163     0.211839     0.196057
C     -0.888018     1.402267     0.048190
H     -2.254064     3.560985    -0.228928
H      0.201007     1.289359    -0.156202
6
Family_1 [H+].[H][C-]=C([H])[H] | RMSD: 0.3330 | 1684.00 to state    1 from traj    1 on state    2
C     -1.642440     0.264716    -0.041432
H     -1.333069    -0.852190    -0.170919
H     -2.667421     0.070466     0.386753
C     -0.821939     1.394269     0.046077
H     -2.591988     2.855871    -0.186692
H      0.225513     0.912744    -0.087769
6
Family_1 [H+].[H][C-]=C([H])[H] | RMSD: 0.5045 | 368.00 to state    1 from traj    1 on state    2
C     -1.571879     0.113114    -0.033937
H     -1.383276    -0.895576    -0.357837
H     -2.490138     0.168175     0.416133
C     -0.954203     1.432302     0.066320
H     -1.783637     3.681387    -0.330243
H      0.025320     1.386156    -0.117198
6
Family_1 [H+].[H][C-]=C([H])[H] | RMSD: 0.2143 | 632.00 to state    1 from traj    1 on state    2
C     -1.614952     0.138789    -0.002860
H     -1.396446    -0.896079    -0.171279
H     -2.795994     0.230203     0.088726
C     -0.849400     1.447458     0.019119
H     -2.287578     3.296112    -0.058105
H      0.112727     1.223374    -0.056358
6
Family_1 [H+].[H][C-]=C([H])[H] | RMSD: 0.3407 | 1836.00 to state    1 from traj    1 on state    2
C     -1.658641     0.261265    -0.013789
H     -1.184348    -0.824291    -0.100673
H     -2.646507     0.292859     0.173432
C     -0.813599     1.417076     0.009893
H     -2.577482     2.520378    -0.022947
H      0.135039     0.767306    -0.006668
6
Family_1 [H+].[H][C-]=C([H])[H] | RMSD: 0.9990 | 2952.00 to state    1 from traj    1 on state    2
C     -1.668668     0.339338     0.027957
H     -1.902794    -0.872911     0.494230
H     -2.549774     0.448471    -0.650388
C     -0.702164     1.287227    -0.007954
H     -2.682741     1.651568     0.362274
H     -0.346333     2.146063    -0.447754
6
Family_1 [H+].[H][C-]=C([H])[H] | RMSD: 0.4385 | 576.00 to state    1 from traj    1 on state    2
C     -1.629485     0.183256    -0.042331
H     -1.108340    -0.607320    -0.196105
H     -2.626506    -0.048909     0.370930
C     -0.876258     1.347698     0.057637
H     -2.359732     3.909657    -0.207181
H      0.220493     1.259043    -0.153305
6
Family_1 [H+].[H][C-]=C([H])[H] | RMSD: 0.9629 | 1344.00 to state    1 from traj    1 on state    2
C     -1.534907     0.183426    -0.026561
H     -1.411006    -0.798118    -0.329087
H     -2.429079     0.411174     0.684827
C     -0.963049     1.474909    -0.144582
H     -1.383543     2.329628     0.272301
H     -0.743237     1.051958     1.407958
6
Family_1 [H+].[H][C-]=C([H])[H] | RMSD: 0.4058 | 1144.00 to state    1 from traj    1 on state    2
C     -1.637052     0.174500    -0.019913
H     -1.170602    -0.741505    -0.466045
H     -2.573169     0.009103     0.416361
C     -0.881910     1.399905     0.063400
H     -2.159658     3.504295    -0.348970
H      0.186863     1.222825    -0.122803
6
Family_1 [H+].[H][C-]=C([H])[H] | RMSD: 0.4242 | 1168.00 to state    1 from traj    1 on state    2
C     -1.640189     0.178235    -0.019118
H     -1.158982    -0.777137    -0.492837
H     -2.603234    -0.000430     0.415572
C     -0.880927     1.398055     0.073739
H     -2.149759     3.488908    -0.391939
H      0.221074     1.260920    -0.184920
6
Family_1 [H+].[H][C-]=C([H])[H] | RMSD: 0.8781 | 7552.00 to state    1 from traj    1 on state    2
C     -1.441277     0.218671     0.062074
H     -1.525724    -0.603257    -0.653565
H     -2.509690     0.117070     0.118027
C     -1.081791     1.556775    -0.093666
H     -1.467481     2.471804     0.091840
H     -0.164743    -0.386435     0.816862
6
Family_1 [H+].[H][C-]=C([H])[H] | RMSD: 0.9014 | 2624.00 to state    1 from traj    1 on state    2
C     -1.427674     0.094052     0.080974
H     -1.328559    -0.528995    -0.853948
H     -3.042918     0.128088     0.065327
C     -1.064179     1.634554    -0.061391
H     -1.147929     2.804577    -0.093598
H     -0.520183    -0.246358     0.645596
6
Family_1 [H+].[H][C-]=C([H])[H] | RMSD: 1.0288 | 3432.00 to state    1 from traj    1 on state    2
C     -1.480689     0.185597     0.028622
H     -1.237363    -0.758640    -0.671495
H     -2.265114     0.355300     0.528545
C     -1.054933     1.579003    -0.152655
H     -1.625484     2.649993     0.219053
H     -0.390088    -0.518222     1.398549
6
Family_1 [H+].[H][C-]=C([H])[H] | RMSD: 0.9841 | 5236.00 to state    1 from traj    1 on state    2
C     -1.425598     0.217246     0.046260
H     -1.953209    -1.036918    -1.038733
H     -2.467610     0.053856     0.526733
C     -1.040913     1.572699    -0.067496
H     -1.530204     2.425387    -0.198149
H     -0.390538    -0.015916     0.959908
6
Family_1 [H+].[H][C-]=C([H])[H] | RMSD: 0.7364 | 5996.00 to state    1 from traj    1 on state    2
C     -1.537095     0.154729     0.012340
H     -1.099623    -0.781599     0.213446
H     -2.412297     0.261712    -0.456099
C     -1.042746     1.586081     0.076663
H     -1.484672     2.699604    -0.042283
H      0.005437    -0.167827    -0.778873
6
Family_1 [H+].[H][C-]=C([H])[H] | RMSD: 0.4119 | 500.00 to state    1 from traj    1 on state    2
C     -1.626706     0.087658    -0.030125
H     -1.178515    -1.011221     0.020718
H     -2.681900     0.127805     0.133437
C     -0.916638     1.459741     0.017302
H     -1.841907     3.735011     0.024284
H      0.276281     1.464922    -0.028933
6
Family_1 [H+].[H][C-]=C([H])[H] | RMSD: 0.3971 | 684.00 to state    1 from traj    1 on state    2
C     -1.610574     0.102890    -0.025633
H     -1.145802    -0.860063     0.002391
H     -2.723504     0.086009     0.116926
C     -0.910427     1.431760     0.012082
H     -1.904993     3.826253     0.039861
H      0.082024     1.416228    -0.000990
6
Family_1 [H+].[H][C-]=C([H])[H] | RMSD: 0.6641 | 532.00 to state    1 from traj    1 on state    2
C     -1.582015     0.099801    -0.012421
H     -1.130838    -0.820957    -0.529925
H     -2.580670    -0.109902     0.360625
C     -0.993511     1.434545     0.067756
H     -1.384048     3.913751    -0.379077
H      0.052987     1.489158    -0.114261
6
Family_1 [H+].[H][C-]=C([H])[H] | RMSD: 0.6954 | 636.00 to state    1 from traj    1 on state    2
C     -1.584160     0.113376    -0.010949
H     -1.013702    -0.938656    -0.578956
H     -2.696651    -0.104337     0.358363
C     -0.991417     1.422176     0.085123
H     -1.384963     3.952261    -0.448501
H      0.053350     1.548413    -0.218032
6
Family_1 [H+].[H][C-]=C([H])[H] | RMSD: 1.0505 | 4392.00 to state    1 from traj    1 on state    2
C     -1.456710     0.101728    -0.126018
H     -1.247378    -0.277096     1.047145
H     -2.971521    -0.052631    -0.099368
C     -1.067107     1.617284     0.105474
H     -0.830175     2.596460     0.073598
H     -0.609649     0.004888    -0.779862
6
Family_1 [H+].[H][C-]=C([H])[H] | RMSD: 1.0799 | 6952.00 to state    1 from traj    1 on state    2
C     -1.472159     0.132467     0.059942
H     -1.350842    -1.002097    -1.003261
H     -2.317511    -0.223991     0.295778
C     -1.092395     1.694065    -0.016034
H     -0.911612     2.710065    -0.304848
H     -0.593346    -0.493529     0.485858
6
Family_1 [H+].[H][C-]=C([H])[H] | RMSD: 0.1884 | 456.00 to state    1 from traj    1 on state    2
C     -1.668881     0.170357     0.017789
H     -1.247804    -0.861660    -0.051990
H     -2.773437     0.345291    -0.123835
C     -0.799975     1.435635    -0.003524
H     -2.524051     2.957652     0.091188
H      0.231673     1.177050    -0.088633
6
Family_1 [H+].[H][C-]=C([H])[H] | RMSD: 0.2404 | 636.00 to state    1 from traj    1 on state    2
C     -1.644430     0.225794    -0.001618
H     -1.303599    -0.779258    -0.017141
H     -2.660593     0.348515     0.002385
C     -0.813956     1.360232    -0.001110
H     -2.782369     3.156890     0.089039
H      0.308190     1.130102    -0.045056
6
Family_1 [H+].[H][C-]=C([H])[H] | RMSD: 0.3475 | 696.00 to state    1 from traj    1 on state    2
C     -1.576984     0.155154    -0.013996
H     -1.360182    -1.021741     0.386789
H     -2.595595     0.257857    -0.226922
C     -0.920781     1.423458    -0.040368
H     -2.087334     3.500408     0.405698
H      0.073955     1.208061     0.078941
6
Family_1 [H+].[H][C-]=C([H])[H] | RMSD: 0.9592 | 3756.00 to state    1 from traj    1 on state    2
C     -1.623535     0.327597    -0.054529
H     -1.574221    -0.782757    -0.447904
H     -2.127218     0.160723     0.908365
C     -0.817667     1.308648    -0.056400
H     -2.103783     2.175792    -0.065914
H     -0.837918     1.704099     0.923955
6
Family_1 [H+].[H][C-]=C([H])[H] | RMSD: 0.5998 | 1748.00 to state    1 from traj    1 on state    2
C     -1.687446     0.233119     0.061218
H     -0.726218    -0.399578     0.086621
H     -2.390523     0.340732    -0.675749
C     -0.860337     1.288412     0.047931
H     -2.089138     3.055017     0.069366
H     -0.167266     1.628574    -0.784104
6
Family_1 [H+].[H][C-]=C([H])[H] | RMSD: 0.9621 | 3592.00 to state    1 from traj    1 on state    2
C     -1.544653     0.139327     0.011198
H     -1.293864    -0.670720     0.600838
H     -2.212745    -0.057937    -0.798014
C     -1.096441     1.578641     0.072875
H     -0.792268     2.563178     0.161441
H      0.037586     0.449548    -0.969332
6
Family_1 [H+].[H][C-]=C([H])[H] | RMSD: 1.0598 | 2464.00 to state    1 from traj    1 on state    2
C     -1.442659     0.234574    -0.015508
H     -1.566592    -1.129745     0.840498
H     -2.251344     0.181351    -0.828553
C     -1.036560     1.553987     0.097781
H     -1.508527     2.502894     0.187469
H     -0.863676    -0.111590    -1.183025
6
Family_1 [H+].[H][C-]=C([H])[H] | RMSD: 0.3804 | 632.00 to state    1 from traj    1 on state    2
C     -1.659731     0.072332    -0.038124
H     -1.234161    -0.951313    -0.071808
H     -2.838954     0.099033     0.278772
C     -0.842993     1.481534     0.026525
H     -2.039532     3.573825    -0.071001
H      0.202579     1.517905    -0.001038
6
Family_1 [H+].[H][C-]=C([H])[H] | RMSD: 0.3152 | 1508.00 to state    1 from traj    1 on state    2
C     -1.631068     0.123151     0.021875
H     -1.303183    -0.963451     0.303485
H     -2.687463     0.235899    -0.426404
C     -0.870337     1.469985    -0.048433
H     -2.107031     3.266842     0.425262
H      0.171905     1.232241     0.010832
6
Family_1 [H+].[H][C-]=C([H])[H] | RMSD: 0.3595 | 436.00 to state    1 from traj    1 on state    2
C     -1.633411     0.129773    -0.016206
H     -1.294916    -0.889575     0.324545
H     -2.758965     0.202679    -0.156553
C     -0.855138     1.410582    -0.032314
H     -2.289222     3.610019     0.347656
H      0.264142     1.477327     0.059211
6
Family_1 [H+].[H][C-]=C([H])[H] | RMSD: 0.2531 | 1132.00 to state    1 from traj    1 on state    2
C     -1.669002     0.201543     0.010790
H     -1.067919    -0.758659     0.182810
H     -2.640670     0.174280    -0.224849
C     -0.833674     1.371804    -0.041162
H     -2.558243     3.423049     0.345057
H      0.356209     1.168648     0.055603
6
Family_1 [H+].[H][C-]=C([H])[H] | RMSD: 0.3324 | 1704.00 to state    1 from traj    1 on state    2
C     -1.611556     0.252743    -0.008467
H     -1.380791    -1.020241    -0.278659
H     -2.875907     0.378810     0.205209
C     -0.822770     1.375221     0.044137
H     -2.748759     2.939161    -0.195393
H      0.280385     1.058805    -0.159475
6
Family_1 [H+].[H][C-]=C([H])[H] | RMSD: 0.4268 | 3212.00 to state    1 from traj    1 on state    2
C     -1.680862     0.235638    -0.011740
H     -1.476016    -0.904305    -0.047473
H     -2.578843     0.462933     0.130055
C     -0.751134     1.359802     0.001499
H     -3.016063     2.844117     0.041343
H      0.318100     1.341329    -0.005183
6
Family_1 [H+].[H][C-]=C([H])[H] | RMSD: 0.4393 | 4212.00 to state    1 from traj    1 on state    2
C     -1.627851     0.230087    -0.043964
H     -1.671595    -1.110430     0.309757
H     -2.761871     0.363639     0.081348
C     -0.792502     1.408329    -0.010792
H     -2.748690     2.730040     0.214303
H      0.290594     1.248737     0.043762
6
Family_1 [H+].[H][C-]=C([H])[H] | RMSD: 0.3531 | 596.00 to state    1 from traj    1 on state    2
C     -1.646697     0.222226    -0.013165
H     -1.332822    -0.750999    -0.222135
H     -2.703359     0.310913     0.214631
C     -0.797249     1.335391     0.036817
H     -2.894206     3.360100    -0.139188
H      0.319946     1.274746    -0.138411
6
Family_1 [H+].[H][C-]=C([H])[H] | RMSD: 0.2585 | 356.00 to state    1 from traj    1 on state    2
C     -1.623898     0.156134     0.004583
H     -1.148899    -0.859584    -0.101759
H     -2.704046     0.200105    -0.027630
C     -0.885027     1.393452     0.011019
H     -2.283457     3.674503     0.033133
H      0.300237     1.275436    -0.092930
6
Family_1 [H+].[H][C-]=C([H])[H] | RMSD: 0.2443 | 1112.00 to state    1 from traj    1 on state    2
C     -1.585682     0.153356    -0.012105
H     -1.304087    -0.837497     0.098815
H     -2.658248     0.331584    -0.022313
C     -0.925954     1.403890    -0.014229
H     -2.217118     3.556080     0.176275
H      0.375589     1.149010     0.057733
6
Family_1 [H+].[H][C-]=C([H])[H] | RMSD: 0.6684 | 1684.00 to state    1 from traj    1 on state    2
C     -1.587529     0.201172    -0.054376
H     -1.096879    -0.572605    -0.587138
H     -2.429281    -0.069467     0.677515
C     -0.975022     1.350446     0.139194
H     -1.754925     3.636515    -0.687052
H      0.083904     1.271810    -0.417274
6
Family_1 [H+].[H][C-]=C([H])[H] | RMSD: 0.8569 | 2116.00 to state    1 from traj    1 on state    2
C     -1.632781     0.119446    -0.019980
H     -1.644452    -0.429802    -0.903125
H     -2.518489    -0.114890     0.667502
C     -0.868498     1.390430     0.144915
H     -1.823418     3.357220    -0.845601
H      0.059085     1.951099    -0.410739
6
Family_1 [H+].[H][C-]=C([H])[H] | RMSD: 1.0055 | 2956.00 to state    1 from traj    1 on state    2
C     -1.383889     0.205938    -0.068745
H     -1.419911    -1.380554     0.829011
H     -2.484233     0.310915    -0.401555
C     -1.112109     1.586346     0.101007
H     -1.321390     2.817421     0.103695
H     -0.764672    -0.349235    -0.918859
6
Family_1 [H+].[H][C-]=C([H])[H] | RMSD: 0.6099 | 5104.00 to state    1 from traj    1 on state    2
C     -1.530713     0.095609    -0.023216
H     -1.138326    -0.981543    -0.111219
H     -2.540476     0.137247     0.137882
C     -1.062919     1.454079     0.032639
H     -1.154739     3.785022    -0.085775
H      0.006709     1.348506    -0.056458
6
Family_1 [H+].[H][C-]=C([H])[H] | RMSD: 0.3210 | 652.00 to state    1 from traj    1 on state    2
C     -1.642412     0.155559    -0.009749
H     -1.243437    -0.790346     0.394966
H     -2.740546     0.064706    -0.249606
C     -0.857542     1.424203    -0.044941
H     -2.229644     3.399491     0.428753
H      0.270554     1.257040     0.074278
6
Family_1 [H+].[H][C-]=C([H])[H] | RMSD: 0.9959 | 8820.00 to state    1 from traj    1 on state    2
C     -1.552568     0.023468     0.178514
H     -2.002597    -0.654362    -0.334600
H     -1.456368     1.384723    -1.011650
C     -1.002643     1.471227    -0.114522
H     -1.750633     2.689679     0.432643
H     -0.075050     1.524487     0.147817
6
Family_1 [H+].[H][C-]=C([H])[H] | RMSD: 0.4145 | 5444.00 to state    1 from traj    1 on state    2
C     -1.673459     0.116609    -0.031067
H     -1.362299    -0.712435    -0.314619
H     -2.595322     0.337632     0.427268
C     -0.813437     1.417620     0.052025
H     -2.434201     3.329408    -0.278326
H      0.293166     1.518831    -0.087328
6
Family_1 [H+].[H][C-]=C([H])[H] | RMSD: 0.3681 | 5552.00 to state    1 from traj    1 on state    2
C     -1.672001     0.128329    -0.040494
H     -1.177094    -0.830662    -0.285829
H     -2.664529     0.359788     0.475304
C     -0.823915     1.428433     0.054416
H     -2.362476     3.287816    -0.281658
H      0.212918     1.388012    -0.076982
6
Family_1 [H+].[H][C-]=C([H])[H] | RMSD: 0.2904 | 7004.00 to state    1 from traj    1 on state    2
C     -1.575557     0.252632    -0.022298
H     -1.516735    -1.025036     0.011947
H     -2.589347     0.445316     0.114336
C     -0.862805     1.368194     0.012834
H     -2.721157     3.072921     0.032779
H      0.150261     0.948387    -0.049571
6
Family_1 [H+].[H][C-]=C([H])[H] | RMSD: 0.3876 | 8228.00 to state    1 from traj    1 on state    2
C     -1.676470     0.234500     0.015234
H     -1.225474    -0.622951     0.118559
H     -2.693625     0.581121    -0.173707
C     -0.767788     1.340856    -0.034719
H     -3.008327     2.858974     0.263667
H      0.320707     1.166245     0.020375
6
Family_1 [H+].[H][C-]=C([H])[H] | RMSD: 0.3124 | 576.00 to state    1 from traj    1 on state    2
C     -1.614136     0.150553    -0.034805
H     -1.142659    -0.881764     0.064913
H     -2.648410     0.133564     0.153105
C     -0.906572     1.402767     0.009209
H     -2.132430     3.730434     0.071705
H      0.227738     1.263738     0.011984
6
Family_1 [H+].[H][C-]=C([H])[H] | RMSD: 0.3389 | 1816.00 to state    1 from traj    1 on state    2
C     -1.660405     0.203994    -0.021075
H     -1.042298    -0.769800    -0.080016
H     -2.580782     0.189321     0.182019
C     -0.828758     1.336192     0.013957
H     -2.712043     3.755097     0.012533
H      0.263473     1.227841    -0.033002
6
Family_1 [H+].[H][C-]=C([H])[H] | RMSD: 0.2805 | 2300.00 to state    1 from traj    1 on state    2
C     -1.618406     0.216134     0.005810
H     -1.369484    -0.881424    -0.091806
H     -2.575153     0.337522    -0.015534
C     -0.833054     1.344731     0.002318
H     -2.772876     3.480260     0.065546
H      0.196617     1.219703    -0.058335
6
Family_1 [H+].[H][C-]=C([H])[H] | RMSD: 1.0118 | 5296.00 to state    1 from traj    1 on state    2
C     -1.401948     0.158661     0.030744
H     -1.749488    -0.298508    -0.882161
H     -2.457749     0.378615     0.609503
C     -1.093200     1.513582    -0.109186
H     -1.314332     2.605352    -0.048614
H     -0.478759     0.143449     1.252681
6
Family_1 [H+].[H][C-]=C([H])[H] | RMSD: 0.9333 | 6520.00 to state    1 from traj    1 on state    2
C     -1.397721     0.190166     0.094315
H     -1.148171    -0.290773    -0.938023
H     -2.889957     0.646600     0.077879
C     -1.075564     1.500709    -0.070258
H     -1.499150     2.536743    -0.111129
H     -0.723564    -0.285675     0.681336
6
Family_1 [H+].[H][C-]=C([H])[H] | RMSD: 0.9361 | 2096.00 to state    1 from traj    1 on state    2
C     -1.669184     0.140813    -0.056521
H     -0.968240    -0.850788    -0.513082
H     -2.031453    -0.183705     1.012539
C     -0.903784     1.552678    -0.088348
H     -1.470194     2.916508     0.017606
H     -0.603168     0.693706     1.205872
6
Family_1 [H+].[H][C-]=C([H])[H] | RMSD: 0.9161 | 1664.00 to state    1 from traj    1 on state    2
C     -1.628728     0.181535     0.027200
H     -1.229929    -0.462178    -0.691425
H     -2.629915    -0.014583     0.446799
C     -0.829318     1.379566    -0.081322
H     -1.552873     2.718122    -0.005331
H     -1.029716     1.911885     0.891583
6
Family_1 [H+].[H][C-]=C([H])[H] | RMSD: 0.8888 | 2928.00 to state    1 from traj    1 on state    2
C     -1.743417     0.185869    -0.058158
H     -1.210281    -0.677885    -0.331122
H     -2.297688     0.023722     0.908050
C     -0.716231     1.481300    -0.084131
H     -2.125324     2.211611     0.063523
H     -0.790050     1.331924     1.051736
6
Family_1 [H+].[H][C-]=C([H])[H] | RMSD: 0.4028 | 672.00 to state    1 from traj    1 on state    2
C     -1.667552     0.187876    -0.026504
H     -1.312681    -0.802638    -0.334332
H     -2.735365     0.175944     0.381807
C     -0.791404     1.369827     0.059441
H     -2.687888     3.395586    -0.282596
H      0.304356     1.424845    -0.160623
6
Family_1 [H+].[H][C-]=C([H])[H] | RMSD: 0.9387 | 6988.00 to state    1 from traj    1 on state    2
C     -1.592798     0.263083     0.196620
H     -1.295765    -0.645443    -0.170535
H     -1.822653     0.518345    -1.441621
C     -1.014327     1.335714    -0.053259
H     -1.424944     2.325867     0.404344
H     -0.122690     1.505312    -0.503717
6
Family_1 [H+].[H][C-]=C([H])[H] | RMSD: 0.9107 | 9304.00 to state    1 from traj    1 on state    2
C     -1.295035     0.244059     0.038687
H     -1.814452    -0.767706    -0.646187
H     -2.859017     0.579229     0.201793
C     -1.106873     1.502693    -0.037083
H     -1.705739     2.558080    -0.121557
H     -0.732141    -0.428516     0.543562
6
Family_1 [H+].[H][C-]=C([H])[H] | RMSD: 0.2976 | 612.00 to state    1 from traj    1 on state    2
C     -1.659372     0.187194    -0.011797
H     -1.251752    -0.762784    -0.036665
H     -2.683239     0.607643     0.113601
C     -0.797961     1.389645     0.007246
H     -2.737916     2.927246     0.014797
H      0.221987     1.193613    -0.040794
6
Family_1 [H+].[H][C-]=C([H])[H] | RMSD: 0.2941 | 1608.00 to state    1 from traj    1 on state    2
C     -1.687098     0.232284     0.011226
H     -1.140605    -0.792321    -0.184928
H     -2.814813     0.350161     0.043274
C     -0.774811     1.396328     0.007577
H     -2.720065     2.707633    -0.022056
H      0.279084     1.083340    -0.063629
6
Family_1 [H+].[H][C-]=C([H])[H] | RMSD: 0.2923 | 1568.00 to state    1 from traj    1 on state    2
C     -1.645792     0.263794    -0.001825
H     -1.265453    -0.910586     0.052423
H     -2.875341     0.234519    -0.057701
C     -0.783344     1.339396    -0.008001
H     -2.941704     3.177503     0.159145
H      0.295589     1.150299    -0.040066
6
Family_1 [H+].[H][C-]=C([H])[H] | RMSD: 0.2979 | 1824.00 to state    1 from traj    1 on state    2
C     -1.609617     0.262927     0.018358
H     -1.318125    -0.667519    -0.104382
H     -2.761304     0.261423    -0.084178
C     -0.818858     1.306521    -0.013881
H     -2.968490     3.417786     0.126618
H      0.253139     1.042097     0.005320
6
Family_1 [H+].[H][C-]=C([H])[H] | RMSD: 0.2195 | 1984.00 to state    1 from traj    1 on state    2
C     -1.618776     0.232120     0.016479
H     -1.127455    -0.885202    -0.091502
H     -2.859989     0.405184    -0.098048
C     -0.832894     1.342941    -0.001654
H     -2.783035     3.380872     0.088116
H      0.252078     1.086041    -0.078500
6
Family_1 [H+].[H][C-]=C([H])[H] | RMSD: 0.4770 | 2988.00 to state    1 from traj    1 on state    2
C     -1.567137     0.087182    -0.013459
H     -1.130907    -0.828003    -0.018632
H     -2.598606     0.224693     0.026491
C     -0.982148     1.426860     0.012606
H     -1.626551     3.912380     0.037677
H      0.000812     1.404906    -0.038654
6
Family_1 [H+].[H][C-]=C([H])[H] | RMSD: 0.4655 | 3172.00 to state    1 from traj    1 on state    2
C     -1.618468     0.108975     0.004806
H     -0.749600    -0.724266    -0.116157
H     -2.729543     0.059071    -0.035469
C     -0.968443     1.426956     0.012058
H     -1.639203     3.903296     0.023973
H      0.211432     1.215059    -0.076577
6
Family_1 [H+].[H][C-]=C([H])[H] | RMSD: 0.3590 | 560.00 to state    1 from traj    1 on state    2
C     -1.613511     0.182339    -0.030704
H     -1.220673    -0.858984     0.336803
H     -2.702525     0.221944    -0.040541
C     -0.867254     1.355623    -0.036381
H     -2.487727     3.742881     0.358486
H      0.239212     1.323127     0.141334
6
Family_1 [H+].[H][C-]=C([H])[H] | RMSD: 0.7904 | 1224.00 to state    1 from traj    1 on state    2
C     -1.759885     0.275684    -0.066078
H     -0.897462    -0.369008     0.105418
H     -2.711381    -0.078218     0.248015
C     -0.710800     1.340488     0.139316
H     -2.185159     2.197189    -0.396009
H     -0.497815     1.747078    -0.833392
6
Family_1 [H+].[H][C-]=C([H])[H] | RMSD: 0.9787 | 14352.00 to state    1 from traj    1 on state    2
C     -1.729421     0.322370     0.048745
H     -1.488225    -0.363904     0.705255
H     -2.211174     0.234184    -0.977607
C     -0.721527     1.272339    -0.016123
H     -2.516889     1.919397     0.532940
H     -0.310718     1.963107    -0.652585
6
Family_1 [H+].[H][C-]=C([H])[H] | RMSD: 0.2634 | 628.00 to state    1 from traj    1 on state    2
C     -1.631230     0.173255    -0.019862
H     -1.395005    -0.921210    -0.065459
H     -2.656535     0.319685     0.151719
C     -0.826306     1.396427     0.018869
H     -2.561698     3.338051    -0.019687
H      0.164742     1.314467    -0.058026
6
Family_1 [H+].[H][C-]=C([H])[H] | RMSD: 0.3311 | 1556.00 to state    1 from traj    1 on state    2
C     -1.643404     0.226995    -0.015576
H     -1.452438    -0.895941    -0.070656
H     -2.740782     0.227598     0.143193
C     -0.814724     1.445429     0.013199
H     -2.556924     2.609381    -0.019488
H      0.308687     0.885720    -0.028012
6
Family_1 [H+].[H][C-]=C([H])[H] | RMSD: 0.3480 | 1616.00 to state    1 from traj    1 on state    2
C     -1.633985     0.253642    -0.010369
H     -1.512292    -0.895736    -0.089388
H     -2.693022     0.225843     0.117857
C     -0.820445     1.414475     0.010588
H     -2.661189     2.649760    -0.007995
H      0.380980     0.898208    -0.026366
6
Family_1 [H+].[H][C-]=C([H])[H] | RMSD: 0.2665 | 6260.00 to state    1 from traj    1 on state    2
C     -1.648185     0.235222    -0.010801
H     -1.250418    -0.776552     0.199355
H     -2.856768     0.312761    -0.073073
C     -0.800534     1.372974    -0.024866
H     -2.749924     2.968357     0.252724
H      0.303551     1.087511     0.042705
6
Family_1 [H+].[H][C-]=C([H])[H] | RMSD: 0.9215 | 2788.00 to state    1 from traj    1 on state    2
C     -1.655684     0.155310     0.140152
H     -1.251341    -0.737696    -0.188726
H     -1.769487     0.109464    -1.104714
C     -1.024718     1.441279     0.033388
H     -1.080349     2.780184     0.073739
H      0.308279     1.578423    -0.851418
6
Family_1 [H+].[H][C-]=C([H])[H] | RMSD: 0.8523 | 3796.00 to state    1 from traj    1 on state    2
C     -1.675043     0.210185     0.119407
H     -1.227867    -0.890438     0.058899
H     -1.610292     0.138163    -1.007676
C     -0.980798     1.380144    -0.052545
H     -1.353072     2.792931     0.447180
H      0.105668     1.764311    -0.298395
6
Family_1 [H+].[H][C-]=C([H])[H] | RMSD: 0.6391 | 4652.00 to state    1 from traj    1 on state    2
C     -1.722091     0.264147     0.045813
H     -1.106204    -0.464612     0.475439
H     -2.341042     0.137279    -0.815414
C     -0.815053     1.304340     0.005677
H     -2.351132     2.748368     0.377802
H      0.298449     1.644205    -0.654648
6
Family_1 [H+].[H][C-]=C([H])[H] | RMSD: 0.2622 | 504.00 to state    1 from traj    1 on state    2
C     -1.641627     0.110592     0.011669
H     -1.474446    -0.787727    -0.220001
H     -2.766498     0.387582     0.046693
C     -0.824909     1.458892     0.008663
H     -2.391611     3.137138    -0.048498
H      0.291290     1.316356    -0.023740
6
Family_1 [H+].[H][C-]=C([H])[H] | RMSD: 0.3108 | 616.00 to state    1 from traj    1 on state    2
C     -1.625163     0.154253     0.017286
H     -1.534549    -0.979498    -0.268710
H     -2.831320     0.337020     0.013208
C     -0.817748     1.421958     0.018078
H     -2.545991     3.227544    -0.077404
H      0.289090     1.388132    -0.091755
6
Family_1 [H+].[H][C-]=C([H])[H] | RMSD: 0.2741 | 608.00 to state    1 from traj    1 on state    2
C     -1.635028     0.209249    -0.008547
H     -1.354647    -0.960932     0.145880
H     -2.932687     0.248050    -0.067819
C     -0.809264     1.386546    -0.023294
H     -2.665649     3.186129     0.234440
H      0.346665     1.266595     0.063621
6
Family_1 [H+].[H][C-]=C([H])[H] | RMSD: 0.3762 | 2224.00 to state    1 from traj    1 on state    2
C     -1.664590     0.227711     0.017840
H     -1.406243    -0.778312     0.154043
H     -2.723131     0.425361    -0.230812
C     -0.767316     1.354597    -0.044768
H     -2.926702     2.941105     0.326270
H      0.302171     1.312403     0.068083
6
Family_1 [H+].[H][C-]=C([H])[H] | RMSD: 0.6208 | 3020.00 to state    1 from traj    1 on state    2
C     -1.648184     0.278722     0.039104
H     -1.233027    -0.606127    -0.278927
H     -2.716794     0.513484    -0.249085
C     -0.777821     1.260898     0.098297
H     -2.620521     2.697242    -0.314700
H     -0.253878     1.804610    -0.797797
6
Family_1 [H+].[H][C-]=C([H])[H] | RMSD: 0.6108 | 400.00 to state    1 from traj    1 on state    2
C     -1.594223     0.112186    -0.033097
H     -1.573940    -0.630180    -0.643046
H     -2.441684     0.167104     0.646797
C     -0.929099     1.438243     0.086543
H     -1.856311     3.337213    -0.558655
H      0.207314     1.406272    -0.085233
6
Family_1 [H+].[H][C-]=C([H])[H] | RMSD: 0.9185 | 2272.00 to state    1 from traj    1 on state    2
C     -1.464916     0.172832     0.019539
H     -1.879538    -0.945922     0.033422
H     -2.270816     1.299001    -0.194833
C     -0.890740     1.205746    -0.024869
H     -2.691510     3.740976     0.195982
H     -0.820612     2.234081     0.025663
6
Family_1 [H+].[H][C-]=C([H])[H] | RMSD: 0.9426 | 2304.00 to state    1 from traj    1 on state    2
C     -1.462178     0.156900     0.027927
H     -1.921759    -0.978098    -0.011298
H     -2.216575     1.376955    -0.228291
C     -0.893867     1.219659    -0.021103
H     -2.686161     3.729299     0.169136
H     -0.833340     2.224033    -0.014142
6
Family_1 [H+].[H][C-]=C([H])[H] | RMSD: 0.8946 | 3120.00 to state    1 from traj    1 on state    2
C     -1.671964     0.234595    -0.039511
H     -1.421476    -0.969180    -0.191290
H     -2.266556     1.276074     0.533934
C     -0.789761     1.290507     0.001831
H     -2.599521     2.126837    -0.133316
H     -0.111044     2.148471     0.236367
6
Family_1 [H+].[H][C-]=C([H])[H] | RMSD: 0.9233 | 7872.00 to state    1 from traj    1 on state    2
C     -1.580448     0.214725     0.013514
H     -0.786784    -0.332061    -0.458947
H     -2.395263    -0.394145     0.362904
C     -1.041048     1.546433    -0.092295
H     -1.219263     2.751102     0.147534
H     -0.093505    -0.255469     0.883948
6
Family_1 [H+].[H][C-]=C([H])[H] | RMSD: 0.3465 | 576.00 to state    1 from traj    1 on state    2
C     -1.644221     0.144063    -0.002154
H     -1.217990    -0.805307    -0.226817
H     -2.785376    -0.030895     0.113075
C     -0.841773     1.404551     0.021821
H     -2.283580     3.721823    -0.067026
H      0.177545     1.416416    -0.056857
6
Family_1 [H+].[H][C-]=C([H])[H] | RMSD: 1.0034 | 2076.00 to state    1 from traj    1 on state    2
C     -1.600021     0.245925    -0.031439
H     -0.916855    -0.514294    -0.411706
H     -2.478501    -0.072512     0.810081
C     -0.966548     1.503917    -0.149020
H     -1.452842     2.265921     0.257659
H     -0.301106     0.225152     1.490975
6
Family_1 [H+].[H][C-]=C([H])[H] | RMSD: 0.5626 | 444.00 to state    1 from traj    1 on state    2
C     -1.626057     0.130887     0.003365
H     -1.214123    -0.861755     0.593496
H     -2.556965    -0.088686    -0.518287
C     -0.926281     1.436627    -0.068818
H     -1.748729     3.608105     0.631874
H      0.200939     1.419173     0.069555
6
Family_1 [H+].[H][C-]=C([H])[H] | RMSD: 1.0122 | 9956.00 to state    1 from traj    1 on state    2
C     -1.725889     0.310638     0.010588
H     -1.289192    -0.574240     0.630678
H     -2.598304     0.567036    -0.573214
C     -0.642087     1.257655    -0.023140
H     -2.712845     1.846801     0.450045
H     -0.915329     2.227955    -0.361216
6
Family_1 [H+].[H][C-]=C([H])[H] | RMSD: 0.4729 | 456.00 to state    1 from traj    1 on state    2
C     -1.616669     0.087591    -0.020162
H     -1.385553    -0.777249    -0.393012
H     -2.588257     0.079185     0.366265
C     -0.896244     1.450727     0.049756
H     -1.908494     3.645252    -0.281920
H      0.093648     1.477535    -0.047255
6
Family_1 [H+].[H][C-]=C([H])[H] | RMSD: 0.5153 | 688.00 to state    1 from traj    1 on state    2
C     -1.617523     0.142500    -0.040186
H     -1.135342    -0.960566    -0.406501
H     -2.677170     0.029873     0.488506
C     -0.922788     1.410616     0.079702
H     -1.910783     3.741660    -0.389048
H      0.261113     1.437420    -0.167106
6
Family_1 [H+].[H][C-]=C([H])[H] | RMSD: 1.0660 | 2360.00 to state    1 from traj    1 on state    2
C     -1.397688     0.284993    -0.120485
H     -1.603395    -0.864826     0.943036
H     -2.412135     0.158691    -0.006260
C     -1.024390     1.537567     0.080988
H     -1.801379     2.381907     0.136286
H     -1.054107    -0.637989    -0.605713
6
Family_1 [H+].[H][C-]=C([H])[H] | RMSD: 1.0527 | 2520.00 to state    1 from traj    1 on state    2
C     -1.390726     0.201548    -0.124342
H     -1.847308    -0.895702     1.141121
H     -2.488153     0.137534    -0.184164
C     -1.052123     1.598836     0.097683
H     -1.608535     2.551195     0.175879
H     -0.679522    -0.491003    -0.818463
6
Family_1 [H+].[H][C-]=C([H])[H] | RMSD: 0.5150 | 424.00 to state    1 from traj    1 on state    2
C     -1.592911     0.084421     0.009223
H     -1.030985    -0.819027     0.087159
H     -2.632076     0.026244    -0.222545
C     -0.982042     1.453010    -0.012757
H     -1.459558     3.854480     0.205421
H      0.073213     1.373597    -0.031208
6
Family_1 [H+].[H][C-]=C([H])[H] | RMSD: 0.5992 | 636.00 to state    1 from traj    1 on state    2
C     -1.587552     0.115169     0.021121
H     -1.091372    -0.914967    -0.002707
H     -2.618854    -0.164215    -0.251583
C     -0.989143     1.413310    -0.021189
H     -1.506968     4.099033     0.225343
H      0.188546     1.522115     0.026476
6
Family_1 [H+].[H][C-]=C([H])[H] | RMSD: 0.4126 | 1980.00 to state    1 from traj    1 on state    2
C     -1.623668     0.144803     0.038252
H     -0.928002    -0.726695    -0.068237
H     -2.653662     0.330556    -0.268175
C     -0.887211     1.343707    -0.032483
H     -2.399066     4.069733     0.239089
H      0.167850     1.344626     0.025304
6
Family_1 [H+].[H][C-]=C([H])[H] | RMSD: 0.3727 | 6996.00 to state    1 from traj    1 on state    2
C     -1.583618     0.104454     0.043070
H     -1.717356    -0.937481     0.004738
H     -2.673028     0.381707    -0.364972
C     -0.876450     1.447551    -0.038818
H     -2.246485     3.371372     0.265460
H      0.218540     1.446040     0.040827
6
Family_1 [H+].[H][C-]=C([H])[H] | RMSD: 0.1679 | 372.00 to state    1 from traj    1 on state    2
C     -1.636234     0.147037    -0.023275
H     -1.126232    -0.859137    -0.001469
H     -2.705584     0.316627     0.138723
C     -0.873086     1.434004     0.009517
H     -2.266816     3.347591     0.031210
H      0.267163     1.110576    -0.007813
6
Family_1 [H+].[H][C-]=C([H])[H] | RMSD: 0.2936 | 556.00 to state    1 from traj    1 on state    2
C     -1.629821     0.152328    -0.044461
H     -1.277413    -0.834225     0.060195
H     -2.691696     0.285257     0.238294
C     -0.844087     1.391358     0.022026
H     -2.449957     3.552412     0.004473
H      0.165650     1.357317    -0.038911
6
Family_1 [H+].[H][C-]=C([H])[H] | RMSD: 0.4111 | 1664.00 to state    1 from traj    1 on state    2
C     -1.620289     0.287404     0.004604
H     -1.478839    -0.847467    -0.155812
H     -2.666672     0.383729     0.055947
C     -0.827559     1.387899     0.014358
H     -2.750432     2.462455    -0.041879
H      0.331997     0.793735    -0.087489
6
Family_1 [H+].[H][C-]=C([H])[H] | RMSD: 1.0684 | 9044.00 to state    1 from traj    1 on state    2
C     -1.345585     0.082958    -0.069349
H     -1.690828    -0.432409     0.799241
H     -3.119216     0.586946    -0.339533
C     -1.035437     1.635816     0.101102
H     -1.523715     2.596829     0.018352
H     -1.026469    -0.476903    -0.859695
6
Family_1 [H+].[H][C-]=C([H])[H] | RMSD: 0.5952 | 560.00 to state    1 from traj    1 on state    2
C     -1.693376     0.192269     0.000615
H     -1.152730    -0.718580     0.435437
H     -2.526749    -0.077145    -0.532137
C     -0.796262     1.395570     0.069720
H     -2.102141     3.035410     0.111548
H     -0.284367     1.594957    -0.856222
6
Family_1 [H+].[H][C-]=C([H])[H] | RMSD: 0.9460 | 1996.00 to state    1 from traj    1 on state    2
C     -1.503251     0.049745    -0.004119
H     -1.760258    -0.607201     0.747145
H     -2.509943     1.245770    -0.735067
C     -0.953991     1.476773     0.072914
H     -1.666061     2.456286     0.148571
H     -0.515746     1.470465    -0.983671
6
Family_1 [H+].[H][C-]=C([H])[H] | RMSD: 0.3683 | 632.00 to state    1 from traj    1 on state    2
C     -1.633027     0.159259    -0.021236
H     -1.289745    -0.864148    -0.369613
H     -2.730302     0.081394     0.354888
C     -0.854801     1.408143     0.054140
H     -2.287103     3.512647    -0.274989
H      0.219602     1.348273    -0.105635
6
Family_1 [H+].[H][C-]=C([H])[H] | RMSD: 1.0815 | 3216.00 to state    1 from traj    1 on state    2
C     -1.483314     0.180535     0.202292
H     -1.370072    -0.164878    -1.631544
H     -2.482073     0.026224    -0.272883
C     -1.020760     1.566235    -0.038875
H     -1.493696     2.479862    -0.388924
H     -0.548130    -0.400326     0.342839
6
Family_1 [H+].[H][C-]=C([H])[H] | RMSD: 1.0578 | 7728.00 to state    1 from traj    1 on state    2
C     -1.504329     0.171380     0.014996
H     -0.902071    -0.641612    -0.623182
H     -2.537111    -0.004646     0.524524
C     -1.064016     1.620748    -0.114576
H     -1.227140     2.666874     0.114903
H     -0.461820    -0.620220     1.167037
6
Family_1 [H+].[H][C-]=C([H])[H] | RMSD: 0.2988 | 652.00 to state    1 from traj    1 on state    2
C     -1.622303     0.169417    -0.021108
H     -1.219410    -0.798649    -0.247056
H     -2.653170     0.085886     0.264274
C     -0.874672     1.400129     0.043538
H     -2.257494     3.554272    -0.178004
H      0.151517     1.211106    -0.109759
6
Family_1 [H+].[H][C-]=C([H])[H] | RMSD: 0.4321 | 3552.00 to state    1 from traj    1 on state    2
C     -1.667227     0.176753    -0.033666
H     -1.375289    -0.813110    -0.414734
H     -2.681850     0.231240     0.516531
C     -0.797920     1.397297     0.060768
H     -2.557383     3.163790    -0.352014
H      0.256707     1.417035    -0.076001
6
Family_1 [H+].[H][C-]=C([H])[H] | RMSD: 0.7644 | 4724.00 to state    1 from traj    1 on state    2
C     -1.659972     0.229788     0.033148
H     -1.561115    -0.783712    -0.198351
H     -2.599612     0.590665     0.109995
C     -0.744025     1.377584    -0.138719
H     -2.518696     2.130070     0.408295
H     -0.407037     1.664869     0.934731
6
Family_1 [H+].[H][C-]=C([H])[H] | RMSD: 0.9442 | 8700.00 to state    1 from traj    1 on state    2
C     -1.621240     0.225490     0.024602
H     -1.610593    -0.719449     0.663116
H     -2.625124     0.302076    -0.896650
C     -0.771675     1.368234     0.055447
H     -2.106047     2.295782     0.259884
H     -0.876740     1.886116    -0.983467
6
Family_1 [H+].[H][C-]=C([H])[H] | RMSD: 0.3698 | 1152.00 to state    1 from traj    1 on state    2
C     -1.687178     0.249680    -0.040016
H     -1.011192    -0.605247     0.126700
H     -2.715235     0.238298     0.220998
C     -0.786004     1.415033     0.000114
H     -2.581545     2.522872     0.081831
H      0.045896     0.762726     0.042646
6
Family_1 [H+].[H][C-]=C([H])[H] | RMSD: 0.8505 | 2912.00 to state    1 from traj    1 on state    2
C     -1.514539     0.118153     0.005117
H     -2.466830    -1.221395    -0.451435
H     -2.601538     0.033269     0.226711
C     -0.948635     1.552568     0.018676
H     -1.441739     2.467229    -0.225433
H      0.128778     1.567949     0.163366
6
Family_1 [H+].[H][C-]=C([H])[H] | RMSD: 0.6954 | 3232.00 to state    1 from traj    1 on state    2
C     -1.556592     0.097057     0.024083
H     -1.054911    -0.746792    -0.416290
H     -2.593288    -0.167692    -0.014382
C     -1.080181     1.482953     0.043255
H     -0.910569     3.643539    -0.209751
H      0.245995     1.198869    -0.165234
6
Family_1 [H+].[H][C-]=C([H])[H] | RMSD: 0.7605 | 4480.00 to state    1 from traj    1 on state    2
C     -1.549589     0.272177    -0.020903
H     -1.052995    -0.491739     0.606547
H     -2.553895     0.118201    -0.380380
C     -1.012502     1.483862    -0.007715
H     -1.553332     2.171654     0.358338
H     -0.042440     0.032304    -0.246784
6
Family_1 [H+].[H][C-]=C([H])[H] | RMSD: 0.2500 | 364.00 to state    1 from traj    1 on state    2
C     -1.617374     0.162532    -0.010454
H     -1.281553    -1.015960     0.253978
H     -2.634890     0.212449    -0.161287
C     -0.879824     1.428112    -0.020218
H     -2.236429     3.409804     0.282750
H      0.176962     1.194926    -0.013250
6
Family_1 [H+].[H][C-]=C([H])[H] | RMSD: 0.3174 | 572.00 to state    1 from traj    1 on state    2
C     -1.587274     0.167942    -0.017910
H     -1.443547    -0.764042     0.220211
H     -2.736902     0.222735    -0.064336
C     -0.875153     1.372278    -0.026599
H     -2.434173     3.631410     0.274950
H      0.224398     1.311959     0.096247
6
Family_1 [H+].[H][C-]=C([H])[H] | RMSD: 0.4363 | 2148.00 to state    1 from traj    1 on state    2
C     -1.661779     0.216117     0.014310
H     -1.586588    -0.887504     0.017788
H     -2.726750     0.485749    -0.118285
C     -0.747504     1.365482    -0.020992
H     -3.015316     2.887415     0.175698
H      0.305181     1.423334     0.001127
6
Family_1 [H+].[H][C-]=C([H])[H] | RMSD: 0.7314 | 1708.00 to state    1 from traj    1 on state    2
C     -1.717825     0.283967     0.018605
H     -1.476811    -0.754177    -0.381753
H     -2.682004     0.445291     0.304165
C     -0.707135     1.333524    -0.076118
H     -2.787317     2.038402     0.114914
H      0.109464     1.751806     0.644694
6
Family_1 [H+].[H][C-]=C([H])[H] | RMSD: 1.0077 | 2428.00 to state    1 from traj    1 on state    2
C     -1.528374     0.249482     0.179857
H     -1.928400    -0.348147    -0.866215
H     -3.120886    -1.034234    -0.929056
C     -0.955246     1.464256     0.023700
H     -1.201629     2.588175    -0.171117
H      0.113216     1.128675    -0.462411
6
Family_1 [H+].[H][C-]=C([H])[H] | RMSD: 0.3001 | 424.00 to state    1 from traj    1 on state    2
C     -1.635195     0.137629    -0.020801
H     -1.177986    -0.808758    -0.132901
H     -2.587308     0.083793     0.183894
C     -0.893336     1.427208     0.030024
H     -2.101808     3.600629    -0.079851
H      0.264551     1.233069    -0.084331
6
Family_1 [H+].[H][C-]=C([H])[H] | RMSD: 0.3355 | 628.00 to state    1 from traj    1 on state    2
C     -1.624686     0.157591    -0.028285
H     -0.999172    -0.772901    -0.166374
H     -2.820599     0.059310     0.265824
C     -0.897357     1.397554     0.030646
H     -2.136404     3.729421    -0.102667
H      0.276315     1.208393    -0.028196
6
Family_1 [H+].[H][C-]=C([H])[H] | RMSD: 0.6379 | 2520.00 to state    1 from traj    1 on state    2
C     -1.627391     0.171765    -0.002579
H     -0.955536    -0.793769    -0.026646
H     -2.805428     0.170051     0.171685
C     -0.841689     1.387055    -0.120051
H     -1.871747     3.189278     0.436366
H     -0.678232     1.614868     0.876538
6
Family_1 [H+].[H][C-]=C([H])[H] | RMSD: 0.4132 | 1720.00 to state    1 from traj    1 on state    2
C     -1.687470     0.282653    -0.020368
H     -1.340142    -0.748056    -0.214547
H     -2.593633    -0.110236     0.288047
C     -0.787548     1.411887     0.027512
H     -2.580896     2.544132    -0.127868
H      0.274484     0.877387    -0.034049
6
Family_1 [H+].[H][C-]=C([H])[H] | RMSD: 0.3031 | 26672.00 to state    1 from traj    1 on state    2
C     -1.674821     0.129154     0.022896
H     -1.212497    -0.863721    -0.254771
H     -2.593607    -0.128020    -0.047580
C     -0.861924     1.471353     0.010228
H     -2.058935     3.456054    -0.017203
H      0.360370     1.219383    -0.078432
6
Family_1 [H+].[H][C-]=C([H])[H] | RMSD: 0.8644 | 29580.00 to state    1 from traj    1 on state    2
C     -1.502542     0.122958    -0.001516
H     -2.454936    -1.606731     0.067213
H     -2.456171     0.336004    -0.184625
C     -0.954255     1.552229     0.033051
H     -1.524433     2.444960    -0.010191
H     -0.021766     1.619597    -0.251441
6
Family_1 [H+].[H][C-]=C([H])[H] | RMSD: 1.1208 | 3276.00 to state    1 from traj    1 on state    2
C     -1.461267     0.273151    -0.016243
H     -1.429391    -0.757729    -0.518875
H     -2.226749     0.154107     0.763419
C     -1.013311     1.498993    -0.154144
H     -1.606437     2.360832     0.242397
H     -0.982862    -0.118677     1.540052
6
Family_1 [H+].[H][C-]=C([H])[H] | RMSD: 0.2228 | 320.00 to state    1 from traj    1 on state    2
C     -1.677251     0.119329     0.009001
H     -1.342021    -0.912397    -0.113618
H     -2.799085     0.270963    -0.005187
C     -0.796145     1.474332    -0.003291
H     -2.395482     3.083066     0.047172
H      0.277062     1.323642     0.000311
6
Family_1 [H+].[H][C-]=C([H])[H] | RMSD: 0.2080 | 568.00 to state    1 from traj    1 on state    2
C     -1.656513     0.192692     0.007718
H     -1.299247    -0.839858    -0.070400
H     -2.789706     0.162639    -0.035343
C     -0.803912     1.395069    -0.007467
H     -2.603833     3.254029     0.100184
H      0.278707     1.258764    -0.000708
6
Family_1 [H+].[H][C-]=C([H])[H] | RMSD: 0.2589 | 2644.00 to state    1 from traj    1 on state    2
C     -1.674535     0.212024     0.003180
H     -1.094169    -0.613174     0.018222
H     -2.707472     0.098357    -0.048272
C     -0.807039     1.449904    -0.009979
H     -2.407551     2.716784     0.124469
H      0.047118     0.749851    -0.016685
6
Family_1 [H+].[H][C-]=C([H])[H] | RMSD: 1.0055 | 10360.00 to state    1 from traj    1 on state    2
C     -1.394105     0.215520     0.104981
H     -1.108946    -0.519649    -1.012360
H     -3.082125     0.205151     0.015474
C     -1.069473     1.543390    -0.068362
H     -1.326167     2.565565    -0.115193
H     -0.859273    -0.454849     0.672458
6
Family_1 [H+].[H][C-]=C([H])[H] | RMSD: 0.2282 | 532.00 to state    1 from traj    1 on state    2
C     -1.680414     0.210896     0.004458
H     -1.271365    -0.852621    -0.029075
H     -2.721952     0.219583    -0.033377
C     -0.778934     1.403382    -0.003238
H     -2.676452     2.961697     0.094727
H      0.242862     1.190945    -0.050099
6
Family_1 [H+].[H][C-]=C([H])[H] | RMSD: 0.3745 | 1952.00 to state    1 from traj    1 on state    2
C     -1.657866     0.257416     0.010731
H     -1.160570    -0.631538    -0.383776
H     -2.820062     0.424485     0.166137
C     -0.786789     1.342873     0.043211
H     -2.888183     2.856506    -0.230751
H      0.266815     1.036841    -0.197641
6
Family_1 [H+].[H][C-]=C([H])[H] | RMSD: 1.0857 | 4864.00 to state    1 from traj    1 on state    2
C     -1.433654     0.148864     0.098611
H     -1.448935    -0.894009    -1.241139
H     -2.571212    -0.044470     0.265456
C     -1.043379     1.648167    -0.071386
H     -1.307110     2.776452    -0.209526
H     -0.888929    -0.495988     0.857529
6
Family_1 [H+].[H][C-]=C([H])[H] | RMSD: 0.9676 | 5904.00 to state    1 from traj    1 on state    2
C     -1.403156     0.225580    -0.031132
H     -1.254559    -0.733754     0.653218
H     -2.972827     0.060348    -0.524340
C     -1.070937     1.550291     0.077652
H     -1.223098     2.528170     0.115254
H     -0.800729    -0.260650    -0.801729
6
Family_1 [H+].[H][C-]=C([H])[H] | RMSD: 0.9523 | 14552.00 to state    1 from traj    1 on state    2
C     -1.446611     0.277013    -0.079285
H     -1.416661    -0.301326     0.863721
H     -2.573353    -0.292711    -0.372595
C     -1.118431     1.437322     0.122506
H     -1.044886     2.624797     0.030866
H     -0.132596     0.296604    -1.040280
6
Family_1 [H+].[H][C-]=C([H])[H] | RMSD: 0.6984 | 3428.00 to state    1 from traj    1 on state    2
C     -1.541347     0.175332     0.002840
H     -1.253867    -0.675534     0.453175
H     -2.534848     0.288054    -0.567209
C     -1.015349     1.542625     0.068059
H     -1.622745     2.559768     0.085431
H      0.144512     0.111910    -0.819490
6
Family_1 [H+].[H][C-]=C([H])[H] | RMSD: 0.7350 | 3596.00 to state    1 from traj    1 on state    2
C     -1.526368     0.269186    -0.019293
H     -1.141953    -0.740536     0.500134
H     -2.600207     0.004592    -0.399716
C     -1.023260     1.513245     0.042502
H     -1.642099     2.427184     0.174722
H      0.033084    -0.175280    -0.554973
6
Family_1 [H+].[H][C-]=C([H])[H] | RMSD: 1.0375 | 4148.00 to state    1 from traj    1 on state    2
C     -1.442343     0.080728     0.067355
H     -1.798025    -0.874295    -1.097697
H     -2.527561     0.185761     0.445781
C     -1.022453     1.649079    -0.091910
H     -1.193692     2.648198    -0.144724
H     -0.842724     0.183336     1.085945
6
Family_1 [H+].[H][C-]=C([H])[H] | RMSD: 1.0164 | 2700.00 to state    1 from traj    1 on state    2
C     -1.414745     0.218110    -0.033256
H     -1.645017    -0.748942    -0.521033
H     -2.480610    -0.064250     0.784972
C     -1.115845     1.520946    -0.102767
H     -1.041185     2.639589     0.063324
H     -0.411205     0.206403     1.290256
6
Family_1 [H+].[H][C-]=C([H])[H] | RMSD: 0.9814 | 2856.00 to state    2 from traj    3 on state    1
C     -1.381562     0.193361    -0.002147
H     -1.371550    -0.756565     0.487787
H     -2.798001     0.681256    -0.623489
C     -1.050497     1.533874     0.100600
H     -1.572426     2.474576    -0.023578
H     -1.010101    -0.225628    -1.017135
6
Family_1 [H+].[H][C-]=C([H])[H] | RMSD: 0.9706 | 1084.00 to state    1 from traj    1 on state    2
C     -1.561894     0.199556     0.164198
H     -1.868240     0.257363    -1.390334
H     -2.452677     0.259393    -0.186800
C     -0.960404     1.355479    -0.003478
H     -1.662961     2.250163    -0.456150
H      0.307056     1.458608     0.114910
6
Family_1 [H+].[H][C-]=C([H])[H] | RMSD: 0.9464 | 2176.00 to state    1 from traj    1 on state    2
C     -1.361266     0.174958     0.033804
H     -1.800546    -0.763429    -0.578659
H     -2.887639     0.356932     0.278443
C     -1.061004     1.566649    -0.098489
H     -1.378990     2.449089     0.085468
H     -0.801545    -0.040192     0.982227
6
Family_1 [H+].[H][C-]=C([H])[H] | RMSD: 0.3652 | 368.00 to state    1 from traj    1 on state    2
C     -1.635166     0.123292     0.007818
H     -0.987273    -1.070601    -0.200217
H     -2.635488     0.104533     0.024045
C     -0.913027     1.443904     0.007398
H     -1.902741     3.732318     0.004399
H      0.157236     1.314379    -0.012818
6
Family_1 [H+].[H][C-]=C([H])[H] | RMSD: 0.5006 | 580.00 to state    1 from traj    1 on state    2
C     -1.604245     0.082611    -0.019955
H     -1.321881    -0.797230    -0.040411
H     -2.785608     0.107089     0.085933
C     -0.897262     1.405391     0.022292
H     -2.033606     4.037712    -0.002560
H      0.216534     1.676703    -0.074082
6
Family_1 [H+].[H][C-]=C([H])[H] | RMSD: 0.5911 | 2256.00 to state    1 from traj    1 on state    2
C     -1.666818     0.213699    -0.009270
H     -1.620980    -0.989666     0.220488
H     -2.683597     0.820401    -0.053848
C     -0.733802     1.381346    -0.032248
H     -3.063909     2.472852     0.254492
H      0.241791     1.445199     0.070307
6
Family_1 [H+].[H][C-]=C([H])[H] | RMSD: 0.2452 | 396.00 to state    1 from traj    1 on state    2
C     -1.672198     0.161593     0.032300
H     -1.318171    -0.778469    -0.084237
H     -2.672212     0.346569    -0.199467
C     -0.810115     1.409939    -0.015455
H     -2.580306     3.153446     0.136728
H      0.417411     1.307407    -0.057030
6
Family_1 [H+].[H][C-]=C([H])[H] | RMSD: 0.2637 | 656.00 to state    1 from traj    1 on state    2
C     -1.605906     0.187557     0.008266
H     -1.469422    -0.990003     0.013072
H     -2.645064     0.467362    -0.097095
C     -0.841327     1.387052    -0.016268
H     -2.629543     3.262591     0.162332
H      0.172763     1.252343     0.013750
6
Family_1 [H+].[H][C-]=C([H])[H] | RMSD: 0.1808 | 1448.00 to state    1 from traj    1 on state    2
C     -1.639888     0.207496    -0.011429
H     -1.198980    -0.826120     0.143220
H     -2.738050     0.138011    -0.044308
C     -0.829056     1.386900    -0.021124
H     -2.523741     3.318358     0.229243
H      0.148196     1.126261     0.056455
6
Family_1 [H+].[H][C-]=C([H])[H] | RMSD: 0.4342 | 3936.00 to state    1 from traj    1 on state    2
C     -1.648875     0.153657    -0.027813
H     -0.984393    -0.639302    -0.374157
H     -2.669166    -0.202666     0.398198
C     -0.905539     1.454790     0.061630
H     -1.884256     3.478156    -0.307826
H      0.243674     0.952899    -0.122441
6
Family_1 [H+].[H][C-]=C([H])[H] | RMSD: 1.0515 | 2964.00 to state    1 from traj    1 on state    2
C     -1.515241     0.010340     0.207456
H     -2.062797    -0.776834    -0.229882
H     -1.899703     1.520730    -1.438556
C     -1.013053     1.511478    -0.059942
H     -1.693503     2.454752     0.344286
H      0.050630     1.422678    -0.436858
6
Family_1 [H+].[H][C-]=C([H])[H] | RMSD: 0.9594 | 2472.00 to state    1 from traj    1 on state    2
C     -1.331078     0.219310     0.038954
H     -1.907017    -0.588045     0.559850
H     -2.773718     0.326785    -0.918680
C     -1.099252     1.533325     0.008659
H     -1.576458     2.517990     0.359944
H     -0.515501    -0.385744    -0.571730
6
Family_1 [H+].[H][C-]=C([H])[H] | RMSD: 1.0403 | 7656.00 to state    1 from traj    1 on state    2
C     -1.376999     0.244477     0.078055
H     -1.639576    -0.915224     0.373674
H     -2.305671     0.295258    -1.124217
C     -1.106810     1.535853     0.038722
H     -1.423331     2.519572     0.248186
H     -0.766863    -0.358619    -0.892397
6
Family_1 [H+].[H][C-]=C([H])[H] | RMSD: 0.5747 | 12068.00 to state    1 from traj    1 on state    2
C     -1.575864     0.157193    -0.058813
H     -1.022558    -0.700602    -0.297894
H     -2.372171    -0.075288     0.566225
C     -1.011261     1.466862     0.072047
H     -1.466223     3.443681    -0.351704
H     -0.043407     0.735321    -0.077595
6
Family_1 [H+].[H][C-]=C([H])[H] | RMSD: 0.8450 | 4528.00 to state    1 from traj    1 on state    2
C     -1.743514     0.302114     0.199123
H     -1.120190    -0.976958    -1.178683
H     -2.295051    -0.318948    -0.545541
C     -0.836781     1.400179    -0.091195
H     -1.707197     2.144458     0.046381
H      0.136682     1.622304     0.388525
6
Family_1 [H+].[H][C-]=C([H])[H] | RMSD: 0.8886 | 1160.00 to state    1 from traj    1 on state    2
C     -1.624882     0.340370    -0.006926
H     -1.596467    -0.380012     0.928059
H     -2.504843     0.140555    -0.798902
C     -0.841234     1.312210     0.022228
H     -2.214754     1.914722     0.450039
H     -0.030212     1.387946    -0.764809
6
Family_1 [H+].[H][C-]=C([H])[H] | RMSD: 1.0618 | 3568.00 to state    1 from traj    1 on state    2
C     -1.448372     0.133800    -0.062289
H     -1.510734    -0.596909     1.051586
H     -2.389580    -0.071295    -0.597913
C     -1.110132     1.636247     0.078991
H     -1.130235     2.792399     0.275630
H     -0.214848    -0.460675    -0.931598
6
Family_1 [H+].[H][C-]=C([H])[H] | RMSD: 0.2416 | 384.00 to state    1 from traj    1 on state    2
C     -1.667162     0.202192     0.012616
H     -1.146034    -0.809397     0.050096
H     -3.034103     0.249540    -0.162971
C     -0.784375     1.429102    -0.010506
H     -2.541843     2.796506     0.155749
H      0.201987     1.080202    -0.071305
6
Family_1 [H+].[H][C-]=C([H])[H] | RMSD: 0.2972 | 544.00 to state    1 from traj    1 on state    2
C     -1.704033     0.205410    -0.014431
H     -1.300738    -0.867819     0.156033
H     -2.638777     0.202862    -0.015091
C     -0.766821     1.412294    -0.012202
H     -2.680474     2.885484     0.188557
H      0.330175     1.258257    -0.015431
6
Family_1 [H+].[H][C-]=C([H])[H] | RMSD: 0.2589 | 1752.00 to state    1 from traj    1 on state    2
C     -1.590026     0.230521    -0.046950
H     -1.328347    -0.926162     0.268506
H     -2.613938    -0.007307     0.100004
C     -0.896534     1.396376    -0.006704
H     -2.336439     3.403490     0.211432
H      0.176065     0.899220     0.056103
6
Family_1 [H+].[H][C-]=C([H])[H] | RMSD: 0.2564 | 1212.00 to state    1 from traj    1 on state    2
C     -1.644418     0.139986    -0.037893
H     -1.302148    -0.848807     0.044289
H     -2.570064     0.313233     0.223080
C     -0.848962     1.423768     0.011372
H     -2.366324     3.372372     0.029026
H      0.217137     1.284838     0.016339
6
Family_1 [H+].[H][C-]=C([H])[H] | RMSD: 0.3165 | 632.00 to state    1 from traj    1 on state    2
C     -1.663732     0.240596     0.018392
H     -1.201454    -0.711214     0.223122
H     -2.634305     0.114400    -0.298710
C     -0.795029     1.339620    -0.056477
H     -2.775439     3.330518     0.426001
H      0.177288     1.191769     0.100114
6
Family_1 [H+].[H][C-]=C([H])[H] | RMSD: 0.2132 | 3252.00 to state    1 from traj    1 on state    2
C     -1.630872     0.204425     0.021602
H     -1.425359    -0.934953    -0.211392
H     -2.700069     0.259414    -0.035851
C     -0.823116     1.408043    -0.002124
H     -2.578280     3.074168     0.023715
H      0.212935     1.142540    -0.011845
6
Family_1 [H+].[H][C-]=C([H])[H] | RMSD: 0.2664 | 3384.00 to state    1 from traj    1 on state    2
C     -1.599950     0.201374     0.020232
H     -1.507005    -1.004628    -0.210025
H     -2.827151     0.270277    -0.054965
C     -0.830456     1.386440     0.006506
H     -2.627339     3.306873     0.004930
H      0.189713     1.262421    -0.061827
6
Family_1 [H+].[H][C-]=C([H])[H] | RMSD: 0.4047 | 2160.00 to state    1 from traj    1 on state    2
C     -1.654215     0.218971     0.020488
H     -1.427734    -0.743907     0.219699
H     -2.832285     0.471232    -0.292889
C     -0.787353     1.378272    -0.055381
H     -2.763150     2.719960     0.380445
H      0.384400     1.275297     0.105235
6
Family_1 [H+].[H][C-]=C([H])[H] | RMSD: 0.4714 | 3560.00 to state    1 from traj    1 on state    2
C     -1.597322     0.123475     0.000462
H     -1.154579    -0.958748     0.279846
H     -2.585794     0.071289    -0.265660
C     -0.953000     1.420491    -0.043569
H     -1.771832     3.829142     0.394361
H      0.169311     1.415746     0.101822
6
Family_1 [H+].[H][C-]=C([H])[H] | RMSD: 0.7855 | 7148.00 to state    1 from traj    1 on state    2
C     -1.557538     0.263303    -0.013339
H     -1.375573    -0.749422    -0.682560
H     -2.297141     0.137422     0.670581
C     -0.992206     1.493559    -0.003555
H     -1.703799     2.209581    -0.298223
H      0.026733     0.223042     0.508227
6
Family_1 [H+].[H][C-]=C([H])[H] | RMSD: 0.2629 | 384.00 to state    1 from traj    1 on state    2
C     -1.657005     0.193820    -0.021969
H     -1.337178    -0.889869     0.079893
H     -2.734203     0.321256     0.089558
C     -0.799408     1.445047     0.001170
H     -2.522171     2.743339     0.083530
H      0.131668     1.051891    -0.008424
6
Family_1 [H+].[H][C-]=C([H])[H] | RMSD: 0.3209 | 1948.00 to state    1 from traj    1 on state    2
C     -1.674358     0.261473    -0.011691
H     -0.996122    -0.614563     0.004636
H     -2.816224     0.245954     0.066806
C     -0.775283     1.318196     0.003245
H     -3.024959     3.298342     0.085841
H      0.294723     1.002260    -0.059918
6
Family_1 [H+].[H][C-]=C([H])[H] | RMSD: 0.5777 | 2024.00 to state    1 from traj    1 on state    2
C     -1.662298     0.277017     0.005499
H     -1.487109    -0.839907     0.274986
H     -2.614651     0.702611    -0.180791
C     -0.735787     1.305453    -0.063581
H     -3.335950     2.751528     0.422018
H      0.280807     1.284393     0.172594
6
Family_1 [H+].[H][C-]=C([H])[H] | RMSD: 0.3348 | 3540.00 to state    1 from traj    1 on state    2
C     -1.594610     0.259641     0.005689
H     -1.499247    -0.786584     0.059224
H     -2.663685     0.515448    -0.088234
C     -0.839786     1.335663    -0.024957
H     -2.909922     3.014893     0.202280
H      0.348610     1.001944     0.053039
6
Family_1 [H+].[H][C-]=C([H])[H] | RMSD: 0.2257 | 644.00 to state    1 from traj    1 on state    2
C     -1.646136     0.125002     0.001874
H     -1.332392    -0.978948     0.159053
H     -2.757245     0.276744    -0.167006
C     -0.856800     1.487306    -0.020204
H     -2.237931     3.125444     0.231253
H      0.420030     1.119839    -0.008161
6
Family_1 [H+].[H][C-]=C([H])[H] | RMSD: 0.5299 | 1704.00 to state    1 from traj    1 on state    2
C     -1.653832     0.103469    -0.034077
H     -0.960910    -0.915227    -0.202483
H     -2.557414    -0.199903     0.321931
C     -0.915401     1.464662     0.037542
H     -1.630875     3.805349    -0.142093
H      0.031631     1.379258    -0.021927
6
Family_1 [H+].[H][C-]=C([H])[H] | RMSD: 0.9094 | 5300.00 to state    1 from traj    1 on state    2
C     -1.640889     0.255755     0.036087
H     -1.585968    -0.788693     0.573541
H     -2.407822     0.300048    -0.901808
C     -0.780376     1.372814     0.053950
H     -2.169322     2.140526     0.237688
H     -0.717590     1.697431    -0.985555
6
Family_1 [H+].[H][C-]=C([H])[H] | RMSD: 0.2747 | 720.00 to state    1 from traj    1 on state    2
C     -1.619987     0.128749     0.025384
H     -1.356884    -0.995346    -0.159272
H     -2.728304     0.206265    -0.133578
C     -0.868275     1.433703    -0.003485
H     -2.227752     3.542218     0.069762
H      0.230568     1.384012    -0.041138
6
Family_1 [H+].[H][C-]=C([H])[H] | RMSD: 0.8504 | 4608.00 to state    1 from traj    1 on state    2
C     -1.433792     0.217663    -0.032307
H     -1.522838    -0.562537     0.544305
H     -2.541390     0.151311    -0.454373
C     -1.090770     1.514260     0.114301
H     -1.410864     2.613994    -0.055255
H     -0.174758    -0.084988    -1.014968
6
Family_1 [H+].[H][C-]=C([H])[H] | RMSD: 0.9555 | 4280.00 to state    1 from traj    1 on state    2
C     -1.531825     0.155896     0.011140
H     -1.231506    -0.633428     0.605335
H     -2.339008    -0.264399    -0.710643
C     -1.054214     1.642656     0.011764
H     -1.147817     2.619892     0.363263
H     -0.198977    -0.398206    -0.534143
6
Family_1 [H+].[H][C-]=C([H])[H] | RMSD: 1.0792 | 2620.00 to state    1 from traj    1 on state    2
C     -1.483823     0.184313     0.037462
H     -1.245509    -0.512171    -0.686907
H     -2.324082    -0.362551     0.337945
C     -1.085788     1.621876    -0.092591
H     -1.034150     2.666939     0.055692
H     -0.509310    -0.559362     0.946886
6
Family_1 [H+].[H][C-]=C([H])[H] | RMSD: 0.8659 | 5584.00 to state    1 from traj    1 on state    2
C     -1.645102     0.221462    -0.040519
H     -1.259234    -0.733101    -0.383443
H     -2.250250    -0.333197     0.776844
C     -0.933007     1.546478    -0.098169
H     -1.586531     2.386808     0.124976
H      0.084221     0.368110     1.130899
6
Family_1 [H+].[H][C-]=C([H])[H] | RMSD: 0.8240 | 5692.00 to state    1 from traj    1 on state    2
C     -1.596659     0.218185     0.001488
H     -1.343091    -0.731487    -0.587344
H     -2.427959    -0.121938     0.635950
C     -0.953488     1.521480    -0.124472
H     -1.685436     2.491539     0.153329
H      0.111494     0.387427     1.260227
6
Family_1 [H+].[H][C-]=C([H])[H] | RMSD: 0.8980 | 8744.00 to state    1 from traj    1 on state    2
C     -1.522259     0.225751    -0.014036
H     -0.990501    -0.655987    -0.290867
H     -2.466097     0.236478     0.526931
C     -1.025028     1.531669    -0.131639
H     -1.638207     2.544513     0.293443
H     -0.284253    -0.311027     1.203026
6
Family_1 [H+].[H][C-]=C([H])[H] | RMSD: 0.9973 | 6200.00 to state    1 from traj    1 on state    2
C     -1.495630     0.165649    -0.051919
H     -1.042049    -0.649895     0.594601
H     -2.454792     0.199683    -0.327431
C     -1.074474     1.621138     0.125976
H     -1.375144     2.593680    -0.093425
H     -0.235192    -0.679424    -1.059477
6
Family_1 [H+].[H][C-]=C([H])[H] | RMSD: 1.0513 | 7348.00 to state    1 from traj    1 on state    2
C     -1.492582     0.229484     0.031050
H     -1.284731    -0.618414    -0.740925
H     -2.355987     0.042604     0.580286
C     -1.046009     1.521807    -0.170886
H     -1.369995     2.497745     0.245159
H     -0.471972    -0.034926     1.578432
6
Family_1 [H+].[H][C-]=C([H])[H] | RMSD: 1.1617 | 6236.00 to state    1 from traj    1 on state    2
C     -1.345304     0.274506    -0.051176
H     -2.295306    -0.192586    -0.465772
H     -2.881398    -0.246660     0.606160
C     -1.025005     1.554442     0.087977
H     -1.702576     2.014620    -0.542632
H     -0.608592    -0.613702    -0.039539
6
Family_1 [H+].[H][C-]=C([H])[H] | RMSD: 1.0013 | 3168.00 to state    1 from traj    1 on state    2
C     -1.475275     0.218959    -0.053213
H     -1.020814    -0.977267     0.520212
H     -2.425730    -0.103046    -0.288769
C     -1.113330     1.594763     0.125480
H     -1.046143     2.674292    -0.104638
H     -0.394040    -0.450880    -0.991200
6
Family_1 [H+].[H][C-]=C([H])[H] | RMSD: 1.0432 | 4168.00 to state    1 from traj    1 on state    2
C     -1.334195     0.211015    -0.039435
H     -1.950648    -0.803292    -0.476148
H     -2.849241    -0.224636     0.551492
C     -1.117462     1.620342     0.042179
H     -1.203494     2.560247    -0.363203
H     -0.515175    -0.599362     0.251879
6
Family_1 [H+].[H][C-]=C([H])[H] | RMSD: 0.3016 | 664.00 to state    1 from traj    1 on state    2
C     -1.644360     0.271805    -0.007793
H     -1.344350    -0.934787     0.014562
H     -2.819230     0.254855     0.011485
C     -0.783676     1.348526     0.003909
H     -2.911354     2.991759     0.088053
H      0.274914     1.135653    -0.071102
6
Family_1 [H+].[H][C-]=C([H])[H] | RMSD: 0.3819 | 3032.00 to state    1 from traj    1 on state    2
C     -1.631509     0.224716    -0.003863
H     -1.184427    -0.572218     0.474526
H     -2.797990     0.370357    -0.288318
C     -0.851310     1.382517    -0.075082
H     -2.505859     2.856670     0.540898
H      0.341037     0.948742     0.210291
6
Family_1 [H+].[H][C-]=C([H])[H] | RMSD: 0.4780 | 3136.00 to state    1 from traj    1 on state    2
C     -1.652460     0.251038    -0.013411
H     -1.243137    -0.656803     0.609741
H     -2.591137     0.243718    -0.280742
C     -0.840032     1.374129    -0.104082
H     -2.520711     2.792492     0.694605
H      0.323005     1.010459     0.373126
6
Family_1 [H+].[H][C-]=C([H])[H] | RMSD: 0.6804 | 4344.00 to state    1 from traj    1 on state    2
C     -1.652347     0.271407     0.061886
H     -1.626942    -0.529154    -0.860547
H     -2.562316    -0.093094     0.318927
C     -0.776134     1.389656    -0.078191
H     -2.470763     2.416851    -0.040159
H     -0.134698     1.167524     0.772787
6
Family_1 [H+].[H][C-]=C([H])[H] | RMSD: 0.1130 | 384.00 to state    1 from traj    1 on state    2
C     -1.630154     0.174390     0.015494
H     -1.110559    -0.846108    -0.167296
H     -2.718078     0.145918    -0.039080
C     -0.872980     1.427765     0.000667
H     -2.248916     3.352993     0.037473
H      0.172381     1.011255    -0.026938
6
Family_1 [H+].[H][C-]=C([H])[H] | RMSD: 0.2034 | 544.00 to state    1 from traj    1 on state    2
C     -1.638730     0.155520     0.020747
H     -1.158613    -0.735258    -0.151991
H     -2.713423     0.247251    -0.089535
C     -0.847637     1.392860     0.000779
H     -2.410799     3.531884     0.051490
H      0.177878     1.260958    -0.069750
6
Family_1 [H+].[H][C-]=C([H])[H] | RMSD: 0.4416 | 2016.00 to state    1 from traj    1 on state    2
C     -1.648186     0.291184     0.017220
H     -1.539993    -0.928276    -0.239530
H     -2.758714     0.339781     0.016848
C     -0.767091     1.343376     0.015921
H     -3.043226     2.698834    -0.055761
H      0.389887     1.167601    -0.119736
6
Family_1 [H+].[H][C-]=C([H])[H] | RMSD: 0.1895 | 292.00 to state    1 from traj    1 on state    2
C     -1.680979     0.163584     0.032008
H     -1.192020    -0.802351    -0.313677
H     -2.736129     0.067233    -0.042196
C     -0.819350     1.461018     0.005324
H     -2.339653     3.070498    -0.038180
H      0.329194     1.061211    -0.054066
6
Family_1 [H+].[H][C-]=C([H])[H] | RMSD: 0.2135 | 476.00 to state    1 from traj    1 on state    2
C     -1.662403     0.195632     0.030525
H     -1.206036    -0.762365    -0.282884
H     -2.748476     0.065687    -0.081791
C     -0.805004     1.393414     0.017252
H     -2.537359     3.308192    -0.047123
H      0.160989     1.208745    -0.160776
6
Family_1 [H+].[H][C-]=C([H])[H] | RMSD: 0.4014 | 2148.00 to state    1 from traj    1 on state    2
C     -1.719939     0.199603     0.010497
H     -1.402214    -0.867120    -0.303178
H     -2.780206     0.178250     0.139688
C     -0.729908     1.420454     0.012473
H     -2.742234     2.729423    -0.094223
H      0.384531     1.410191    -0.019279
6
Family_1 [H+].[H][C-]=C([H])[H] | RMSD: 0.6386 | 4120.00 to state    1 from traj    1 on state    2
C     -1.578316     0.091150     0.007580
H     -1.043932    -0.878764    -0.338852
H     -2.586544    -0.222559     0.078926
C     -1.028510     1.502286     0.029957
H     -1.073828     3.690677    -0.143886
H      0.034682     1.178610    -0.046742
6
Family_1 [H+].[H][C-]=C([H])[H] | RMSD: 0.7359 | 4324.00 to state    1 from traj    1 on state    2
C     -1.570959     0.065123     0.031535
H     -1.067023    -0.724879    -0.419821
H     -2.687831    -0.208176    -0.067197
C     -1.033189     1.469179     0.035674
H     -0.970362     3.874157    -0.172154
H      0.023699     1.531474    -0.144942
6
Family_1 [H+].[H][C-]=C([H])[H] | RMSD: 0.3638 | 2620.00 to state    1 from traj    1 on state    2
C     -1.648397     0.214395    -0.012463
H     -1.499523    -0.844349     0.274825
H     -2.798882     0.135930    -0.135943
C     -0.812779     1.458330    -0.020682
H     -2.496741     2.609097     0.264530
H      0.390016     0.922496    -0.011750
6
Family_1 [H+].[H][C-]=C([H])[H] | RMSD: 0.9279 | 6280.00 to state    1 from traj    1 on state    2
C     -1.581826     0.279005     0.017268
H     -1.051725    -0.585775     0.347534
H     -2.233875    -0.043737    -0.709977
C     -0.978690     1.418971     0.139542
H     -1.362396     2.377410    -0.148338
H     -0.573422     0.774391    -1.360993
6
Family_1 [H+].[H][C-]=C([H])[H] | RMSD: 0.9917 | 7816.00 to state    1 from traj    4 on state    2
C     -1.426733     0.116256     0.082459
H     -1.147359    -0.426237    -0.812082
H     -3.014756     0.128573     0.043932
C     -1.070825     1.640572    -0.073747
H     -1.218897     2.755088    -0.032182
H     -0.590601    -0.636396     0.693236
6
Family_1 [H+].[H][C-]=C([H])[H] | RMSD: 0.2598 | 624.00 to state    1 from traj    1 on state    2
C     -1.655464     0.253619    -0.012130
H     -1.255765    -0.784268    -0.113757
H     -2.821579     0.179001     0.148937
C     -0.785898     1.366496     0.012545
H     -2.778297     2.976311    -0.015210
H      0.214420     1.079014    -0.028198
6
Family_1 [H+].[H][C-]=C([H])[H] | RMSD: 0.3998 | 2284.00 to state    1 from traj    1 on state    2
C     -1.691610     0.184902     0.008319
H     -1.550112    -1.044296    -0.035601
H     -2.816658     0.262006    -0.059382
C     -0.744108     1.453633    -0.001987
H     -2.666926     2.634571     0.077892
H      0.325217     1.378292    -0.061645
6
Family_1 [H+].[H][C-]=C([H])[H] | RMSD: 0.3959 | 2416.00 to state    1 from traj    1 on state    2
C     -1.702420     0.170430     0.002616
H     -1.557929    -1.051639     0.016648
H     -2.694555     0.199039    -0.053969
C     -0.752448     1.489582    -0.002229
H     -2.545183     2.556280     0.095161
H      0.317379     1.270978    -0.065737
6
Family_1 [H+].[H][C-]=C([H])[H] | RMSD: 0.3538 | 1160.00 to state    1 from traj    1 on state    2
C     -1.639798     0.195262    -0.033516
H     -1.270449    -0.785091    -0.255514
H     -2.608706     0.099185     0.369449
C     -0.841240     1.366755     0.053349
H     -2.508043     3.541430    -0.225266
H      0.218729     1.286801    -0.128268
6
Family_1 [H+].[H][C-]=C([H])[H] | RMSD: 0.7525 | 2380.00 to state    1 from traj    1 on state    2
C     -1.679295     0.216200     0.068020
H     -1.310869    -0.727206    -0.033913
H     -2.395402     0.238492    -0.719958
C     -0.777473     1.383102     0.105863
H     -2.212117     2.558398    -0.170721
H     -0.539274     1.628379    -1.150631
6
Family_1 [H+].[H][C-]=C([H])[H] | RMSD: 0.6309 | 3524.00 to state    1 from traj    1 on state    2
C     -1.576804     0.141588    -0.054123
H     -1.566574    -0.988492    -0.511536
H     -2.379080     0.428195     0.664249
C     -0.915663     1.383920     0.114916
H     -2.160381     3.556387    -0.590902
H      0.073751     1.581267    -0.289479
6
Family_1 [H+].[H][C-]=C([H])[H] | RMSD: 0.3988 | 3964.00 to state    1 from traj    1 on state    2
C     -1.642136     0.188696     0.020113
H     -1.010773    -0.710175    -0.606929
H     -2.718527    -0.171002     0.204822
C     -0.881096     1.434443     0.058140
H     -2.040495     3.358130    -0.347513
H      0.104103     0.937067    -0.186101
6
Family_1 [H+].[H][C-]=C([H])[H] | RMSD: 0.5597 | 10608.00 to state    1 from traj    1 on state    2
C     -1.608775     0.206785     0.000801
H     -1.391174    -0.609106    -0.775795
H     -2.657970     0.178256     0.446882
C     -0.851342     1.339782     0.111403
H     -2.466488     3.390736    -0.635420
H      0.097887     1.366548    -0.375943
6
Family_1 [H+].[H][C-]=C([H])[H] | RMSD: 0.8824 | 3132.00 to state    1 from traj    1 on state    2
C     -1.545798     0.169778    -0.026828
H     -1.522253    -0.221267     1.111923
H     -2.269740     0.728729    -0.775607
C     -1.003495     1.337384     0.009179
H     -1.664380     2.727897     0.535991
H      0.101214     1.560613    -0.665285
6
Family_1 [H+].[H][C-]=C([H])[H] | RMSD: 0.2611 | 340.00 to state    1 from traj    1 on state    2
C     -1.637869     0.183785     0.015220
H     -1.213705    -0.785586     0.271068
H     -2.626352     0.276459    -0.333392
C     -0.860767     1.392081    -0.046296
H     -2.418363     3.314779     0.399723
H      0.299649     1.171658     0.029616
6
Family_1 [H+].[H][C-]=C([H])[H] | RMSD: 0.8379 | 2600.00 to state    1 from traj    1 on state    2
C     -1.558037     0.137749    -0.010940
H     -1.303407    -0.453896    -0.902165
H     -2.304624    -0.181973     0.654264
C     -1.044907     1.458062     0.090465
H     -1.078999     3.257606    -0.669345
H     -0.028847     1.117917    -0.033633
6
Family_1 [H+].[H][C-]=C([H])[H] | RMSD: 0.2098 | 556.00 to state    1 from traj    1 on state    2
C     -1.632145     0.201884    -0.011546
H     -1.334169    -0.736058     0.103189
H     -2.756028     0.266289    -0.020231
C     -0.824034     1.378722    -0.007305
H     -2.630766     3.224359     0.154315
H      0.256289     1.166244    -0.015926
6
Family_1 [H+].[H][C-]=C([H])[H] | RMSD: 0.5374 | 1940.00 to state    1 from traj    1 on state    2
C     -1.651791     0.283193    -0.002529
H     -1.456895    -0.774903    -0.040146
H     -2.687696     0.735731     0.072065
C     -0.747986     1.308656    -0.004339
H     -3.299240     2.647150     0.061258
H      0.307084     1.178884    -0.014632
6
Family_1 [H+].[H][C-]=C([H])[H] | RMSD: 0.5483 | 2108.00 to state    1 from traj    1 on state    2
C     -1.685961     0.271997    -0.022146
H     -1.465808    -0.797847     0.022741
H     -2.692744     0.595728     0.167726
C     -0.716872     1.320047     0.004559
H     -3.312196     2.672569     0.044898
H      0.370420     1.314092    -0.029092
6
Family_1 [H+].[H][C-]=C([H])[H] | RMSD: 0.9104 | 1476.00 to state    1 from traj    1 on state    2
C     -1.617251     0.208514    -0.005194
H     -1.304104    -0.683220     0.582044
H     -2.507540     0.137748    -0.683407
C     -0.848184     1.363461     0.113065
H     -1.697038     2.699728     0.019471
H     -0.845695     1.869411    -1.206747
6
Family_1 [H+].[H][C-]=C([H])[H] | RMSD: 0.8920 | 1624.00 to state    1 from traj    1 on state    2
C     -1.614774     0.133247     0.057220
H     -1.056980    -0.818463     0.252804
H     -2.265899    -0.166057    -0.903948
C     -0.960545     1.565993     0.092216
H     -1.140836     2.778716     0.011423
H     -0.581332     0.713032    -1.144198
6
Family_1 [H+].[H][C-]=C([H])[H] | RMSD: 0.5311 | 5384.00 to state    1 from traj    1 on state    2
C     -1.631062     0.143851     0.026819
H     -1.750127    -0.872899     0.499582
H     -2.639258    -0.116494    -0.640422
C     -0.843574     1.488861    -0.054236
H     -2.097044     2.995757     0.550081
H      0.241679     1.293595    -0.085823
6
Family_1 [H+].[H][C-]=C([H])[H] | RMSD: 0.3333 | 6436.00 to state    1 from traj    1 on state    2
C     -1.670596     0.044754    -0.032491
H     -1.364073    -0.935866     0.357607
H     -2.719539     0.117682    -0.061849
C     -0.837861     1.554185    -0.016575
H     -1.967854     3.249645     0.270921
H      0.209712     1.270927     0.014695
6
Family_1 [H+].[H][C-]=C([H])[H] | RMSD: 0.3132 | 6512.00 to state    1 from traj    1 on state    2
C     -1.679136     0.029488    -0.028585
H     -1.245777    -0.914589     0.330213
H     -2.683938     0.284613    -0.067491
C     -0.840123     1.548007    -0.011284
H     -1.977480     3.278090     0.240099
H      0.194158     1.309788    -0.031037
6
Family_1 [H+].[H][C-]=C([H])[H] | RMSD: 0.9331 | 868.00 to state    1 from traj    1 on state    2
C     -1.663124     0.308814     0.006196
H     -1.429111    -0.304661    -0.824575
H     -2.331096     0.035639     0.736473
C     -0.787652     1.291157    -0.055564
H     -2.133694     2.191074    -0.186183
H     -0.635148     1.768023     0.859258
6
Family_1 [H+].[H][C-]=C([H])[H] | RMSD: 0.5491 | 2044.00 to state    1 from traj    1 on state    2
C     -1.668533     0.213754     0.032090
H     -1.658261    -0.903957    -0.222891
H     -2.642418     0.709806    -0.061908
C     -0.725476     1.360887    -0.005971
H     -3.186829     2.729135     0.018997
H      0.282033     1.456922    -0.048709
6
Family_1 [H+].[H][C-]=C([H])[H] | RMSD: 0.6644 | 4480.00 to state    1 from traj    1 on state    2
C     -1.533650     0.094822    -0.027464
H     -1.053345    -0.754428     0.551332
H     -2.615447     0.337807    -0.240025
C     -1.054767     1.389618    -0.064968
H     -1.386120     3.977422     0.540685
H      0.165943     1.505924     0.246116
6
Family_1 [H+].[H][C-]=C([H])[H] | RMSD: 0.2468 | 496.00 to state    1 from traj    1 on state    2
C     -1.651208     0.113760     0.008509
H     -1.110159    -0.860643    -0.300220
H     -2.756268     0.289701     0.109942
C     -0.864391     1.451221     0.022170
H     -2.177060     3.418972    -0.116686
H      0.286853     1.258992    -0.061879
6
Family_1 [H+].[H][C-]=C([H])[H] | RMSD: 0.9183 | 1636.00 to state    1 from traj    1 on state    2
C     -1.644482     0.279173     0.023239
H     -0.918981    -0.517469     0.262370
H     -2.323162    -0.273936    -0.592947
C     -0.874468     1.314461     0.072112
H     -1.412168     2.762294     0.043860
H     -1.062400     1.794700    -0.852731
6
Family_1 [H+].[H][C-]=C([H])[H] | RMSD: 0.2745 | 444.00 to state    1 from traj    1 on state    2
C     -1.632264     0.115767    -0.013933
H     -1.164194    -0.867437    -0.192108
H     -2.830175     0.181931     0.194972
C     -0.872271     1.448841     0.018985
H     -2.110189     3.509390    -0.077434
H      0.216072     1.287568     0.011084
6
Family_1 [H+].[H][C-]=C([H])[H] | RMSD: 0.3448 | 632.00 to state    1 from traj    1 on state    2
C     -1.629642     0.129590     0.013140
H     -1.303790    -0.851889    -0.317515
H     -2.600676     0.049526     0.063020
C     -0.878050     1.424594     0.023401
H     -2.133776     3.663335    -0.103240
H      0.187386     1.374699    -0.080949
6
Family_1 [H+].[H][C-]=C([H])[H] | RMSD: 0.4374 | 3440.00 to state    1 from traj    1 on state    2
C     -1.623879     0.178193    -0.034572
H     -1.328527    -0.744691     0.573209
H     -2.544935    -0.199279    -0.193474
C     -0.894067     1.445238    -0.055063
H     -2.000240     3.325069     0.522716
H      0.145013     1.029447     0.162326
6
Family_1 [H+].[H][C-]=C([H])[H] | RMSD: 1.0433 | 3320.00 to state    1 from traj    1 on state    2
C     -1.615308     0.159973     0.252481
H     -1.517742    -0.775499    -0.492941
H     -1.764238     0.620581    -1.650397
C     -0.974526     1.437310    -0.034129
H     -1.426650     2.335992     0.247139
H     -0.163451     1.541037    -0.708904
6
Family_1 [H+].[H][C-]=C([H])[H] | RMSD: 1.0583 | 3492.00 to state    1 from traj    1 on state    2
C     -1.320768     0.188636     0.042084
H     -2.405528    -0.050230     0.380979
H     -2.889518     0.705069    -0.722038
C     -1.030430     1.524228    -0.005841
H     -2.030935     2.019413     0.261783
H     -0.389611    -0.329374    -0.355871
6
Family_1 [H+].[H][C-]=C([H])[H] | RMSD: 1.0543 | 3652.00 to state    1 from traj    1 on state    2
C     -1.342013     0.252695     0.040929
H     -2.300345     0.010217     0.371072
H     -2.849108     0.345708    -0.658676
C     -1.036605     1.497519    -0.042618
H     -1.883086     1.888391     0.381156
H     -0.356322    -0.344482    -0.076703
6
Family_1 [H+].[H][C-]=C([H])[H] | RMSD: 0.7445 | 2244.00 to state    1 from traj    1 on state    2
C     -1.752492     0.266833    -0.070815
H     -1.216179    -0.478443     0.431611
H     -2.852032    -0.091804     0.051080
C     -0.693823     1.406682     0.109438
H     -2.389611     1.938361    -0.153344
H     -0.124383     1.445651    -0.792848
6
Family_1 [H+].[H][C-]=C([H])[H] | RMSD: 0.7446 | 2368.00 to state    1 from traj    1 on state    2
C     -1.728315     0.285733    -0.045089
H     -1.199355    -0.628047     0.393684
H     -2.926143     0.164896    -0.107031
C     -0.699231     1.388344     0.096390
H     -2.509095     1.842808    -0.103236
H     -0.171263     1.427398    -0.797993
6
Family_1 [H+].[H][C-]=C([H])[H] | RMSD: 0.8056 | 3108.00 to state    1 from traj    1 on state    2
C     -1.564771     0.162246     0.084975
H     -1.544662    -0.866894     0.144201
H     -1.940959     0.511585    -0.916546
C     -0.986264     1.356725     0.017980
H     -1.550835     3.132581     0.215054
H     -0.297952     1.877981    -0.672770
6
Family_1 [H+].[H][C-]=C([H])[H] | RMSD: 0.9282 | 1196.00 to state    1 from traj    1 on state    2
C     -1.758261     0.258905     0.208210
H     -0.786448    -0.259704    -1.131579
H     -2.152702    -0.379854    -0.605972
C     -0.871231     1.404565    -0.114467
H     -1.376419     2.193185     0.132797
H     -0.083970     1.379822     0.484464
6
Family_1 [H+].[H][C-]=C([H])[H] | RMSD: 1.1014 | 2132.00 to state    1 from traj    1 on state    2
C     -1.446542     0.210157    -0.130723
H     -1.662933    -1.340107     1.310713
H     -2.455590     0.084104    -0.296373
C     -0.999778     1.612518     0.108610
H     -1.566869     2.477544     0.236203
H     -0.896753    -0.185126    -0.990336
6
Family_1 [H+].[H][C-]=C([H])[H] | RMSD: 0.2168 | 444.00 to state    1 from traj    1 on state    2
C     -1.670775     0.187243     0.003274
H     -1.172877    -0.817699    -0.273003
H     -2.743641     0.249795     0.150587
C     -0.805877     1.409707     0.018694
H     -2.553960     3.125405    -0.098327
H      0.249751     1.168585    -0.044303
6
Family_1 [H+].[H][C-]=C([H])[H] | RMSD: 0.3650 | 564.00 to state    1 from traj    1 on state    2
C     -1.643524     0.138276     0.002430
H     -1.196796    -0.750131     0.456801
H     -2.639335     0.196971    -0.362864
C     -0.873595     1.431046    -0.066374
H     -2.148415     3.355159     0.533285
H      0.246017     1.253285     0.131436
6
Family_1 [H+].[H][C-]=C([H])[H] | RMSD: 0.2270 | 428.00 to state    1 from traj    1 on state    2
C     -1.611338     0.130617    -0.006649
H     -1.331297    -0.987799    -0.143979
H     -2.765809     0.206320     0.096228
C     -0.874839     1.457661     0.014399
H     -2.160083     3.398834    -0.028958
H      0.149963     1.212057    -0.018913
6
Family_1 [H+].[H][C-]=C([H])[H] | RMSD: 0.2829 | 596.00 to state    1 from traj    1 on state    2
C     -1.601407     0.127863     0.000276
H     -1.448298    -0.861003    -0.121823
H     -2.757964     0.280346     0.019349
C     -0.877992     1.420211     0.015392
H     -2.278103     3.523558    -0.012477
H      0.296367     1.365574    -0.075031
6
Family_1 [H+].[H][C-]=C([H])[H] | RMSD: 0.3424 | 372.00 to state    1 from traj    1 on state    2
C     -1.672743     0.200868    -0.019535
H     -1.291404    -0.816746    -0.053144
H     -2.654149     0.469652     0.188400
C     -0.792728     1.434391     0.011282
H     -2.591465     2.570976    -0.023887
H      0.183059     1.045724    -0.016315
6
Family_1 [H+].[H][C-]=C([H])[H] | RMSD: 0.9953 | 6464.00 to state    1 from traj    1 on state    2
C     -1.491554     0.073219     0.041605
H     -1.456996    -0.623191    -0.909146
H     -2.942706    -0.319329     0.360243
C     -1.023176     1.701281    -0.012332
H     -0.873064     2.590845    -0.320045
H     -0.494231    -0.037876     0.516852
6
Family_1 [H+].[H][C-]=C([H])[H] | RMSD: 0.9042 | 10472.00 to state    1 from traj    1 on state    2
C     -1.526917     0.229579    -0.085494
H     -0.957064    -0.262794     0.555045
H     -2.549689    -0.096666     0.026904
C     -1.039424     1.541432     0.102391
H     -1.607816     2.649622    -0.077476
H     -0.037444    -0.638140    -0.709098
6
Family_1 [H+].[H][C-]=C([H])[H] | RMSD: 0.9564 | 13500.00 to state    1 from traj    1 on state    2
C     -1.700853     0.469211     0.115409
H     -1.403316    -0.543798     0.025093
H     -2.487649     0.363983    -0.748089
C     -0.726246     1.271682    -0.135543
H     -3.162692     1.321886     0.639961
H      0.242474     0.868841     0.319660
6
Family_1 [H+].[H][C-]=C([H])[H] | RMSD: 0.8196 | 5580.00 to state    1 from traj    1 on state    2
C     -1.472457     0.185563    -0.020858
H     -1.951223    -0.569416     0.897381
H     -2.206349     0.690039    -0.684592
C     -1.015927     1.368018     0.022073
H     -1.742995     2.741635     0.405838
H     -0.180357     1.380590    -0.636397
6
Family_1 [H+].[H][C-]=C([H])[H] | RMSD: 0.1868 | 372.00 to state    1 from traj    1 on state    2
C     -1.638978     0.188103    -0.004624
H     -1.232818    -0.734786    -0.103103
H     -2.731626     0.344731     0.085752
C     -0.833298     1.384742     0.006142
H     -2.585855     3.252811     0.014407
H      0.277426     1.150547    -0.018421
6
Family_1 [H+].[H][C-]=C([H])[H] | RMSD: 0.3253 | 612.00 to state    1 from traj    1 on state    2
C     -1.603042     0.235073    -0.012272
H     -1.541945    -1.017426    -0.070827
H     -2.668917     0.165636     0.092165
C     -0.828587     1.352398     0.007488
H     -2.764968     3.444471     0.043753
H      0.218632     1.246351    -0.011373
6
Family_1 [H+].[H][C-]=C([H])[H] | RMSD: 0.3882 | 1708.00 to state    1 from traj    1 on state    2
C     -1.636105     0.278033     0.005158
H     -1.308800    -0.738446    -0.193376
H     -2.593161     0.592577     0.106382
C     -0.811063     1.335080     0.009825
H     -2.951783     2.725336    -0.044334
H      0.281694     0.954016    -0.050479
6
Family_1 [H+].[H][C-]=C([H])[H] | RMSD: 0.3725 | 2192.00 to state    1 from traj    1 on state    2
C     -1.673119     0.217730     0.008950
H     -1.521944    -0.840953    -0.210121
H     -2.825687     0.212983     0.061388
C     -0.751103     1.397422     0.012696
H     -2.793754     2.800200    -0.047979
H      0.295917     1.336969    -0.064501
6
Family_1 [H+].[H][C-]=C([H])[H] | RMSD: 0.8164 | 4948.00 to state    1 from traj    1 on state    2
C     -1.683141     0.212307     0.017977
H     -1.558677    -0.765887     0.607990
H     -2.403099     0.254503    -0.794743
C     -0.783877     1.491016     0.076050
H     -2.330421     2.007975     0.156667
H     -0.043321     0.961976    -1.093591
6
Family_1 [H+].[H][C-]=C([H])[H] | RMSD: 1.0807 | 5288.00 to state    1 from traj    1 on state    2
C     -1.604771     0.050785     0.196231
H     -1.903786    -0.617601    -0.528744
H     -1.239153     1.111300    -1.049709
C     -1.060488     1.480707    -0.076560
H     -1.387344     2.463271     0.246906
H      0.556938     1.549080    -0.097699
6
Family_1 [H+].[H][C-]=C([H])[H] | RMSD: 1.0496 | 8180.00 to state    1 from traj    1 on state    2
C     -1.503390     0.222066    -0.006111
H     -1.165074    -0.768664     0.511611
H     -2.087487    -0.235867    -0.694078
C     -1.122189     1.515809     0.136407
H     -0.786967     2.750289    -0.073462
H     -0.406631     0.301112    -1.299918
6
Family_1 [H+].[H][C-]=C([H])[H] | RMSD: 0.2687 | 564.00 to state    1 from traj    1 on state    2
C     -1.640307     0.175831    -0.007143
H     -1.476017    -0.816011     0.215948
H     -2.713916     0.148915    -0.139082
C     -0.816347     1.416157    -0.022418
H     -2.498292     3.183086     0.264457
H      0.229209     1.269219     0.007632
6
Family_1 [H+].[H][C-]=C([H])[H] | RMSD: 0.2160 | 728.00 to state    1 from traj    1 on state    2
C     -1.624065     0.224088     0.001077
H     -1.368960    -0.873842     0.161092
H     -2.693881     0.169977    -0.145921
C     -0.836694     1.387821    -0.033280
H     -2.566892     3.167002     0.288581
H      0.219633     1.084692     0.076681
6
Family_1 [H+].[H][C-]=C([H])[H] | RMSD: 0.3466 | 2096.00 to state    1 from traj    1 on state    2
C     -1.617292     0.224239    -0.004708
H     -1.317997    -0.845809     0.041030
H     -2.629929     0.673926     0.011374
C     -0.823316     1.330557    -0.017021
H     -2.968563     3.252092     0.157469
H      0.266268     1.148159     0.045756
6
Family_1 [H+].[H][C-]=C([H])[H] | RMSD: 0.3508 | 2212.00 to state    1 from traj    1 on state    2
C     -1.614340     0.229281    -0.009448
H     -1.479762    -0.881641     0.057522
H     -2.610607     0.543163     0.011550
C     -0.818545     1.339084    -0.005847
H     -2.946358     3.209983     0.128889
H      0.294489     1.195187    -0.018993
6
Family_1 [H+].[H][C-]=C([H])[H] | RMSD: 0.3184 | 360.00 to state    1 from traj    1 on state    2
C     -1.614921     0.099358    -0.000319
H     -1.191873    -0.748631     0.323954
H     -2.833055     0.313902    -0.262615
C     -0.886771     1.447827    -0.046005
H     -2.054736     3.462067     0.391028
H      0.157305     1.291730     0.096333
6
Family_1 [H+].[H][C-]=C([H])[H] | RMSD: 0.9769 | 5884.00 to state    1 from traj    1 on state    2
C     -1.615743     0.258904    -0.007489
H     -1.507728    -0.159100     0.811877
H     -2.392914     0.476811    -0.769078
C     -0.802673     1.308110     0.085532
H     -2.256105     2.182444     0.180238
H     -0.757893     1.582632    -1.156250
6
Family_1 [H+].[H][C-]=C([H])[H] | RMSD: 0.4990 | 1628.00 to state    1 from traj    1 on state    2
C     -1.597402     0.096665     0.005639
H     -1.146273    -0.807227    -0.046220
H     -2.621848     0.061959    -0.078193
C     -0.954704     1.408289    -0.010420
H     -1.769729     4.046396     0.134412
H      0.216207     1.521154     0.043692
6
Family_1 [H+].[H][C-]=C([H])[H] | RMSD: 0.5532 | 1732.00 to state    1 from traj    1 on state    2
C     -1.607863     0.097094    -0.000653
H     -1.002146    -0.794834     0.031139
H     -2.732121     0.070151    -0.099408
C     -0.945279     1.384981    -0.007176
H     -1.854693     4.230930     0.163355
H      0.279665     1.588644    -0.005087
6
Family_1 [H+].[H][C-]=C([H])[H] | RMSD: 0.5365 | 2036.00 to state    1 from traj    1 on state    2
C     -1.580733     0.140673    -0.012802
H     -1.051993    -0.709654     0.111962
H     -2.601094     0.024820    -0.053936
C     -0.958986     1.348799    -0.017724
H     -1.992971     4.302859     0.228717
H      0.176825     1.388721     0.073713
6
Family_1 [H+].[H][C-]=C([H])[H] | RMSD: 0.2097 | 556.00 to state    1 from traj    1 on state    2
C     -1.676999     0.181953     0.002310
H     -1.240129    -0.839158    -0.183859
H     -2.809792     0.174130     0.093379
C     -0.793622     1.436014     0.009532
H     -2.495088     2.973112    -0.030845
H      0.252415     1.167556    -0.023066
6
Family_1 [H+].[H][C-]=C([H])[H] | RMSD: 0.4262 | 1652.00 to state    1 from traj    1 on state    2
C     -1.604155     0.131552    -0.019621
H     -1.567833    -0.934615    -0.304898
H     -2.557692     0.290435     0.294622
C     -0.886783     1.410455     0.049453
H     -2.279433     3.545553    -0.234416
H      0.354465     1.479385    -0.114062
6
Family_1 [H+].[H][C-]=C([H])[H] | RMSD: 0.9924 | 7028.00 to state    1 from traj    1 on state    2
C     -1.480535     0.184037     0.013103
H     -1.328028    -0.562446     0.717699
H     -2.602509    -0.282942    -0.905925
C     -1.042005     1.574115     0.051502
H     -1.128261     2.695772     0.303691
H     -0.615134    -0.045140    -0.888551
6
Family_1 [H+].[H][C-]=C([H])[H] | RMSD: 0.4233 | 732.00 to state    1 from traj    1 on state    2
C     -1.596416     0.123317     0.001418
H     -1.101835    -0.920534    -0.009339
H     -2.594846     0.062801    -0.071400
C     -0.953093     1.417597    -0.011428
H     -1.800805     3.899665     0.152085
H      0.144892     1.351854     0.044638
6
Family_1 [H+].[H][C-]=C([H])[H] | RMSD: 0.2745 | 2032.00 to state    1 from traj    1 on state    2
C     -1.643261     0.193870     0.012926
H     -1.159518    -0.848624     0.028267
H     -2.637508     0.297953    -0.132635
C     -0.835806     1.352396    -0.028755
H     -2.661854     3.608532     0.235125
H      0.266935     1.272155     0.054579
6
Family_1 [H+].[H][C-]=C([H])[H] | RMSD: 0.2716 | 2164.00 to state    1 from traj    1 on state    2
C     -1.629848     0.211539     0.001436
H     -1.168829    -0.714212     0.113359
H     -2.817260     0.254507    -0.124896
C     -0.838752     1.341588    -0.020878
H     -2.717901     3.548266     0.234859
H      0.387322     1.159692     0.005066
6
Family_1 [H+].[H][C-]=C([H])[H] | RMSD: 0.2264 | 3684.00 to state    1 from traj    1 on state    2
C     -1.644718     0.196328    -0.018109
H     -1.239539    -0.819472     0.308389
H     -2.631338     0.235445    -0.108395
C     -0.841575     1.405001    -0.029494
H     -2.473417     3.173687     0.319312
H      0.238442     1.084240     0.044631
6
Family_1 [H+].[H][C-]=C([H])[H] | RMSD: 0.2399 | 624.00 to state    1 from traj    1 on state    2
C     -1.640477     0.162185    -0.011153
H     -1.319877    -0.849569    -0.050029
H     -2.853410     0.113559     0.073784
C     -0.832189     1.413758     0.004454
H     -2.427110     3.412409     0.049551
H      0.332185     1.299994     0.003232
6
Family_1 [H+].[H][C-]=C([H])[H] | RMSD: 0.2367 | 1588.00 to state    1 from traj    1 on state    2
C     -1.655122     0.207466    -0.014181
H     -1.300258    -0.912069    -0.152096
H     -2.578054     0.239017     0.173973
C     -0.816918     1.403651     0.028539
H     -2.570099     3.094050    -0.086162
H      0.172740     1.136276    -0.110087
6
Family_1 [H+].[H][C-]=C([H])[H] | RMSD: 0.3845 | 2968.00 to state    1 from traj    1 on state    2
C     -1.668576     0.263875    -0.006750
H     -1.170139    -0.672138    -0.066922
H     -2.573490     0.590757     0.102639
C     -0.785224     1.341485     0.012839
H     -2.953067     2.710356    -0.007816
H      0.203676     0.996899    -0.103730
6
Family_1 [H+].[H][C-]=C([H])[H] | RMSD: 0.5340 | 4352.00 to state    1 from traj    1 on state    2
C     -1.606023     0.173193    -0.014242
H     -1.165685    -0.722580     0.133549
H     -2.582866    -0.441675    -0.080341
C     -0.932721     1.387007    -0.013838
H     -1.878116     4.066038     0.237313
H      0.145810     1.262194     0.040784
6
Family_1 [H+].[H][C-]=C([H])[H] | RMSD: 1.0584 | 6256.00 to state    1 from traj    1 on state    2
C     -1.468342     0.040653    -0.109747
H     -1.538340    -0.954319     1.138273
H     -2.723601    -0.138055    -0.314637
C     -1.012239     1.721532     0.094029
H     -1.023105     2.913041     0.208911
H     -0.888865    -0.063467    -0.848541
6
Family_1 [H+].[H][C-]=C([H])[H] | RMSD: 0.3051 | 3452.00 to state    1 from traj    1 on state    2
C     -1.705047     0.116642     0.000698
H     -1.348552    -0.871761    -0.137733
H     -2.833619    -0.022061     0.056825
C     -0.781143     1.479073     0.007532
H     -2.325581     3.194585     0.003651
H      0.400685     1.440034    -0.024093
6
Family_1 [H+].[H][C-]=C([H])[H] | RMSD: 0.3678 | 4620.00 to state    1 from traj    1 on state    2
C     -1.722259     0.182429    -0.038573
H     -1.246283    -0.681997     0.184388
H     -2.862815     0.026177     0.143643
C     -0.748900     1.476369     0.002162
H     -2.441385     2.536801     0.106073
H      0.264304     1.108145    -0.003519
6
Family_1 [H+].[H][C-]=C([H])[H] | RMSD: 0.4503 | 7468.00 to state    1 from traj    1 on state    2
C     -1.696325     0.209065    -0.027340
H     -1.311726    -0.613620     0.532280
H     -2.869935     0.208506    -0.178485
C     -0.752684     1.413513    -0.043863
H     -2.626380     2.590753     0.437819
H      0.257932     1.235076     0.053540
6
Family_1 [H+].[H][C-]=C([H])[H] | RMSD: 0.4596 | 7560.00 to state    1 from traj    1 on state    2
C     -1.720403     0.173862    -0.008421
H     -1.406948    -0.696058     0.438772
H     -2.848876     0.175631    -0.249991
C     -0.731131     1.444941    -0.047380
H     -2.606584     2.600180     0.426789
H      0.342390     1.385929     0.046047
6
Family_1 [H+].[H][C-]=C([H])[H] | RMSD: 0.5090 | 660.00 to state    1 from traj    1 on state    2
C     -1.626335     0.116983    -0.008592
H     -1.253854    -0.872335     0.563142
H     -2.623926     0.020558    -0.398490
C     -0.913251     1.440875    -0.060525
H     -1.846114     3.594655     0.568042
H      0.253064     1.449014     0.087593
6
Family_1 [H+].[H][C-]=C([H])[H] | RMSD: 0.8523 | 2276.00 to state    1 from traj    1 on state    2
C     -1.746826     0.285225     0.194116
H     -1.111259    -0.621791    -0.904182
H     -2.287355    -0.065621    -0.658289
C     -0.809038     1.391224    -0.125202
H     -1.796304     1.867234     0.251260
H     -0.081952     1.598981     0.486772
6
Family_1 [H+].[H][C-]=C([H])[H] | RMSD: 0.3368 | 424.00 to state    1 from traj    1 on state    2
C     -1.667551     0.140446     0.009871
H     -1.204130    -0.745289     0.308244
H     -2.638446     0.010674    -0.330475
C     -0.846710     1.431058    -0.047365
H     -2.186336     3.434311     0.420946
H      0.256315     1.329588     0.044766
6
Family_1 [H+].[H][C-]=C([H])[H] | RMSD: 0.3574 | 1128.00 to state    1 from traj    1 on state    2
C     -1.627091     0.144069    -0.012863
H     -1.197139    -0.860660     0.415040
H     -2.696237     0.204051    -0.231442
C     -0.879907     1.410575    -0.052240
H     -2.180957     3.539747     0.457619
H      0.215199     1.347045     0.131250
6
Family_1 [H+].[H][C-]=C([H])[H] | RMSD: 0.9356 | 3396.00 to state    1 from traj    1 on state    2
C     -1.546680     0.287204    -0.058861
H     -1.692023    -0.731688    -0.547794
H     -2.651472     0.202937     0.986159
C     -0.873082     1.406320    -0.038658
H     -1.900923     1.965660    -0.202238
H     -0.654180     1.138421     0.922599
6
Family_1 [H+].[H][C-]=C([H])[H] | RMSD: 0.8730 | 2452.00 to state    1 from traj    1 on state    2
C     -1.617127     0.169474    -0.069618
H     -1.207550    -1.309716    -0.150298
H     -2.301421     0.232038     0.780036
C     -0.878465     1.534041    -0.071842
H     -1.558416     2.475194     0.114282
H     -0.927650     1.058773     0.938281
6
Family_1 [H+].[H][C-]=C([H])[H] | RMSD: 0.4100 | 736.00 to state    1 from traj    1 on state    2
C     -1.612859     0.147585    -0.017739
H     -1.202331    -0.768979     0.494192
H     -2.660437     0.312533    -0.227697
C     -0.899346     1.385921    -0.070092
H     -2.218299     3.592280     0.541626
H      0.283981     1.346221     0.235159
6
Family_1 [H+].[H][C-]=C([H])[H] | RMSD: 0.2895 | 472.00 to state    1 from traj    1 on state    2
C     -1.632007     0.144042    -0.012447
H     -1.266849    -0.937567    -0.329092
H     -2.632824     0.377164     0.287933
C     -0.875144     1.441748     0.040337
H     -2.278431     3.254964    -0.219872
H      0.320802     1.164502    -0.074587
6
Family_1 [H+].[H][C-]=C([H])[H] | RMSD: 1.0406 | 14744.00 to state    1 from traj    1 on state    2
C     -1.712952     0.286854     0.047645
H     -2.038069    -0.643910     0.455674
H     -2.419310     0.270827    -0.706236
C     -0.659506     1.313007    -0.052501
H     -2.668385     1.730546     0.503025
H     -0.336510     2.333935    -0.197879
6
Family_1 [H+].[H][C-]=C([H])[H] | RMSD: 0.8868 | 15408.00 to state    1 from traj    1 on state    2
C     -1.568990     0.078786     0.089333
H     -1.098067    -0.828809     0.461466
H     -1.747156     1.574234    -0.996074
C     -1.051013     1.414386    -0.087606
H     -1.761333     2.990259     0.655341
H      0.093957     1.226982    -0.144594
6
Family_1 [H+].[H][C-]=C([H])[H] | RMSD: 0.3407 | 604.00 to state    1 from traj    1 on state    2
C     -1.672596     0.199643    -0.026332
H     -1.410568    -0.723536     0.244988
H     -2.686772     0.210333    -0.001627
C     -0.798216     1.450285    -0.005337
H     -2.505533     2.604040     0.176547
H      0.312561     1.003976    -0.045833
6
Family_1 [H+].[H][C-]=C([H])[H] | RMSD: 0.8208 | 7872.00 to state    1 from traj    1 on state    2
C     -1.356351     0.274470     0.030706
H     -1.520180    -0.567739    -0.558748
H     -2.984962     0.581587     0.277210
C     -1.086733     1.428228    -0.082409
H     -1.603816     2.376296     0.040981
H     -0.511757     0.075878     0.853343
6
Family_1 [H+].[H][C-]=C([H])[H] | RMSD: 0.9498 | 10928.00 to state    1 from traj    1 on state    2
C     -1.760151     0.468601     0.073818
H     -0.923903    -0.309017     0.623023
H     -2.148448     0.394122    -0.991242
C     -0.738699     1.179418    -0.077967
H     -3.041278     1.752022     0.728995
H      0.157402     1.280437    -0.314619
6
Family_1 [H+].[H][C-]=C([H])[H] | RMSD: 0.8524 | 3872.00 to state    1 from traj    1 on state    2
C     -1.701556     0.370272     0.009019
H     -1.056840    -0.316641     0.653480
H     -2.209218     0.067868    -0.724889
C     -0.828023     1.288475     0.056832
H     -2.187552     1.960202     0.240957
H     -0.136458     1.278299    -0.957482
6
Family_1 [H+].[H][C-]=C([H])[H] | RMSD: 0.6817 | 5848.00 to state    1 from traj    1 on state    2
C     -1.606586     0.205885    -0.004898
H     -1.081857    -0.550799    -0.248702
H     -2.781083     0.305874     0.011700
C     -0.846497     1.282383     0.126825
H     -2.052069     3.294639    -0.433390
H     -0.586556     1.971390    -0.785728
6
Family_1 [H+].[H][C-]=C([H])[H] | RMSD: 0.2232 | 452.00 to state    1 from traj    1 on state    2
C     -1.626529     0.146569    -0.027978
H     -1.316389    -0.879535     0.301133
H     -2.714783     0.358308    -0.038466
C     -0.851726     1.446715    -0.018371
H     -2.331258     3.158599     0.254988
H      0.160810     1.132386     0.031348
6
Family_1 [H+].[H][C-]=C([H])[H] | RMSD: 0.3751 | 1776.00 to state    1 from traj    1 on state    2
C     -1.654276     0.295655     0.018893
H     -1.356424    -0.849866    -0.093798
H     -2.772642     0.255043    -0.095509
C     -0.779499     1.372433    -0.001165
H     -2.775120     2.466881     0.064322
H      0.172555     1.006363    -0.089536
6
Family_1 [H+].[H][C-]=C([H])[H] | RMSD: 0.7085 | 3408.00 to state    1 from traj    1 on state    2
C     -1.560302     0.110454    -0.032476
H     -1.267388    -0.881732    -0.368231
H     -2.528124    -0.223808     0.365165
C     -1.036964     1.455292     0.074838
H     -1.123767     3.746055    -0.348809
H      0.135758     1.457379    -0.156179
6
Family_1 [H+].[H][C-]=C([H])[H] | RMSD: 0.8606 | 7744.00 to state    1 from traj    1 on state    2
C     -1.366687     0.176714    -0.009532
H     -1.739211    -0.699919     0.489729
H     -2.938424     0.234263    -0.568558
C     -1.102123     1.532522     0.076568
H     -1.132265     2.592693     0.048923
H     -0.504267     0.261080    -0.772150
6
Family_1 [H+].[H][C-]=C([H])[H] | RMSD: 0.8523 | 764.00 to state    1 from traj    1 on state    2
C     -1.741412     0.302916     0.023063
H     -0.733947    -0.236510     0.231709
H     -2.387563    -0.182402    -0.590690
C     -0.812986     1.303254     0.119724
H     -1.859874     2.409965    -0.131743
H     -0.312955     1.625162    -1.213964
6
Family_1 [H+].[H][C-]=C([H])[H] | RMSD: 0.8709 | 1324.00 to state    1 from traj    1 on state    2
C     -1.520946     0.117875     0.024389
H     -1.941501    -0.793982     0.419780
H     -2.257291     0.089066    -0.815044
C     -0.941608     1.550294     0.117085
H     -1.639955     2.798655    -0.040097
H     -0.549962     0.783719    -1.253684
6
Family_1 [H+].[H][C-]=C([H])[H] | RMSD: 0.4736 | 548.00 to state    1 from traj    1 on state    2
C     -1.591328     0.136889    -0.002201
H     -1.283810    -0.947189    -0.441976
H     -2.663133    -0.032706     0.226120
C     -0.950141     1.429034     0.056362
H     -1.810171     3.730419    -0.283886
H      0.308731     1.345268    -0.148903
6
Family_1 [H+].[H][C-]=C([H])[H] | RMSD: 0.4929 | 632.00 to state    1 from traj    1 on state    2
C     -1.619349     0.198463    -0.018608
H     -1.251791    -0.774975    -0.528173
H     -2.647444     0.085418     0.415584
C     -0.862764     1.338106     0.088536
H     -2.473863     3.757902    -0.442710
H      0.217443     1.377217    -0.281224
6
Family_1 [H+].[H][C-]=C([H])[H] | RMSD: 0.6402 | 704.00 to state    1 from traj    1 on state    2
C     -1.606475     0.148615     0.039724
H     -1.477970    -0.815454     0.699534
H     -2.578005     0.405674    -0.773589
C     -0.889362     1.423217    -0.137550
H     -2.049320     2.989720     0.904287
H      0.113171     1.445436     0.332140
6
Family_1 [H+].[H][C-]=C([H])[H] | RMSD: 0.7635 | 568.00 to state    1 from traj    1 on state    2
C     -1.592774     0.137456    -0.060530
H     -1.407217    -0.383877     0.709067
H     -2.715932     0.218142    -0.306842
C     -0.843652     1.388186     0.099095
H     -1.848365     3.021332     0.039085
H     -0.728529     1.720164    -0.904124
6
Family_1 [H+].[H][C-]=C([H])[H] | RMSD: 0.9039 | 1372.00 to state    1 from traj    1 on state    2
C     -1.491886     0.224717     0.048538
H     -1.429064    -0.834861    -0.797575
H     -2.459527     0.390862     0.465157
C     -1.016446     1.446565    -0.157037
H     -1.476397     2.504388     0.190177
H     -0.478248     0.779978     1.431796
6
Family_1 [H+].[H][C-]=C([H])[H] | RMSD: 0.8615 | 2304.00 to state    1 from traj    1 on state    2
C     -1.587961     0.189278     0.239648
H     -1.442640    -0.354824    -0.870377
H     -2.388014     0.113120    -1.197423
C     -0.982665     1.418857    -0.068588
H     -1.268240     2.421787     0.146164
H     -0.002063     1.412717    -0.119933
6
Family_1 [H+].[H][C-]=C([H])[H] | RMSD: 1.0189 | 5292.00 to state    1 from traj    1 on state    2
C     -1.498226     0.296175    -0.066560
H     -1.304869    -0.591835    -0.540437
H     -1.827956     0.157271     1.025734
C     -1.081669     1.469391    -0.025375
H     -1.592558     2.435359    -0.224637
H     -0.265137    -0.283875     0.831531
6
Family_1 [H+].[H][C-]=C([H])[H] | RMSD: 0.9554 | 3680.00 to state    1 from traj    1 on state    2
C     -1.447930     0.152805     0.053091
H     -1.960577    -0.470940     0.589638
H     -2.352395     1.037456    -1.059495
C     -1.041892     1.384166     0.045924
H     -1.592654     2.448399     0.245481
H     -0.158173     1.425860    -0.958732
6
Family_1 [H+].[H][C-]=C([H])[H] | RMSD: 0.9366 | 2920.00 to state    1 from traj    1 on state    2
C     -1.418652     0.209197    -0.043868
H     -1.629661    -1.439332     0.509950
H     -2.478050     0.246064    -0.324147
C     -1.032317     1.601048     0.102109
H     -1.570271     2.596921    -0.031106
H     -0.848766    -0.219119    -0.851962
6
Family_1 [H+].[H][C-]=C([H])[H] | RMSD: 0.4668 | 3448.00 to state    1 from traj    1 on state    2
C     -1.653018     0.221574    -0.000863
H     -1.247522    -0.435299    -0.604561
H     -2.746099     0.184196     0.407685
C     -0.809937     1.393645     0.068832
H     -2.481250     2.750881    -0.448161
H      0.090937     1.008622    -0.168136
6
Family_1 [H+].[H][C-]=C([H])[H] | RMSD: 0.9729 | 6832.00 to state    1 from traj    1 on state    2
C     -1.372417     0.192647    -0.130782
H     -1.466918     0.055747     0.791356
H     -2.973556    -0.028637     0.167383
C     -1.123319     1.501212     0.096155
H     -1.115051     2.733715    -0.030983
H     -0.437797    -0.189484    -0.518437
6
Family_1 [H+].[H][C-]=C([H])[H] | RMSD: 0.8837 | 7968.00 to state    1 from traj    1 on state    2
C     -1.495398     0.190318     0.065316
H     -1.419698    -0.336200    -1.174998
H     -2.466978     0.096462     0.411116
C     -1.073429     1.514977     0.001215
H     -1.308987     2.532360    -0.467352
H      0.073266     0.142457     0.435195
6
Family_1 [H+].[H][C-]=C([H])[H] | RMSD: 0.9654 | 9348.00 to state    1 from traj    1 on state    2
C     -1.498233     0.238347    -0.035505
H     -1.301818    -0.966112     0.881413
H     -2.387568    -0.410288    -0.602023
C     -1.052327     1.561852     0.019688
H     -1.072628     2.635717     0.437856
H     -0.578041     0.044925    -0.532058
6
Family_1 [H+].[H][C-]=C([H])[H] | RMSD: 0.2858 | 328.00 to state    1 from traj    1 on state    2
C     -1.647174     0.196559    -0.020139
H     -1.196250    -0.781569     0.371470
H     -2.679419     0.247777    -0.148614
C     -0.830686     1.454181    -0.020862
H     -2.367711     2.786996     0.304628
H      0.037052     0.831940    -0.042210
6
Family_1 [H+].[H][C-]=C([H])[H] | RMSD: 0.2908 | 508.00 to state    1 from traj    1 on state    2
C     -1.628474     0.214955    -0.016582
H     -1.378797    -0.770123     0.355096
H     -2.780406     0.153900    -0.156733
C     -0.832569     1.427546    -0.034440
H     -2.447802     2.854965     0.348805
H      0.200286     0.944572     0.057518
6
Family_1 [H+].[H][C-]=C([H])[H] | RMSD: 1.0583 | 5172.00 to state    1 from traj    1 on state    2
C     -1.559008     0.203071    -0.017172
H     -1.062655    -0.789868     0.509905
H     -2.271136    -0.192141    -0.652374
C     -1.030251     1.556669     0.185105
H     -1.117528     2.587533    -0.244019
H     -0.427617     0.180804    -1.617831
6
Family_1 [H+].[H][C-]=C([H])[H] | RMSD: 0.3628 | 1168.00 to state    1 from traj    1 on state    2
C     -1.637740     0.144027     0.002477
H     -1.029953    -0.739482     0.088191
H     -2.625274     0.212393    -0.107023
C     -0.883460     1.369673    -0.030570
H     -2.329572     3.909949     0.260209
H      0.294890     1.335196     0.090093
6
Family_1 [H+].[H][C-]=C([H])[H] | RMSD: 0.4295 | 1532.00 to state    1 from traj    1 on state    2
C     -1.591007     0.183646    -0.030063
H     -1.287837    -0.657708     0.441436
H     -2.576248     0.039051    -0.120558
C     -0.903555     1.352879    -0.053950
H     -2.277508     3.814940     0.468611
H      0.134276     1.249796     0.208305
6
Family_1 [H+].[H][C-]=C([H])[H] | RMSD: 1.0264 | 2280.00 to state    1 from traj    1 on state    2
C     -1.512632     0.239796    -0.009430
H     -1.226743    -0.712611    -0.427721
H     -2.439252    -0.126586     0.620988
C     -1.036818     1.497204    -0.162669
H     -1.111891     2.464363     0.329862
H     -0.575408     0.432130     1.524274
6
Family_1 [H+].[H][C-]=C([H])[H] | RMSD: 0.8470 | 2840.00 to state    1 from traj    1 on state    2
C     -1.532198     0.276999     0.009942
H     -1.336824    -0.584125    -0.750952
H     -2.576203     0.210873     0.696180
C     -0.980096     1.432520    -0.112949
H     -1.793968     2.317392     0.027859
H     -0.089031     0.440607     1.251029
6
Family_1 [H+].[H][C-]=C([H])[H] | RMSD: 0.8421 | 2944.00 to state    1 from traj    1 on state    2
C     -1.508894     0.295283    -0.009073
H     -1.483470    -0.633605    -0.696746
H     -2.317408     0.122353     0.751582
C     -1.016359     1.424848    -0.081622
H     -1.719042     2.392109    -0.056364
H     -0.121691     0.377433     1.078946
6
Family_1 [H+].[H][C-]=C([H])[H] | RMSD: 0.8963 | 4508.00 to state    1 from traj    6 on state    2
C     -1.462013     0.282812    -0.052586
H     -1.336610    -0.650287     0.707806
H     -2.475039    -0.020522    -0.477088
C     -1.078407     1.448154     0.143259
H     -1.340371     2.584612    -0.070414
H     -0.308864     0.215386    -1.244026
6
Family_1 [H+].[H][C-]=C([H])[H] | RMSD: 0.9712 | 4752.00 to state    1 from traj    1 on state    2
C     -1.558885     0.158315    -0.019328
H     -1.146717    -0.489274     0.621544
H     -2.493439    -0.041251    -0.656229
C     -1.029407     1.538495     0.141733
H     -0.987531     2.486816    -0.086404
H     -0.262763     0.579893    -1.340728
6
Family_1 [H+].[H][C-]=C([H])[H] | RMSD: 0.1800 | 732.00 to state    1 from traj    1 on state    2
C     -1.601253     0.179404    -0.000757
H     -1.292829    -0.871416    -0.202810
H     -2.923434     0.264601     0.097891
C     -0.854749     1.411979     0.018728
H     -2.397159     3.274382    -0.067475
H      0.146644     1.124847    -0.045020
6
Family_1 [H+].[H][C-]=C([H])[H] | RMSD: 0.2452 | 1800.00 to state    1 from traj    1 on state    2
C     -1.624503     0.194900     0.011455
H     -1.419318    -0.945334     0.014583
H     -2.540157     0.320085    -0.118141
C     -0.841018     1.385251    -0.021877
H     -2.601431     3.329948     0.193986
H      0.207544     1.221553     0.030481
6
Family_1 [H+].[H][C-]=C([H])[H] | RMSD: 0.8681 | 3324.00 to state    1 from traj    1 on state    2
C     -1.697532     0.216130     0.140919
H     -1.252677    -0.736922    -0.038268
H     -1.625559     0.248625    -1.166189
C     -0.952570     1.438827     0.009183
H     -1.638527     2.349976     0.218538
H      0.362820     1.173210    -0.805938
6
Family_1 [H+].[H][C-]=C([H])[H] | RMSD: 0.3771 | 804.00 to state    1 from traj    1 on state    2
C     -1.621718     0.158443     0.002640
H     -1.250400    -0.770701    -0.587411
H     -2.616148     0.343805     0.360855
C     -0.866472     1.427581     0.058847
H     -2.256258     3.167681    -0.393077
H      0.039559     1.115482    -0.116311
6
Family_1 [H+].[H][C-]=C([H])[H] | RMSD: 0.2287 | 912.00 to state    1 from traj    1 on state    2
C     -1.625199     0.224022    -0.004794
H     -1.355894    -0.734471     0.199293
H     -2.697113     0.120175    -0.133347
C     -0.843661     1.417681    -0.026579
H     -2.469601     2.943292     0.267630
H      0.209036     0.863822     0.036981
6
Family_1 [H+].[H][C-]=C([H])[H] | RMSD: 0.1858 | 372.00 to state    1 from traj    1 on state    2
C     -1.611390     0.140638     0.013457
H     -1.117230    -0.698039    -0.034437
H     -2.634163     0.269829    -0.119982
C     -0.908294     1.420131    -0.009209
H     -2.132030     3.513166     0.125177
H      0.175449     1.072250    -0.024666
6
Family_1 [H+].[H][C-]=C([H])[H] | RMSD: 0.4931 | 680.00 to state    1 from traj    1 on state    2
C     -1.621199     0.205468     0.027891
H     -1.440941    -0.683210     0.479902
H     -2.510854     0.277994    -0.527951
C     -0.867580     1.344389    -0.108076
H     -2.483728     3.315002     0.711634
H      0.359304     1.377432     0.288592
6
Family_1 [H+].[H][C-]=C([H])[H] | RMSD: 0.7037 | 1676.00 to state    1 from traj    1 on state    2
C     -1.689645     0.253720     0.044299
H     -1.426483    -0.683477    -0.475362
H     -2.754254     0.290602     0.238564
C     -0.734565     1.380764    -0.131967
H     -2.573500     2.193227     0.276252
H     -0.091370     1.478491     1.001882
6
Family_1 [H+].[H][C-]=C([H])[H] | RMSD: 0.8859 | 2844.00 to state    1 from traj    1 on state    2
C     -1.510813     0.218873     0.021712
H     -1.193877    -0.942283    -0.465465
H     -2.448986     0.472944     0.375434
C     -1.031305     1.564894    -0.125242
H     -1.735619     2.316643     0.224225
H     -0.062166    -0.347272     1.096152
6
Family_1 [H+].[H][C-]=C([H])[H] | RMSD: 0.9094 | 9984.00 to state    1 from traj    1 on state    2
C     -1.533621     0.252190     0.039455
H     -0.913891    -0.842645    -1.038099
H     -2.542295    -0.068850     0.532891
C     -1.013099     1.522533    -0.020888
H     -1.370768     2.536420    -0.333422
H     -0.558866    -0.017133     0.614105
6
Family_1 [H+].[H][C-]=C([H])[H] | RMSD: 0.8706 | 3056.00 to state    1 from traj    1 on state    2
C     -1.453284     0.115678     0.155215
H     -2.131033    -0.398762    -0.267569
H     -2.336089     1.091033    -1.065799
C     -1.028063     1.396471    -0.020321
H     -1.697020     2.531793     0.145665
H     -0.000635     1.512490    -0.422927
6
Family_1 [H+].[H][C-]=C([H])[H] | RMSD: 0.3869 | 616.00 to state    1 from traj    1 on state    2
C     -1.611351     0.148970     0.009962
H     -1.192030    -0.826770    -0.416461
H     -2.730867    -0.037258     0.140444
C     -0.899538     1.410043     0.038119
H     -2.041032     3.733702    -0.197104
H      0.151171     1.308456    -0.103081
6
Family_1 [H+].[H][C-]=C([H])[H] | RMSD: 0.7099 | 632.00 to state    1 from traj    1 on state    2
C     -1.614793     0.168653    -0.033120
H     -1.531487    -0.588149    -0.766734
H     -2.358075    -0.102625     0.697202
C     -0.934284     1.406861     0.119670
H     -1.797130     3.245973    -0.709594
H      0.328969     1.426304    -0.255459
6
Family_1 [H+].[H][C-]=C([H])[H] | RMSD: 0.5290 | 1272.00 to state    1 from traj    1 on state    2
C     -1.600934     0.173072     0.028843
H     -1.187312    -0.814699     0.590311
H     -2.520998     0.134027    -0.674632
C     -0.960671     1.421661    -0.094708
H     -1.812361     3.298335     0.728954
H      0.312211     1.134834     0.136919
6
Family_1 [H+].[H][C-]=C([H])[H] | RMSD: 0.3040 | 604.00 to state    1 from traj    1 on state    2
C     -1.616346     0.201169     0.005566
H     -1.094959    -1.013397     0.113172
H     -2.820466     0.163147    -0.170608
C     -0.866224     1.359395    -0.029174
H     -2.473016     3.744340     0.282398
H      0.238226     1.265548     0.053061
6
Family_1 [H+].[H][C-]=C([H])[H] | RMSD: 0.9518 | 1572.00 to state    1 from traj    1 on state    2
C     -1.420958     0.169503    -0.018426
H     -1.437046    -1.345007     0.310076
H     -2.515641     0.328093    -0.344969
C     -1.063593     1.642371     0.093681
H     -1.378602     2.603004    -0.083116
H     -0.795311    -0.420981    -0.781981
6
Family_1 [H+].[H][C-]=C([H])[H] | RMSD: 0.2061 | 536.00 to state    1 from traj    1 on state    2
C     -1.649157     0.200076     0.020959
H     -1.331041    -0.815103     0.041532
H     -2.734559     0.281981    -0.218424
C     -0.817482     1.412440    -0.016210
H     -2.566160     2.971730     0.187365
H      0.291730     1.102001    -0.070351
6
Family_1 [H+].[H][C-]=C([H])[H] | RMSD: 0.2270 | 1764.00 to state    1 from traj    1 on state    2
C     -1.591705     0.232194    -0.021145
H     -1.356697    -0.709819    -0.095761
H     -2.557151     0.309718     0.179492
C     -0.870096     1.373940     0.027816
H     -2.553751     3.144143    -0.070070
H      0.069918     0.872611    -0.096428
6
Family_1 [H+].[H][C-]=C([H])[H] | RMSD: 0.8174 | 6116.00 to state    1 from traj    1 on state    2
C     -1.557575     0.191201    -0.045318
H     -1.081388    -0.678305     0.507828
H     -2.462609    -0.253998    -0.330924
C     -1.034227     1.559200     0.127104
H     -1.407799     2.911256    -0.097239
H      0.103156    -0.081347    -1.057476
6
Family_1 [H+].[H][C-]=C([H])[H] | RMSD: 0.8978 | 6384.00 to state    1 from traj    1 on state    2
C     -1.588750     0.256700     0.044784
H     -0.849586    -0.549049     0.165721
H     -2.446158     0.048886    -0.711769
C     -0.989008     1.516049     0.103389
H     -1.532955     2.214578    -0.104379
H     -0.187273    -0.083092    -1.118446
6
Family_1 [H+].[H][C-]=C([H])[H] | RMSD: 0.1858 | 544.00 to state    1 from traj    1 on state    2
C     -1.641276     0.182011    -0.015418
H     -1.358806    -0.842728    -0.030036
H     -2.621366     0.217810     0.100306
C     -0.834500     1.426276     0.010935
H     -2.453603     3.119770     0.022722
H      0.202614     1.096146    -0.042852
6
Family_1 [H+].[H][C-]=C([H])[H] | RMSD: 0.2882 | 2056.00 to state    1 from traj    1 on state    2
C     -1.653829     0.254286     0.010189
H     -1.180386    -0.758255     0.100800
H     -2.796891     0.419387    -0.145473
C     -0.796418     1.349476    -0.029814
H     -2.868002     2.931207     0.245610
H      0.309926     1.052577     0.029621
6
Family_1 [H+].[H][C-]=C([H])[H] | RMSD: 0.9787 | 15280.00 to state    1 from traj    1 on state    2
C     -1.655333     0.277243     0.027404
H     -1.857241    -0.303752     0.889825
H     -2.384358     0.414149    -0.745286
C     -0.772730     1.357818    -0.157241
H     -2.575386     1.778198     1.000992
H      0.017292     1.383367     0.398276
6
Family_1 [H+].[H][C-]=C([H])[H] | RMSD: 0.9631 | 17404.00 to state    1 from traj    1 on state    2
C     -1.559117     0.096353     0.167199
H     -1.903446    -0.724481    -0.215425
H     -1.263117     1.032282    -1.032920
C     -1.027853     1.451009    -0.116410
H     -1.666600     2.701162     0.510320
H     -0.073045     1.307988     0.129557
6
Family_1 [H+].[H][C-]=C([H])[H] | RMSD: 0.9513 | 13692.00 to state    1 from traj    1 on state    2
C     -1.548343     0.317534     0.045848
H     -0.984651    -0.517756    -0.495345
H     -2.326209    -0.097402     0.170058
C     -1.023024     1.508253    -0.108973
H     -1.615855     2.131396     0.210052
H     -0.165419    -0.516907     0.864128
6
Family_1 [H+].[H][C-]=C([H])[H] | RMSD: 0.9041 | 13796.00 to state    1 from traj    1 on state    2
C     -1.524940     0.350665     0.034029
H     -0.980603    -0.504474    -0.447882
H     -2.522762    -0.115511     0.240481
C     -1.008728     1.452582    -0.124840
H     -1.734180     2.244356     0.273413
H     -0.303799    -0.356463     1.012779
6
Family_1 [H+].[H][C-]=C([H])[H] | RMSD: 0.7176 | 644.00 to state    1 from traj    1 on state    2
C     -1.642959     0.116244    -0.025787
H     -1.760733    -0.709565    -0.842694
H     -2.365526     0.048522     0.786983
C     -0.859711     1.469253     0.076429
H     -2.010999     3.028177    -0.623657
H      0.226557     1.495409     0.072646
6
Family_1 [H+].[H][C-]=C([H])[H] | RMSD: 0.8724 | 1448.00 to state    1 from traj    1 on state    2
C     -1.693729     0.186299     0.038484
H     -1.633726    -0.746943     0.637534
H     -2.338361     0.363511    -0.978243
C     -0.740583     1.448845     0.069411
H     -2.460191     2.235872     0.223496
H     -0.292954     1.418528    -1.171718
6
Family_1 [H+].[H][C-]=C([H])[H] | RMSD: 0.8107 | 2744.00 to state    1 from traj    1 on state    2
C     -1.629623     0.216613     0.049963
H     -1.785072    -0.736354     0.421666
H     -2.396955     0.331156    -0.856145
C     -0.759424     1.428136     0.038074
H     -2.425763     2.229043     0.224746
H     -0.656802     1.332686    -0.842573
6
Family_1 [H+].[H][C-]=C([H])[H] | RMSD: 0.9688 | 4176.00 to state    1 from traj    1 on state    2
C     -1.568245     0.191788    -0.079702
H     -1.320182    -0.903669    -0.277065
H     -2.219159     0.333226     1.072498
C     -0.946803     1.506788    -0.129435
H     -1.703023     2.506648     0.198381
H     -0.520855     0.578931     1.494924
6
Family_1 [H+].[H][C-]=C([H])[H] | RMSD: 0.7975 | 2148.00 to state    2 from traj    3 on state    1
C     -1.780498     0.211573    -0.042304
H     -0.983459    -0.526775    -0.044631
H     -2.559258     0.067843     0.557840
C     -0.711694     1.448807    -0.096967
H     -2.100989     1.954067     0.259243
H     -0.391851     1.475134     0.883782
6
Family_1 [H+].[H][C-]=C([H])[H] | RMSD: 0.7668 | 3072.00 to state    1 from traj    4 on state    2
C     -1.543839     0.192714     0.082048
H     -1.824479    -0.667082    -0.399393
H     -2.585178     1.121731    -0.405275
C     -0.860571     1.305978     0.037199
H     -2.391770     2.493384    -0.178019
H     -0.280111     1.948853    -0.441492
6
Family_1 [H+].[H][C-]=C([H])[H] | RMSD: 1.0748 | 4204.00 to state    1 from traj    1 on state    2
C     -1.680972     0.300957     0.086992
H     -1.420773    -0.808422     0.281295
H     -2.155804     0.872898    -0.946859
C     -0.731183     1.280873     0.003619
H     -2.481965     1.754994     0.288401
H     -0.930712     2.086779    -0.705807
6
Family_1 [H+].[H][C-]=C([H])[H] | RMSD: 1.0135 | 4504.00 to state    1 from traj    1 on state    2
C     -1.713541     0.398702     0.066377
H     -1.597654    -0.675871     0.297579
H     -2.346190     0.175759    -0.841597
C     -0.626774     1.234711     0.024224
H     -3.037818     1.881247     0.247822
H     -0.863611     1.910463    -0.786660
6
Family_1 [H+].[H][C-]=C([H])[H] | RMSD: 1.0340 | 4652.00 to state    1 from traj    1 on state    2
C     -1.709562     0.425284     0.024108
H     -1.679180    -0.594552     0.636311
H     -2.688789    -0.027503    -0.801999
C     -0.619170     1.225163     0.028467
H     -3.072875     1.784036     0.350419
H     -0.542448     1.926648    -0.814484
6
Family_1 [H+].[H][C-]=C([H])[H] | RMSD: 1.0819 | 3464.00 to state    1 from traj    1 on state    2
C     -1.391185     0.255909    -0.075855
H     -1.340259    -0.468389     0.915659
H     -3.144916    -0.360114    -0.417808
C     -1.052649     1.531953     0.090637
H     -1.198760     2.591429     0.158789
H     -0.927841    -0.311688    -0.836056
6
Family_1 [H+].[H][C-]=C([H])[H] | RMSD: 0.4693 | 420.00 to state    1 from traj    1 on state    2
C     -1.571908     0.093808     0.000881
H     -1.378104    -1.033904    -0.097367
H     -2.691552     0.033473    -0.021731
C     -0.968499     1.462389     0.000589
H     -1.639705     3.779007     0.060531
H      0.248323     1.433107     0.037769
6
Family_1 [H+].[H][C-]=C([H])[H] | RMSD: 0.3953 | 1660.00 to state    1 from traj    1 on state    2
C     -1.608988     0.141716    -0.016235
H     -1.096531    -0.834727    -0.309640
H     -2.657774     0.293300     0.267049
C     -0.918191     1.380167     0.049538
H     -2.145432     3.790783    -0.222703
H      0.281065     1.371206    -0.134813
6
Family_1 [H+].[H][C-]=C([H])[H] | RMSD: 0.4901 | 1944.00 to state    1 from traj    1 on state    2
C     -1.575484     0.180996    -0.009576
H     -1.313448    -0.748148    -0.399507
H     -2.662437     0.203511     0.267489
C     -0.880193     1.318465     0.057028
H     -2.543163     4.058877    -0.264289
H      0.048387     1.373487    -0.172399
6
Family_1 [H+].[H][C-]=C([H])[H] | RMSD: 0.4891 | 2136.00 to state    1 from traj    1 on state    2
C     -1.602474     0.204685    -0.003216
H     -1.331904    -0.828653    -0.441322
H     -2.621759     0.103487     0.235406
C     -0.872599     1.318264     0.067749
H     -2.600134     3.956396    -0.302794
H      0.314259     1.376620    -0.263530
6
Family_1 [H+].[H][C-]=C([H])[H] | RMSD: 0.2728 | 444.00 to state    1 from traj    1 on state    2
C     -1.626068     0.170792    -0.038892
H     -1.316407    -0.766399     0.376239
H     -2.743259     0.455570    -0.000432
C     -0.848279     1.431115    -0.017236
H     -2.461551     2.965962     0.264011
H      0.273031     1.011879     0.025703
6
Family_1 [H+].[H][C-]=C([H])[H] | RMSD: 0.2628 | 576.00 to state    1 from traj    1 on state    2
C     -1.610542     0.184019    -0.032649
H     -1.348823    -0.798187     0.338556
H     -2.735452     0.448205    -0.007896
C     -0.847964     1.409035    -0.029470
H     -2.501953     3.055624     0.296862
H      0.149280     1.066863     0.109379
6
Family_1 [H+].[H][C-]=C([H])[H] | RMSD: 0.2840 | 5056.00 to state    1 from traj    1 on state    2
C     -1.595736     0.238362    -0.026955
H     -1.581044    -0.904502     0.113432
H     -2.650002     0.270638     0.070364
C     -0.843563     1.393303     0.008900
H     -2.630497     2.955241     0.085354
H      0.195728     0.991053    -0.057294
6
Family_1 [H+].[H][C-]=C([H])[H] | RMSD: 0.2926 | 6220.00 to state    1 from traj    1 on state    2
C     -1.634538     0.189219    -0.012071
H     -1.405312    -0.968039    -0.198612
H     -2.638289     0.447255     0.211727
C     -0.828266     1.401395     0.020387
H     -2.617854     3.096905    -0.092029
H      0.275727     1.225457    -0.023461
6
Family_1 [H+].[H][C-]=C([H])[H] | RMSD: 0.3041 | 6340.00 to state    1 from traj    1 on state    2
C     -1.662204     0.193231    -0.022971
H     -1.281193    -0.901044    -0.148212
H     -2.671015     0.402450     0.265500
C     -0.799172     1.381279     0.019639
H     -2.719291     3.184645    -0.073498
H      0.268755     1.307414    -0.007370
6
Family_1 [H+].[H][C-]=C([H])[H] | RMSD: 0.2958 | 8028.00 to state    1 from traj    1 on state    2
C     -1.637861     0.130155     0.005020
H     -1.209820    -0.931224     0.023367
H     -2.738812     0.301495    -0.099242
C     -0.844540     1.403559    -0.011042
H     -2.379257     3.652630     0.159485
H      0.175671     1.456688    -0.015128
6
Family_1 [H+].[H][C-]=C([H])[H] | RMSD: 0.3410 | 500.00 to state    1 from traj    1 on state    2
C     -1.649132     0.172519    -0.016362
H     -1.428876    -0.695225    -0.254193
H     -2.694137     0.426695     0.302852
C     -0.814639     1.428594     0.025724
H     -2.552329     2.818644    -0.164371
H      0.301130     1.126367     0.000877
6
Family_1 [H+].[H][C-]=C([H])[H] | RMSD: 0.3573 | 632.00 to state    1 from traj    1 on state    2
C     -1.644567     0.224050    -0.031353
H     -1.338447    -0.990404    -0.248838
H     -2.778966     0.371054     0.376356
C     -0.809243     1.401026     0.047755
H     -2.650097     2.866233    -0.229947
H      0.274611     1.144056    -0.096296
6
Family_1 [H+].[H][C-]=C([H])[H] | RMSD: 0.2689 | 4592.00 to state    1 from traj    1 on state    2
C     -1.660746     0.107475    -0.024106
H     -1.068301    -0.669347    -0.110080
H     -2.642828     0.304387     0.237495
C     -0.867886     1.436489     0.016235
H     -2.192042     3.476920    -0.050404
H      0.301822     1.245492     0.013488
6
Family_1 [H+].[H][C-]=C([H])[H] | RMSD: 0.2567 | 452.00 to state    1 from traj    1 on state    2
C     -1.628361     0.138619    -0.007964
H     -1.490505    -0.804557    -0.088937
H     -2.689708     0.305085     0.080969
C     -0.839185     1.427435     0.013476
H     -2.429912     3.282361    -0.010125
H      0.280897     1.311339    -0.050865
6
Family_1 [H+].[H][C-]=C([H])[H] | RMSD: 0.2146 | 356.00 to state    1 from traj    1 on state    2
C     -1.659593     0.165336    -0.015687
H     -1.259239    -0.910116    -0.057809
H     -2.791101     0.360352     0.136203
C     -0.811364     1.455020     0.012393
H     -2.456895     2.898306    -0.011037
H      0.218653     1.098642    -0.031390
6
Family_1 [H+].[H][C-]=C([H])[H] | RMSD: 0.2451 | 552.00 to state    1 from traj    1 on state    2
C     -1.665025     0.201368    -0.018329
H     -1.343381    -0.796441    -0.044760
H     -2.664101     0.193745     0.142692
C     -0.801210     1.396560     0.011664
H     -2.635639     3.110516     0.012317
H      0.298274     1.206599    -0.034115
6
Family_1 [H+].[H][C-]=C([H])[H] | RMSD: 0.9489 | 3892.00 to state    1 from traj    1 on state    2
C     -1.461185     0.166957    -0.008095
H     -1.959444    -0.278999    -0.786011
H     -2.466120     1.068951     0.801803
C     -0.985057     1.364605    -0.042570
H     -1.886978     2.351025    -0.288303
H     -0.270538     1.364248     0.872944
6
Family_1 [H+].[H][C-]=C([H])[H] | RMSD: 0.7146 | 372.00 to state    1 from traj    1 on state    2
C     -1.742261     0.198312     0.102581
H     -1.187702     0.044583    -0.960978
H     -2.749405     0.000446     0.052093
C     -0.756654     1.336301    -0.052464
H     -2.298417     2.631263    -0.131103
H      0.280081     1.792582     0.439533
6
Family_1 [H+].[H][C-]=C([H])[H] | RMSD: 0.6360 | 580.00 to state    1 from traj    1 on state    2
C     -1.654238     0.211637     0.090993
H     -1.434843    -0.201591    -0.888151
H     -2.817047     0.256069     0.101550
C     -0.784814     1.339175    -0.070717
H     -2.426136     2.631432    -0.058570
H      0.009272     1.589938     0.600296
6
Family_1 [H+].[H][C-]=C([H])[H] | RMSD: 0.2214 | 404.00 to state    1 from traj    1 on state    2
C     -1.665293     0.167948     0.006151
H     -1.297805    -0.853742     0.052353
H     -2.693592     0.304268    -0.103860
C     -0.816758     1.474585    -0.010173
H     -2.414457     2.771475     0.141332
H      0.249461     0.960924    -0.045186
6
Family_1 [H+].[H][C-]=C([H])[H] | RMSD: 1.0734 | 9296.00 to state    1 from traj    1 on state    2
C     -1.439508     0.221487     0.060327
H     -1.290285    -0.833528    -1.036534
H     -2.436264    -0.058610     0.398348
C     -1.055872     1.587179    -0.059360
H     -1.347482     2.638722    -0.190310
H     -0.923532    -0.543247     0.813691
6
Family_1 [H+].[H][C-]=C([H])[H] | RMSD: 0.3735 | 628.00 to state    1 from traj    1 on state    2
C     -1.620411     0.172255     0.005002
H     -1.382848    -0.793510     0.423377
H     -2.824694     0.122914    -0.362629
C     -0.840654     1.402929    -0.069223
H     -2.344739     3.318454     0.533502
H      0.145832     1.337579     0.167708
6
Family_1 [H+].[H][C-]=C([H])[H] | RMSD: 0.8709 | 4484.00 to state    1 from traj    1 on state    2
C     -1.635556     0.260826     0.004912
H     -1.699104    -0.299835    -0.887889
H     -2.765270    -0.183345     0.774773
C     -0.762050     1.377762    -0.052282
H     -2.304608     2.322412    -0.227226
H     -0.393635     1.390699     0.901508
6
Family_1 [H+].[H][C-]=C([H])[H] | RMSD: 0.9653 | 16520.00 to state    1 from traj    1 on state    2
C     -1.520228     0.229839     0.053274
H     -1.293933    -0.400620    -0.654521
H     -2.397398    -0.319500     0.270377
C     -1.051838     1.545913    -0.144655
H     -1.388341     2.610451     0.254484
H     -0.004137    -0.294802     1.215236
6
Family_1 [H+].[H][C-]=C([H])[H] | RMSD: 0.3642 | 460.00 to state    1 from traj    1 on state    2
C     -1.627492     0.145156    -0.010586
H     -1.331624    -0.803370    -0.442355
H     -2.647911     0.202386     0.331781
C     -0.863246     1.420659     0.058973
H     -2.249084     3.395200    -0.324787
H      0.175740     1.302863    -0.144478
6
Family_1 [H+].[H][C-]=C([H])[H] | RMSD: 0.3349 | 10412.00 to state    1 from traj    1 on state    2
C     -1.660576     0.198441     0.012629
H     -1.101073    -0.599429    -0.534086
H     -2.688023    -0.038336     0.246115
C     -0.845217     1.421493     0.045195
H     -2.284445     3.147562    -0.294618
H      0.200049     0.942417    -0.109709
6
Family_1 [H+].[H][C-]=C([H])[H] | RMSD: 0.3326 | 11564.00 to state    1 from traj    1 on state    2
C     -1.697027     0.195184     0.001055
H     -1.290272    -0.784614     0.017044
H     -2.822664     0.316054    -0.033702
C     -0.777257     1.437661    -0.000868
H     -2.609038     2.618752     0.083858
H      0.473025     1.148176    -0.072718
6
Family_1 [H+].[H][C-]=C([H])[H] | RMSD: 0.3339 | 14332.00 to state    1 from traj    1 on state    2
C     -1.602718     0.229067     0.009551
H     -1.557577    -0.845105     0.160905
H     -2.713214     0.448863    -0.185328
C     -0.839339     1.375437    -0.043951
H     -2.726519     2.935584     0.312435
H      0.364367     1.096736     0.118603
6
Family_1 [H+].[H][C-]=C([H])[H] | RMSD: 0.3211 | 572.00 to state    1 from traj    1 on state    2
C     -1.638678     0.199638    -0.001992
H     -1.454070    -0.977331    -0.039881
H     -2.844889     0.468182     0.026077
C     -0.798866     1.395270    -0.002934
H     -2.753978     2.972672     0.069797
H      0.366220     1.286891    -0.000577
6
Family_1 [H+].[H][C-]=C([H])[H] | RMSD: 0.1555 | 3244.00 to state    1 from traj    1 on state    2
C     -1.620478     0.199210     0.000055
H     -1.192951    -0.874610    -0.149327
H     -2.668244     0.282571     0.070895
C     -0.866122     1.384533     0.007119
H     -2.459026     3.373574     0.006278
H      0.218027     1.101919    -0.016611
6
Family_1 [H+].[H][C-]=C([H])[H] | RMSD: 0.4404 | 12600.00 to state    1 from traj    1 on state    2
C     -1.700208     0.240177     0.008674
H     -1.354629    -0.872107     0.225790
H     -2.671188     0.380442    -0.219079
C     -0.755001     1.405495    -0.034076
H     -2.746738     2.420923     0.302669
H      0.296321     1.216277    -0.009975
6
Family_1 [H+].[H][C-]=C([H])[H] | RMSD: 0.4362 | 432.00 to state    1 from traj    1 on state    2
C     -1.589653     0.125921    -0.020775
H     -1.446068    -0.889646    -0.328179
H     -2.655162     0.195447     0.305116
C     -0.903488     1.405465     0.053189
H     -2.136967     3.724413    -0.252307
H      0.213947     1.477109    -0.114142
6
Family_1 [H+].[H][C-]=C([H])[H] | RMSD: 0.4431 | 632.00 to state    1 from traj    1 on state    2
C     -1.610014     0.184673    -0.023978
H     -1.210776    -0.816145    -0.347122
H     -2.638035    -0.025095     0.333659
C     -0.884089     1.357210     0.060187
H     -2.298538     3.884518    -0.263983
H      0.134561     1.338970    -0.157281
6
Family_1 [H+].[H][C-]=C([H])[H] | RMSD: 1.0028 | 3732.00 to state    1 from traj    1 on state    2
C     -1.480495     0.073802    -0.085397
H     -1.493745    -1.067450    -0.254439
H     -2.754318    -0.042201     0.885249
C     -1.003895     1.684316    -0.029014
H     -0.967373     2.668423    -0.106475
H     -0.913092     0.246880     0.835658
6
Family_1 [H+].[H][C-]=C([H])[H] | RMSD: 0.2965 | 596.00 to state    1 from traj    1 on state    2
C     -1.622326     0.204749     0.005357
H     -1.334106    -0.823979    -0.341902
H     -2.682923     0.260695     0.141729
C     -0.841123     1.362111     0.041433
H     -2.622904     3.417691    -0.187147
H      0.261892     1.230222    -0.173494
6
Family_1 [H+].[H][C-]=C([H])[H] | RMSD: 0.9545 | 2276.00 to state    1 from traj    1 on state    2
C     -1.441937     0.266036    -0.083025
H     -1.347293    -0.581628     0.821403
H     -2.543386     0.296288    -0.285927
C     -1.069771     1.499904     0.137858
H     -1.668416     2.397554    -0.059926
H     -0.243912    -0.399762    -1.132196
6
Family_1 [H+].[H][C-]=C([H])[H] | RMSD: 0.9596 | 8448.00 to state    1 from traj    1 on state    2
C     -1.454996     0.098100    -0.048775
H     -1.076572    -0.714019     0.736922
H     -2.748395     0.867346    -0.421229
C     -1.035325     1.601437     0.101037
H     -1.449673     2.524077     0.021748
H     -0.783208    -0.173714    -0.963455
6
Family_1 [H+].[H][C-]=C([H])[H] | RMSD: 0.8516 | 9652.00 to state    1 from traj    1 on state    2
C     -1.523427     0.143526    -0.067114
H     -1.208634    -0.439322     0.972536
H     -2.487298     0.115994    -0.403795
C     -1.054162     1.566335     0.043256
H     -1.232160     2.634301     0.323092
H     -0.089905     0.069690    -0.610824
6
Family_1 [H+].[H][C-]=C([H])[H] | RMSD: 1.0856 | 9764.00 to state    1 from traj    1 on state    2
C     -1.479480     0.187840    -0.040287
H     -1.434731    -1.013486    -0.707980
H     -2.145524    -0.150248     0.943467
C     -1.064219     1.627199    -0.048977
H     -1.336646     2.771043    -0.184069
H     -0.504908    -0.479907     1.008942
6
Family_1 [H+].[H][C-]=C([H])[H] | RMSD: 0.9565 | 6752.00 to state    1 from traj    1 on state    2
C     -1.596729     0.143022    -0.055174
H     -1.235943    -0.874514    -0.354879
H     -2.647686    -0.132542     0.887051
C     -0.925339     1.555438    -0.120727
H     -1.228009     2.572279     0.172859
H     -0.567928     0.951305     1.387655
6
Family_1 [H+].[H][C-]=C([H])[H] | RMSD: 0.9681 | 5876.00 to state    1 from traj    1 on state    2
C     -1.504783     0.273731    -0.007891
H     -0.956053    -0.563732    -0.295489
H     -2.429637    -0.216596     0.430326
C     -1.066090     1.506595    -0.119925
H     -1.218119     2.551157     0.280813
H     -0.494221    -0.229802     1.104082
6
Family_1 [H+].[H][C-]=C([H])[H] | RMSD: 0.9727 | 6012.00 to state    1 from traj    1 on state    2
C     -1.510926     0.223408    -0.047402
H     -1.217321    -0.741309    -0.316225
H     -2.349983     0.016122     0.773000
C     -1.058257     1.539394    -0.108503
H     -1.212128     2.425468     0.162907
H     -0.338723     0.049552     1.234746
6
Family_1 [H+].[H][C-]=C([H])[H] | RMSD: 0.9358 | 6304.00 to state    1 from traj    1 on state    2
C     -1.510525     0.179959    -0.007510
H     -1.383718    -0.840843    -0.576604
H     -2.203024     0.489854     0.731452
C     -1.025277     1.497624    -0.138591
H     -1.462805     2.562812     0.164230
H     -0.466360     0.553470     1.418529
6
Family_1 [H+].[H][C-]=C([H])[H] | RMSD: 1.0609 | 4676.00 to state    1 from traj    1 on state    2
C     -1.703036     0.325236     0.042084
H     -1.497951    -0.577730     0.621417
H     -2.157239     0.531241    -0.851443
C     -0.701416     1.247987    -0.010773
H     -2.567960     1.870152     0.457350
H     -0.857893     2.185134    -0.603696
6
Family_1 [H+].[H][C-]=C([H])[H] | RMSD: 0.8728 | 3096.00 to state    1 from traj    1 on state    2
C     -1.597193     0.134763     0.019440
H     -1.208836    -1.012085     0.324230
H     -2.324299    -0.036287    -0.702609
C     -0.971696     1.573870     0.125759
H     -1.160202     2.658353    -0.113121
H     -0.428324     0.785313    -1.241916
6
Family_1 [H+].[H][C-]=C([H])[H] | RMSD: 1.0287 | 6560.00 to state    1 from traj    1 on state    2
C     -1.429192     0.310934    -0.031097
H     -1.163077    -0.668494     0.540287
H     -2.531069     0.126705    -0.501830
C     -1.060687     1.473550     0.143762
H     -1.530306     2.416002    -0.133565
H     -0.838669    -0.382727    -1.250654
6
Family_1 [H+].[H][C-]=C([H])[H] | RMSD: 1.0131 | 8524.00 to state    1 from traj    1 on state    2
C     -1.549367    -0.099904     0.147416
H     -2.082312    -1.054187    -0.188872
H     -1.882312     1.698516    -0.985744
C     -0.977722     1.546438    -0.050585
H     -1.754743     2.987579     0.261554
H      0.099633     1.886477    -0.244021
6
Family_1 [H+].[H][C-]=C([H])[H] | RMSD: 0.9261 | 2540.00 to state    1 from traj    1 on state    2
C     -1.491493     0.226309    -0.005320
H     -1.578069    -0.637814    -0.733774
H     -2.339278    -0.446873     0.578455
C     -1.064463     1.569965     0.006721
H     -1.277837     2.637131    -0.319945
H     -0.080578    -0.201444     0.455296
6
Family_1 [H+].[H][C-]=C([H])[H] | RMSD: 0.3246 | 612.00 to state    1 from traj    1 on state    2
C     -1.654671     0.160320    -0.032839
H     -1.128681    -0.723538     0.194636
H     -2.703448     0.326968     0.084097
C     -0.830092     1.362529    -0.010412
H     -2.606942     3.645442     0.191642
H      0.314999     1.360178     0.041703
6
Family_1 [H+].[H][C-]=C([H])[H] | RMSD: 1.0111 | 2408.00 to state    1 from traj    1 on state    2
C     -1.528486     0.217624    -0.025325
H     -1.106042    -0.565489     0.649746
H     -2.584243     0.365926    -0.683068
C     -0.989420     1.478297     0.190155
H     -1.534684     2.359940    -0.233947
H     -0.504183     0.386400    -1.700066
6
Family_1 [H+].[H][C-]=C([H])[H] | RMSD: 0.9418 | 5512.00 to state    1 from traj    1 on state    2
C     -1.470422     0.169505    -0.070779
H     -1.339331    -0.587829     1.143249
H     -2.387881     0.185224    -0.542727
C     -1.106543     1.552405     0.048636
H     -1.193307     2.685201     0.394891
H     -0.104904    -0.045493    -0.734840
6
Family_1 [H+].[H][C-]=C([H])[H] | RMSD: 1.0273 | 8176.00 to state    1 from traj    1 on state    2
C     -1.526548     0.175067     0.015661
H     -1.133395    -0.382202    -0.879449
H     -2.497030    -0.314441     0.615750
C     -1.086442     1.593817    -0.038777
H     -0.934246     2.553498    -0.249891
H     -0.031487    -0.179482     0.785745
6
Family_1 [H+].[H][C-]=C([H])[H] | RMSD: 0.3778 | 1908.00 to state    1 from traj    1 on state    2
C     -1.634437     0.280266    -0.000235
H     -1.432218    -0.735268     0.200814
H     -2.733015     0.369021    -0.136644
C     -0.796762     1.345609    -0.036010
H     -2.885312     2.703857     0.294683
H      0.288218     1.043814     0.069747
6
Family_1 [H+].[H][C-]=C([H])[H] | RMSD: 0.3795 | 1928.00 to state    1 from traj    1 on state    2
C     -1.638726     0.278514     0.000982
H     -1.412658    -0.723880     0.179869
H     -2.697101     0.406082    -0.121134
C     -0.796267     1.340688    -0.038475
H     -2.900214     2.713754     0.292233
H      0.292857     1.064981     0.092506
6
Family_1 [H+].[H][C-]=C([H])[H] | RMSD: 0.2882 | 3552.00 to state    1 from traj    1 on state    2
C     -1.639996     0.189992    -0.007239
H     -1.529724    -0.911535    -0.210018
H     -2.725515     0.107973     0.160999
C     -0.805950     1.440059     0.024154
H     -2.482783     2.966148    -0.099327
H      0.151417     1.169080    -0.056500
6
Family_1 [H+].[H][C-]=C([H])[H] | RMSD: 0.8958 | 5808.00 to state    1 from traj    1 on state    2
C     -1.526444     0.128236    -0.057745
H     -1.736723    -0.666386    -0.675267
H     -2.236961     0.749580     1.024175
C     -1.007253     1.401324     0.006834
H     -1.531990     2.780732    -0.414548
H     -0.035322     1.665162     0.668998
6
Family_1 [H+].[H][C-]=C([H])[H] | RMSD: 0.4010 | 1564.00 to state    1 from traj    1 on state    2
C     -1.646607     0.239435    -0.004970
H     -1.430437    -0.862125     0.415290
H     -2.809412     0.248033    -0.258822
C     -0.807187     1.385296    -0.061526
H     -2.691725     2.846666     0.482394
H      0.438487     1.162478     0.150203
6
Family_1 [H+].[H][C-]=C([H])[H] | RMSD: 0.4574 | 4064.00 to state    1 from traj    1 on state    2
C     -1.658981     0.218558    -0.026979
H     -1.457206    -0.683664     0.556034
H     -2.789067     0.229063    -0.196821
C     -0.799472     1.417731    -0.053568
H     -2.556632     2.598822     0.481082
H      0.365318     1.113102     0.116196
6
Family_1 [H+].[H][C-]=C([H])[H] | RMSD: 0.8244 | 4572.00 to state    1 from traj    1 on state    2
C     -1.695191     0.169180    -0.010366
H     -1.550487    -0.809181     0.639847
H     -2.530502     0.446881    -0.584631
C     -0.736199     1.499201     0.082670
H     -2.336709     1.950116     0.097694
H     -0.342354     1.287119    -1.017737
6
Family_1 [H+].[H][C-]=C([H])[H] | RMSD: 0.9391 | 1336.00 to state    1 from traj    1 on state    2
C     -1.396477     0.210073    -0.055143
H     -1.670267    -1.054477     0.748771
H     -2.427624     0.122711    -0.397290
C     -1.131297     1.571140     0.070268
H     -1.092090     2.543379     0.158563
H     -0.421590    -0.081140    -0.693559
6
Family_1 [H+].[H][C-]=C([H])[H] | RMSD: 0.3450 | 480.00 to state    1 from traj    1 on state    2
C     -1.635093     0.201971     0.003597
H     -1.516781    -0.793859    -0.378583
H     -2.493337     0.295943     0.212754
C     -0.832814     1.396577     0.036416
H     -2.568049     3.024984    -0.211653
H      0.253239     1.179974    -0.102585
6
Family_1 [H+].[H][C-]=C([H])[H] | RMSD: 0.3514 | 504.00 to state    1 from traj    1 on state    2
C     -1.632839     0.207685    -0.000779
H     -1.520601    -0.819444    -0.359237
H     -2.531436     0.296877     0.217712
C     -0.831145     1.391018     0.044927
H     -2.587161     3.024540    -0.232578
H      0.267532     1.203219    -0.155229
6
Family_1 [H+].[H][C-]=C([H])[H] | RMSD: 0.7537 | 1472.00 to state    1 from traj    1 on state    2
C     -1.624608     0.274054     0.005322
H     -1.696847    -0.468382    -0.818056
H     -2.533906     0.042793     0.599458
C     -0.836647     1.434612     0.031514
H     -2.315886     2.046020    -0.455117
H      0.142447     0.774478     0.231510
6
Family_1 [H+].[H][C-]=C([H])[H] | RMSD: 0.7634 | 1544.00 to state    1 from traj    1 on state    2
C     -1.617525     0.294193    -0.009963
H     -1.654613    -0.464838    -0.784712
H     -2.730245     0.033443     0.677024
C     -0.830438     1.414994     0.042526
H     -2.359748     2.009819    -0.493010
H      0.182033     0.810280     0.209399
6
Family_1 [H+].[H][C-]=C([H])[H] | RMSD: 0.8489 | 2012.00 to state    1 from traj    1 on state    2
C     -1.483108     0.146542     0.093456
H     -2.327118    -0.735457    -0.906986
H     -2.614542    -0.110327    -0.067110
C     -0.994665     1.505678    -0.018284
H     -1.302245     2.563849    -0.224156
H      0.036537     1.349435     0.299240
6
Family_1 [H+].[H][C-]=C([H])[H] | RMSD: 0.7665 | 1972.00 to state    1 from traj    1 on state    2
C     -1.573719     0.184585    -0.027855
H     -1.033729    -0.584195    -0.696332
H     -2.457582    -0.046489     0.506120
C     -1.028415     1.355473     0.161698
H     -1.423354     3.637940    -0.779503
H      0.189139     1.396734    -0.628390
6
Family_1 [H+].[H][C-]=C([H])[H] | RMSD: 0.7894 | 2064.00 to state    1 from traj    1 on state    2
C     -1.569867     0.152915    -0.019340
H     -1.152211    -0.436042    -0.807796
H     -2.443085    -0.024784     0.552600
C     -1.012216     1.376012     0.152014
H     -1.412353     3.590605    -0.807390
H      0.043206     1.406841    -0.521601
6
Family_1 [H+].[H][C-]=C([H])[H] | RMSD: 0.1943 | 456.00 to state    1 from traj    1 on state    2
C     -1.642922     0.187236    -0.015736
H     -1.187086    -0.764549     0.049871
H     -2.562914     0.453792     0.078788
C     -0.855795     1.403540    -0.007475
H     -2.524764     3.116106     0.111147
H      0.316961     0.994293     0.033487
6
Family_1 [H+].[H][C-]=C([H])[H] | RMSD: 0.2014 | 592.00 to state    1 from traj    1 on state    2
C     -1.635448     0.221359    -0.022812
H     -1.238166    -0.795960     0.098358
H     -2.782095     0.278397     0.075972
C     -0.820212     1.371169    -0.004913
H     -2.672973     3.191616     0.131904
H      0.222372     1.104718     0.020849
6
Family_1 [H+].[H][C-]=C([H])[H] | RMSD: 0.3808 | 1956.00 to state    1 from traj    1 on state    2
C     -1.624968     0.205795     0.016733
H     -1.518654    -1.034624     0.166150
H     -2.619780     0.592539    -0.253368
C     -0.806515     1.377911    -0.036681
H     -2.819865     3.027343     0.306543
H      0.199358     1.298625     0.015083
6
Family_1 [H+].[H][C-]=C([H])[H] | RMSD: 0.3997 | 2024.00 to state    1 from traj    1 on state    2
C     -1.637442     0.197138     0.013679
H     -1.499601    -1.079677     0.175289
H     -2.602076     0.607200    -0.227104
C     -0.802694     1.381065    -0.041187
H     -2.822662     3.058278     0.322069
H      0.268510     1.363674     0.054244
6
Family_1 [H+].[H][C-]=C([H])[H] | RMSD: 0.5058 | 3092.00 to state    1 from traj    1 on state    2
C     -1.658789     0.145406    -0.071816
H     -0.867219    -0.643486    -0.318244
H     -2.415139     0.121604     0.727251
C     -0.916101     1.439660     0.073222
H     -1.887365     3.384059    -0.390786
H      0.119571     1.005516    -0.038256
6
Family_1 [H+].[H][C-]=C([H])[H] | RMSD: 0.5259 | 3200.00 to state    1 from traj    1 on state    2
C     -1.665808     0.137393    -0.072136
H     -0.954308    -0.368194    -0.302221
H     -2.391770     0.042276     0.734269
C     -0.910816     1.448431     0.066890
H     -1.930268     3.311367    -0.372540
H      0.246858     0.873207    -0.000281
6
Family_1 [H+].[H][C-]=C([H])[H] | RMSD: 0.2522 | 440.00 to state    1 from traj    1 on state    2
C     -1.618506     0.140515     0.033713
H     -1.514509    -0.925298    -0.139304
H     -2.602093     0.466272    -0.186658
C     -0.840949     1.440045    -0.006603
H     -2.438784     3.130180     0.076357
H      0.129752     1.250226    -0.076717
6
Family_1 [H+].[H][C-]=C([H])[H] | RMSD: 0.2439 | 608.00 to state    1 from traj    1 on state    2
C     -1.587484     0.193603     0.044686
H     -1.561170    -0.887583    -0.152928
H     -2.754361     0.382161    -0.260694
C     -0.859496     1.401051    -0.019044
H     -2.562373     3.146216     0.131103
H      0.303621     1.112652    -0.026300
6
Family_1 [H+].[H][C-]=C([H])[H] | RMSD: 0.9950 | 3080.00 to state    1 from traj    1 on state    2
C     -1.486046     0.222039     0.014798
H     -1.506913    -0.503400    -0.680009
H     -2.136081    -0.391674     0.406417
C     -1.128555     1.564082    -0.018340
H     -0.917383     2.511701    -0.200580
H     -0.016582    -0.144641     0.513088
6
Family_1 [H+].[H][C-]=C([H])[H] | RMSD: 0.8916 | 2468.00 to state    1 from traj    1 on state    2
C     -1.438586     0.225972    -0.026520
H     -1.524497    -1.104136     0.755072
H     -2.397447     0.254109    -0.642782
C     -1.042791     1.521334     0.082339
H     -1.518432     2.664787     0.175483
H     -0.724048     0.119724    -0.956169
6
Family_1 [H+].[H][C-]=C([H])[H] | RMSD: 0.9062 | 1716.00 to state    1 from traj    1 on state    2
C     -1.647831     0.243037     0.024928
H     -1.243204    -0.319343    -0.693536
H     -2.364315    -0.206567     0.526330
C     -0.856775     1.340433    -0.116701
H     -1.635690     2.677716     0.110392
H     -0.644426     1.734892     1.147070
6
Family_1 [H+].[H][C-]=C([H])[H] | RMSD: 0.9530 | 764.00 to state    1 from traj    1 on state    2
C     -1.712644     0.242004     0.017320
H     -1.543546    -0.641669     0.575243
H     -2.335917    -0.162868    -0.718292
C     -0.723081     1.368906     0.030935
H     -2.003642     2.250830     0.297861
H     -0.825294     2.113443    -0.733090
6
Family_1 [H+].[H][C-]=C([H])[H] | RMSD: 0.2858 | 492.00 to state    1 from traj    1 on state    2
C     -1.647588     0.156203    -0.001241
H     -1.464207    -0.894990    -0.129206
H     -2.601066     0.393115     0.072256
C     -0.819232     1.414116     0.012501
H     -2.574732     3.201243    -0.017279
H      0.302131     1.344031    -0.063221
6
Family_1 [H+].[H][C-]=C([H])[H] | RMSD: 0.2617 | 428.00 to state    1 from traj    1 on state    2
C     -1.626028     0.162964    -0.035896
H     -1.341586    -0.793159    -0.008617
H     -2.671343     0.474419     0.249280
C     -0.850125     1.400603     0.018752
H     -2.522855     3.232138    -0.028194
H      0.309117     1.210475    -0.011467
6
Family_1 [H+].[H][C-]=C([H])[H] | RMSD: 0.3809 | 704.00 to state    1 from traj    1 on state    2
C     -1.661285     0.244780    -0.047304
H     -1.404591    -0.975876    -0.018406
H     -2.960040     0.149602     0.339569
C     -0.763056     1.390844     0.022459
H     -2.749465     2.822881    -0.049523
H      0.270054     1.268650     0.021124
6
Family_1 [H+].[H][C-]=C([H])[H] | RMSD: 0.3776 | 732.00 to state    1 from traj    1 on state    2
C     -1.658093     0.253808    -0.048873
H     -1.391736    -0.992724     0.006941
H     -2.960544     0.147783     0.322314
C     -0.765173     1.384447     0.027164
H     -2.758391     2.821696    -0.051242
H      0.253815     1.257152    -0.022614
6
Family_1 [H+].[H][C-]=C([H])[H] | RMSD: 0.3726 | 2488.00 to state    1 from traj    1 on state    2
C     -1.637692     0.238989    -0.025886
H     -1.493932    -1.074254    -0.006844
H     -2.925954     0.294060     0.170246
C     -0.781357     1.412054     0.010591
H     -2.698609     2.675222     0.012453
H      0.211393     1.186492     0.003119
6
Family_1 [H+].[H][C-]=C([H])[H] | RMSD: 0.3679 | 4800.00 to state    1 from traj    1 on state    2
C     -1.562335     0.141414    -0.027378
H     -1.185125    -0.914783     0.460098
H     -2.776311     0.206910    -0.180888
C     -0.967986     1.458464    -0.043175
H     -1.827942     3.453839     0.425244
H      0.208149     0.945228     0.132952
6
Family_1 [H+].[H][C-]=C([H])[H] | RMSD: 0.3120 | 572.00 to state    1 from traj    1 on state    2
C     -1.599493     0.216761    -0.002959
H     -1.490093    -0.820354    -0.341876
H     -2.605848     0.254325     0.205944
C     -0.861694     1.368992     0.043785
H     -2.584403     3.293428    -0.210793
H      0.275349     1.132099    -0.143019
6
Family_1 [H+].[H][C-]=C([H])[H] | RMSD: 0.3223 | 1584.00 to state    1 from traj    1 on state    2
C     -1.642696     0.247124     0.000542
H     -1.240827    -0.750725    -0.375026
H     -2.691671     0.142530     0.193053
C     -0.841881     1.358671     0.057080
H     -2.652394     3.200836    -0.258080
H      0.458604     1.028055    -0.249837
6
Family_1 [H+].[H][C-]=C([H])[H] | RMSD: 0.2762 | 600.00 to state    1 from traj    1 on state    2
C     -1.675312     0.173741     0.003185
H     -1.116139    -0.760456     0.209486
H     -2.727038     0.219439    -0.180354
C     -0.807014     1.382678    -0.042362
H     -2.581845     3.432325     0.345934
H      0.271906     1.317724     0.088471
6
Family_1 [H+].[H][C-]=C([H])[H] | RMSD: 0.3421 | 2224.00 to state    1 from traj    1 on state    2
C     -1.628555     0.233320     0.039060
H     -1.394286    -0.846443     0.125159
H     -2.538683     0.509822    -0.385831
C     -0.844683     1.392425    -0.043993
H     -2.648833     2.757531     0.330006
H      0.320398     0.962062    -0.013839
6
Family_1 [H+].[H][C-]=C([H])[H] | RMSD: 0.6397 | 3184.00 to state    1 from traj    1 on state    2
C     -1.565456     0.136559     0.009883
H     -0.986355    -0.685798     0.463630
H     -2.490208    -0.070578    -0.464733
C     -1.031379     1.434318    -0.073857
H     -1.257163     3.647692     0.582333
H     -0.054942     1.145449     0.177792
6
Family_1 [H+].[H][C-]=C([H])[H] | RMSD: 0.9590 | 4232.00 to state    1 from traj    4 on state    2
C     -1.576175     0.262081    -0.021369
H     -0.786982    -0.479166     0.574175
H     -2.387605    -0.207371    -0.573445
C     -1.034455     1.479210     0.127230
H     -1.144988     2.465306    -0.045988
H     -0.304715     0.227387    -1.219431
6
Family_1 [H+].[H][C-]=C([H])[H] | RMSD: 1.0221 | 6708.00 to state    1 from traj    1 on state    2
C     -1.688732     0.320486     0.049754
H     -1.958119    -0.587581     0.490416
H     -2.514414     0.341964    -0.832381
C     -0.664587     1.291470    -0.000086
H     -2.842361     1.728406     0.365874
H     -0.375422     2.064490    -0.619022
6
Family_1 [H+].[H][C-]=C([H])[H] | RMSD: 0.8775 | 2008.00 to state    1 from traj    1 on state    2
C     -1.563802     0.244826     0.225695
H     -1.629680    -0.258425    -1.267724
H     -2.574508     0.179178    -0.779687
C     -0.959116     1.349619    -0.038501
H     -1.540177     2.263112    -0.175321
H      0.074942     1.572072    -0.011098
6
Family_1 [H+].[H][C-]=C([H])[H] | RMSD: 0.9257 | 2124.00 to state    1 from traj    1 on state    2
C     -1.568483     0.234308     0.239952
H     -1.541182    -0.125770    -1.419501
H     -2.462423     0.166129    -0.734037
C     -0.978007     1.367781    -0.055681
H     -1.438649     2.238537    -0.185796
H      0.053705     1.385955     0.140344
6
Family_1 [H+].[H][C-]=C([H])[H] | RMSD: 0.3550 | 380.00 to state    1 from traj    1 on state    2
C     -1.616602     0.091151    -0.000424
H     -1.360495    -0.789130     0.196384
H     -2.618792     0.226246    -0.195501
C     -0.898048     1.442061    -0.020938
H     -2.029869     3.617269     0.259264
H      0.241210     1.431180    -0.008878
6
Family_1 [H+].[H][C-]=C([H])[H] | RMSD: 0.4509 | 596.00 to state    1 from traj    1 on state    2
C     -1.599972     0.135957    -0.005279
H     -1.260855    -1.155803     0.246101
H     -2.703130     0.205969    -0.209841
C     -0.894046     1.395757    -0.027428
H     -2.183793     3.909722     0.327511
H      0.133976     1.543526     0.022667
6
Family_1 [H+].[H][C-]=C([H])[H] | RMSD: 0.3273 | 700.00 to state    1 from traj    1 on state    2
C     -1.604761     0.203480    -0.006086
H     -1.183575    -1.142459     0.001991
H     -2.732190     0.285737    -0.019271
C     -0.893277     1.356358    -0.000485
H     -2.488782     3.741637     0.121005
H      0.438652     1.283374    -0.028716
6
Family_1 [H+].[H][C-]=C([H])[H] | RMSD: 0.3835 | 1640.00 to state    1 from traj    1 on state    2
C     -1.653640     0.259248    -0.036736
H     -1.207608    -0.854474     0.206307
H     -2.986532     0.143114     0.103851
C     -0.814293     1.439169    -0.003875
H     -2.565760     2.525913     0.147440
H      0.435283     0.702490     0.023021
6
Family_1 [H+].[H][C-]=C([H])[H] | RMSD: 1.0502 | 10108.00 to state    1 from traj    1 on state    2
C     -1.498594     0.324533    -0.030857
H     -1.348310    -0.601487     0.536590
H     -2.395945     0.371884    -0.548510
C     -0.974977     1.397256     0.199202
H     -1.778286     2.036661    -0.325109
H     -0.734898     0.431474    -1.672201
6
Family_1 [H+].[H][C-]=C([H])[H] | RMSD: 1.0695 | 10204.00 to state    1 from traj    1 on state    2
C     -1.635562     0.423602    -0.024444
H     -1.666481    -0.419015    -0.664862
H     -2.184205     0.333844     0.887152
C     -0.737237     1.220142    -0.058911
H     -2.798527     1.737550    -0.144040
H     -0.808988     1.516124     0.911698
6
Family_1 [H+].[H][C-]=C([H])[H] | RMSD: 0.3398 | 480.00 to state    1 from traj    1 on state    2
C     -1.655441     0.180300    -0.032212
H     -1.362061    -0.937340    -0.297828
H     -2.659680     0.238096     0.438831
C     -0.819183     1.437817     0.036044
H     -2.437447     2.989372    -0.218915
H      0.214303     1.183727     0.028977
6
Family_1 [H+].[H][C-]=C([H])[H] | RMSD: 0.5801 | 2020.00 to state    1 from traj    1 on state    2
C     -1.649796     0.205043    -0.009902
H     -1.298207    -0.577513    -0.651491
H     -2.561849     0.667910     0.492188
C     -0.816851     1.337121     0.102678
H     -2.770976     2.974857    -0.591164
H      0.291087     1.313636    -0.358298
6
Family_1 [H+].[H][C-]=C([H])[H] | RMSD: 0.4189 | 4592.00 to state    1 from traj    1 on state    2
C     -1.653357     0.211837    -0.043282
H     -1.430089    -0.902709     0.135373
H     -2.823620     0.586706     0.233030
C     -0.781871     1.386202     0.000567
H     -2.814404     2.724026     0.076460
H      0.353801     1.305088     0.060831
6
Family_1 [H+].[H][C-]=C([H])[H] | RMSD: 0.2586 | 9456.00 to state    1 from traj    1 on state    2
C     -1.691416     0.199437    -0.000600
H     -1.159610    -0.718509    -0.015945
H     -2.842024     0.148497    -0.005018
C     -0.771235     1.448177     0.002605
H     -2.487870     2.674451     0.060567
H      0.101945     1.017948    -0.066777
6
Family_1 [H+].[H][C-]=C([H])[H] | RMSD: 0.3141 | 10884.00 to state    1 from traj    1 on state    2
C     -1.646319     0.240992     0.047794
H     -0.911586    -0.546694     0.141917
H     -2.464200     0.126807    -0.452911
C     -0.872621     1.355521    -0.069221
H     -2.438649     3.335529     0.460027
H      0.097609     0.815645     0.102997
6
Family_1 [H+].[H][C-]=C([H])[H] | RMSD: 1.0244 | 2472.00 to state    1 from traj    1 on state    2
C     -1.468110     0.154050     0.165972
H     -1.956540    -0.813685    -0.174709
H     -1.917879     1.032695    -1.319658
C     -1.051430     1.406187     0.031021
H     -1.478380     2.471134     0.072818
H     -0.356883     1.473402    -0.929035
6
Family_1 [H+].[H][C-]=C([H])[H] | RMSD: 1.0698 | 2584.00 to state    1 from traj    1 on state    2
C     -1.497476     0.215987     0.046137
H     -1.123036    -0.793293     0.273206
H     -2.251993     0.010685    -0.924390
C     -1.075648     1.511065     0.144427
H     -0.949181     2.593739    -0.161401
H     -0.746977     0.364694    -1.461396
6
Family_1 [H+].[H][C-]=C([H])[H] | RMSD: 1.1045 | 3468.00 to state    1 from traj    1 on state    2
C     -1.490337     0.232564    -0.035906
H     -1.123419    -0.794270     0.785561
H     -2.226761     0.005221    -0.680590
C     -1.060859     1.548008     0.150078
H     -1.268374     2.572911    -0.026798
H     -0.713933    -0.245761    -1.441893
6
Family_1 [H+].[H][C-]=C([H])[H] | RMSD: 0.3246 | 628.00 to state    1 from traj    1 on state    2
C     -1.602937     0.151486    -0.039796
H     -1.353431    -0.942075    -0.117431
H     -2.988293     0.026000     0.298348
C     -0.878508     1.443849     0.038872
H     -2.157733     3.441333    -0.129272
H      0.335850     1.220073    -0.043912
6
Family_1 [H+].[H][C-]=C([H])[H] | RMSD: 0.3728 | 14624.00 to state    1 from traj    1 on state    2
C     -1.574053     0.110773    -0.009700
H     -1.264536    -0.931702    -0.228002
H     -2.508057     0.172680     0.166875
C     -0.964412     1.477800     0.025337
H     -1.712915     3.524597    -0.109875
H      0.001323     1.060335    -0.018605
6
Family_1 [H+].[H][C-]=C([H])[H] | RMSD: 0.9144 | 3244.00 to state    1 from traj    1 on state    2
C     -1.531772     0.216976    -0.089832
H     -0.821347    -0.611305     0.980759
H     -2.550454    -0.051017    -0.197724
C     -1.023970     1.526524     0.021752
H     -1.172737     2.588402     0.380324
H     -0.733776     0.053761    -0.355413
6
Family_1 [H+].[H][C-]=C([H])[H] | RMSD: 0.6396 | 620.00 to state    1 from traj    1 on state    2
C     -1.625277     0.130071     0.023980
H     -1.657371    -0.806075     0.675568
H     -2.495687    -0.094676    -0.729494
C     -0.880217     1.463355    -0.082992
H     -1.869525     3.175245     0.725853
H      0.145525     1.493571     0.027958
6
Family_1 [H+].[H][C-]=C([H])[H] | RMSD: 0.7831 | 4208.00 to state    1 from traj    1 on state    2
C     -1.481988     0.156815     0.004465
H     -2.120389    -0.477270    -0.688488
H     -2.278464     0.879057     0.539721
C     -0.949660     1.310131    -0.009541
H     -2.268364     3.150432    -0.272011
H     -0.089764     1.722950     0.477979
6
Family_2 [H]C([H])=C([H])[H] | RMSD: 0.0000 | 576.00 to state    1 from traj    1 on state    2
C     -1.705140    -0.086997    -0.113088
H     -1.398930     0.089877     1.143442
H     -2.836134     0.221383     0.052604
C     -0.849158     1.632088    -0.065966
H     -1.165064     2.457784     0.618909
H      0.104613     1.574966     0.315320
6
Family_2 [H]C([H])=C([H])[H] | RMSD: 0.5996 | 1520.00 to state    1 from traj    1 on state    2
C     -1.485235     0.227592    -0.033045
H     -1.899588    -0.097887     0.687651
H     -2.645394     0.650820    -0.287285
C     -1.024731     1.314922     0.009680
H     -1.114487     2.287999     0.519110
H     -0.164291     1.533788    -0.644343
6
Family_2 [H]C([H])=C([H])[H] | RMSD: 0.7595 | 1792.00 to state    1 from traj    1 on state    2
C     -1.663054     0.047390     0.009997
H     -1.533584    -0.141125     1.143307
H     -1.988889    -0.150294    -0.936044
C     -0.989700     1.626168    -0.114237
H     -0.434218     2.332067     1.005178
H     -0.165661     0.772590     0.026374
6
Family_2 [H]C([H])=C([H])[H] | RMSD: 0.5773 | 1460.00 to state    1 from traj    1 on state    2
C     -1.619185     0.140270    -0.044086
H     -1.231275     0.714485     0.967816
H     -2.583542     0.111543    -0.654271
C     -0.948494     1.411235    -0.044978
H     -1.306785     2.047278     1.071220
H     -0.014477     1.394285    -0.326792
6
Family_2 [H]C([H])=C([H])[H] | RMSD: 0.6360 | 1108.00 to state    1 from traj    1 on state    2
C     -1.576954     0.039842    -0.107777
H     -1.538037     0.127823     1.004908
H     -2.318046     0.901447    -0.181298
C     -1.004684     1.475955     0.094025
H     -1.076452     2.491743    -0.061980
H     -0.037211     1.172064    -0.601052
6
Family_2 [H]C([H])=C([H])[H] | RMSD: 0.6193 | 1680.00 to state    1 from traj    1 on state    2
C     -1.521019     0.098840    -0.070602
H     -1.896852    -0.275296     1.249341
H     -2.596990     0.747264    -0.306581
C     -1.010515     1.472630     0.014053
H     -1.060121     2.501091     0.399609
H     -0.012809     1.056644    -0.671833
6
Family_2 [H]C([H])=C([H])[H] | RMSD: 0.7546 | 2392.00 to state    1 from traj    1 on state    2
C     -1.682964     0.222188    -0.104820
H     -1.398361     0.441435     0.942767
H     -1.630722    -0.701455    -0.047369
C     -0.965393     1.424818     0.015528
H     -1.190604     2.494599     0.146610
H      0.044943     0.895052     0.018685
6
Family_2 [H]C([H])=C([H])[H] | RMSD: 0.5255 | 1064.00 to state    1 from traj    1 on state    2
C     -1.709433     0.124947    -0.147300
H     -1.066991     0.258277     1.064268
H     -2.590328     0.003581     0.473764
C     -0.827272     1.436049    -0.044389
H     -1.768085     1.908767     0.164723
H     -0.079743     1.983872     0.578067
6
Family_2 [H]C([H])=C([H])[H] | RMSD: 0.4505 | 5148.00 to state    1 from traj    1 on state    2
C     -1.549006     0.124411    -0.088531
H     -1.933942    -0.142757     1.227515
H     -2.857961     0.473161    -0.089149
C     -0.950327     1.397891    -0.036142
H     -1.235192     2.545021     0.790556
H      0.076628     1.740148    -0.446644
6
Family_2 [H]C([H])=C([H])[H] | RMSD: 0.7050 | 944.00 to state    1 from traj    1 on state    2
C     -1.628889     0.046053    -0.140966
H     -1.451244    -0.605997     0.933917
H     -2.355626     0.720559     0.793802
C     -0.923430     1.521046    -0.067007
H     -1.098087     2.493497    -0.208565
H     -0.414144     1.473718     0.955701
6
Family_2 [H]C([H])=C([H])[H] | RMSD: 0.7674 | 1128.00 to state    1 from traj    1 on state    2
C     -1.751182     0.152901    -0.097309
H     -1.286310     0.451784     1.073234
H     -1.478835    -0.835378    -0.224547
C     -0.934010     1.479367    -0.036971
H     -0.976057     2.544034     0.489890
H      0.005371     1.144808     0.258175
6
Family_2 [H]C([H])=C([H])[H] | RMSD: 0.5016 | 10536.00 to state    1 from traj    1 on state    2
C     -1.621086     0.103104    -0.095050
H     -1.638785     0.246704     0.934468
H     -2.586822     0.584027     0.015489
C     -0.901810     1.380649    -0.018526
H     -1.501277     2.012294     0.659286
H      0.057193     2.231875    -0.259193
6
Family_2 [H]C([H])=C([H])[H] | RMSD: 0.7973 | 3132.00 to state    1 from traj    1 on state    2
C     -1.586743     0.171661     0.002059
H     -1.808705    -0.049966     1.018755
H     -2.125429    -0.354029    -0.716210
C     -1.042191     1.541936    -0.075619
H     -0.221491     1.942437     0.651953
H     -0.250563     0.797719    -0.081268
6
Family_2 [H]C([H])=C([H])[H] | RMSD: 0.7607 | 1220.00 to state    1 from traj    1 on state    2
C     -1.653845    -0.015917    -0.076519
H     -1.885647    -0.139321     1.081935
H     -2.384517     0.900101    -0.194214
C     -0.827481     1.497199     0.022024
H     -1.459362     2.062577     0.619782
H     -0.435506     2.280982    -0.861439
6
Family_2 [H]C([H])=C([H])[H] | RMSD: 0.7111 | 2096.00 to state    1 from traj    1 on state    2
C     -1.683682     0.271541    -0.116441
H     -1.313411     0.262716     1.195827
H     -1.872020    -0.776345    -0.151224
C     -0.948163     1.369683     0.049793
H     -1.270902     2.412500    -0.049228
H      0.084836     1.299661    -0.204502
6
Family_2 [H]C([H])=C([H])[H] | RMSD: 0.7471 | 1288.00 to state    1 from traj    1 on state    2
C     -1.568297     0.055729    -0.104554
H     -1.613026    -0.344798     1.106975
H     -2.344480     0.876137    -0.083075
C     -0.996276     1.519305     0.102582
H     -0.980856     2.400348    -0.456189
H     -0.234726     1.055542    -0.547487
6
Family_2 [H]C([H])=C([H])[H] | RMSD: 0.6099 | 996.00 to state    1 from traj    1 on state    2
C     -1.650178     0.013406    -0.136591
H     -1.480210    -0.483211     0.910533
H     -2.275295     0.731710     0.707909
C     -0.916912     1.538624    -0.066002
H     -1.269114     2.554531    -0.051083
H     -0.118478     1.458300     0.843402
6
Family_2 [H]C([H])=C([H])[H] | RMSD: 0.6741 | 1596.00 to state    1 from traj    1 on state    2
C     -1.681307     0.266006    -0.045322
H     -0.944475     0.296438     1.060916
H     -2.016267    -0.457588    -0.698716
C     -0.973249     1.365311    -0.016471
H     -1.512239     2.263463     0.470836
H      0.372099     1.214257    -0.100017
6
Family_2 [H]C([H])=C([H])[H] | RMSD: 0.4085 | 4864.00 to state    1 from traj    1 on state    2
C     -1.637314     0.089804    -0.104098
H     -1.432778     0.370969     1.133964
H     -2.830410     0.311162    -0.132881
C     -0.880817     1.413084    -0.015337
H     -1.544886     2.179942     0.727362
H      0.081599     1.984823    -0.308576
6
Family_2 [H]C([H])=C([H])[H] | RMSD: 0.5160 | 872.00 to state    1 from traj    1 on state    2
C     -1.600662     0.105384    -0.060396
H     -1.404622     0.530137     0.900899
H     -2.552762     0.121187    -0.550166
C     -0.982983     1.448063     0.011623
H     -0.956286     2.399853     0.666403
H     -0.032160     1.193274    -0.439258
6
Family_2 [H]C([H])=C([H])[H] | RMSD: 0.7673 | 1192.00 to state    1 from traj    1 on state    2
C     -1.671973     0.112413    -0.171121
H     -1.172695     0.217677     1.000477
H     -2.492256     0.215769     0.501495
C     -0.921421     1.480828     0.100181
H     -1.438464     1.663950    -0.889276
H      0.273747     1.672893     0.229328
6
Family_2 [H]C([H])=C([H])[H] | RMSD: 0.5813 | 500.00 to state    1 from traj    1 on state    2
C     -1.698916     0.115611    -0.163292
H     -1.221551     0.455381     0.917291
H     -2.438832    -0.140371     0.457338
C     -0.878907     1.455190     0.057325
H     -1.554968     2.020269    -0.323297
H      0.200146     1.702382     0.208053
6
Family_2 [H]C([H])=C([H])[H] | RMSD: 0.4016 | 3324.00 to state    1 from traj    1 on state    2
C     -1.647330    -0.049054    -0.057181
H     -1.559024     0.404772     0.962010
H     -2.789145     0.135571    -0.411026
C     -0.931031     1.632677    -0.058449
H     -0.764833     2.164071     0.848659
H      0.104202     1.180469    -0.025124
6
Family_2 [H]C([H])=C([H])[H] | RMSD: 0.5023 | 3872.00 to state    1 from traj    1 on state    2
C     -1.635775     0.170521    -0.135080
H     -1.499144     0.340729     0.986606
H     -2.630615    -0.056793     0.327832
C     -0.879948     1.408504     0.036420
H     -1.718501     2.017686     0.033144
H      0.093088     1.638044    -0.175271
6
Family_2 [H]C([H])=C([H])[H] | RMSD: 0.5953 | 2964.00 to state    1 from traj    1 on state    2
C     -1.649669    -0.010361    -0.083738
H     -1.525716     0.572124     0.938242
H     -2.592823     0.344881    -0.583691
C     -0.940344     1.473548     0.059199
H     -0.872378     2.539826     0.676603
H      0.120956     1.863122    -0.742035
6
Family_2 [H]C([H])=C([H])[H] | RMSD: 0.5544 | 1332.00 to state    1 from traj    1 on state    2
C     -1.558645     0.070124    -0.049434
H     -1.815954    -0.285828     1.047320
H     -2.255855     0.981890    -0.269894
C     -1.018056     1.481543    -0.048573
H     -1.087975     2.272921     0.601137
H      0.131206     1.296676    -0.214026
6
Family_2 [H]C([H])=C([H])[H] | RMSD: 0.5904 | 2180.00 to state    1 from traj    1 on state    2
C     -1.535715     0.117536    -0.055243
H     -2.056326    -0.135789     0.943673
H     -2.632929     0.630728    -0.205281
C     -0.959102     1.423805    -0.000357
H     -1.234541     2.364927     0.658242
H     -0.080473     1.528829    -0.737407
6
Family_2 [H]C([H])=C([H])[H] | RMSD: 0.7596 | 4648.00 to state    1 from traj    1 on state    2
C     -1.537521     0.158509     0.033195
H     -1.789385    -0.478409     0.957666
H     -2.212587     0.381795    -0.869016
C     -1.100375     1.514638    -0.087886
H     -0.342477     2.025947     0.647182
H      0.045059     0.888812    -0.087441
6
Family_2 [H]C([H])=C([H])[H] | RMSD: 0.3825 | 3652.00 to state    1 from traj    1 on state    2
C     -1.584572     0.145006    -0.087864
H     -1.584983     0.231930     1.007498
H     -2.477432     0.245036    -0.194036
C     -0.972300     1.387384    -0.005706
H     -1.150341     2.585836     0.619496
H     -0.052101     1.432552    -0.321298
6
Family_2 [H]C([H])=C([H])[H] | RMSD: 0.4416 | 3336.00 to state    1 from traj    1 on state    2
C     -1.632123     0.193427    -0.066112
H     -1.154183     0.452430     1.052229
H     -2.652705    -0.044798    -0.492501
C     -0.939577     1.347604    -0.039260
H     -1.340207     2.219535     0.842783
H      0.058938     1.765225    -0.150211
6
Family_2 [H]C([H])=C([H])[H] | RMSD: 0.4844 | 5844.00 to state    1 from traj    1 on state    2
C     -1.640285     0.146036    -0.123852
H     -1.450883     0.454547     1.269116
H     -2.662022     0.242891     0.170340
C     -0.865017     1.376725    -0.074609
H     -1.743762     1.851286     0.869862
H     -0.022671     2.061366     0.052206
6
Family_2 [H]C([H])=C([H])[H] | RMSD: 0.7335 | 10416.00 to state    1 from traj    1 on state    2
C     -1.531897     0.186829    -0.055731
H     -1.722409    -0.297721     0.829518
H     -2.563064     0.944055    -0.322603
C     -0.976658     1.285837     0.056254
H     -1.267908     2.446271     0.323908
H     -0.287195     2.114407    -0.840332
6
Family_2 [H]C([H])=C([H])[H] | RMSD: 0.7091 | 1484.00 to state    1 from traj    1 on state    2
C     -1.751711     0.172723     0.008095
H     -0.738224     0.255007     0.624411
H     -2.060571    -0.448572    -0.939559
C     -0.916003     1.422819    -0.066233
H     -1.322848     2.294766     0.816545
H      0.177549     1.641657     0.188065
6
Family_2 [H]C([H])=C([H])[H] | RMSD: 0.6353 | 2116.00 to state    1 from traj    1 on state    2
C     -1.585471     0.216532     0.002002
H     -1.690013    -0.060363     0.943541
H     -2.245314    -0.236606    -0.636068
C     -1.059165     1.464473    -0.105421
H     -0.476827     1.831530     0.726345
H      0.193068     1.189942     0.195214
6
Family_2 [H]C([H])=C([H])[H] | RMSD: 0.5764 | 2196.00 to state    1 from traj    1 on state    2
C     -1.556984     0.215925    -0.014738
H     -1.833521    -0.114577     1.049422
H     -2.437163    -0.135373    -0.446009
C     -1.043274     1.460846    -0.113874
H     -0.514742     1.793805     0.755093
H      0.037553     1.231095     0.170711
6
Family_2 [H]C([H])=C([H])[H] | RMSD: 0.6542 | 2800.00 to state    1 from traj    1 on state    2
C     -1.644353     0.154157    -0.099506
H     -1.240696     0.539514     1.035960
H     -2.597121    -0.013654    -0.404133
C     -0.885529     1.380910     0.098909
H     -1.607256     2.337148     0.263815
H     -0.141381     1.600453    -0.891806
6
Family_2 [H]C([H])=C([H])[H] | RMSD: 0.7637 | 1072.00 to state    1 from traj    1 on state    2
C     -1.658657     0.040256    -0.133483
H     -1.463226    -0.643602     0.766655
H     -2.231329     0.769380     0.873145
C     -0.876515     1.525861    -0.050631
H     -1.465340     2.364700    -0.298403
H     -0.363527     1.602997     0.849155
6
Family_2 [H]C([H])=C([H])[H] | RMSD: 0.7025 | 1428.00 to state    1 from traj    1 on state    2
C     -1.707610     0.190350    -0.030428
H     -0.925565     0.503178     0.723009
H     -2.369929    -0.696536    -0.798468
C     -0.923110     1.427447     0.018559
H     -1.306771     2.365953     0.474528
H      0.217367     1.305078    -0.260930
6
Family_2 [H]C([H])=C([H])[H] | RMSD: 0.5749 | 2616.00 to state    1 from traj    1 on state    2
C     -1.691703    -0.023084    -0.124570
H     -1.425267    -0.391002     0.810494
H     -2.188766     0.644403     0.640460
C     -0.892997     1.570783    -0.085265
H     -1.361878     2.539979     0.114712
H      0.042646     1.519564     0.931368
6
Family_2 [H]C([H])=C([H])[H] | RMSD: 0.6508 | 2776.00 to state    1 from traj    1 on state    2
C     -1.662842    -0.012825    -0.105811
H     -1.436823    -0.632742     0.819113
H     -2.219863     0.861671     0.588861
C     -0.912096     1.581403    -0.095820
H     -1.419587     2.507568     0.062490
H      0.026692     1.327660     0.928824
6
Family_2 [H]C([H])=C([H])[H] | RMSD: 0.7443 | 2344.00 to state    1 from traj    1 on state    2
C     -1.562238     0.105822    -0.061571
H     -1.972870    -0.186528     0.981748
H     -2.532519     0.980047    -0.072182
C     -0.884941     1.390879    -0.019828
H     -1.496141     2.042731     0.774267
H     -0.570386     2.084364    -0.717195
6
Family_2 [H]C([H])=C([H])[H] | RMSD: 0.5785 | 796.00 to state    1 from traj    1 on state    2
C     -1.606746     0.034484    -0.062593
H     -1.573346     0.672362     0.908778
H     -2.578252     0.215035    -0.572875
C     -0.979982     1.496131     0.005672
H     -0.655022     2.257492     0.819266
H     -0.102473     1.371616    -0.480205
6
Family_2 [H]C([H])=C([H])[H] | RMSD: 0.4825 | 1708.00 to state    1 from traj    1 on state    2
C     -1.566227     0.164634    -0.131195
H     -1.815434    -0.009463     1.267438
H     -2.758257     0.171320     0.181308
C     -0.912834     1.388638     0.029860
H     -1.419351     2.570197     0.303003
H     -0.198974     1.514482    -0.547546
6
Family_2 [H]C([H])=C([H])[H] | RMSD: 0.7039 | 4420.00 to state    1 from traj    1 on state    2
C     -1.726534     0.047659    -0.044425
H     -1.010164     0.466989     0.924772
H     -2.571223    -0.143240    -0.865178
C     -0.829238     1.505273     0.059673
H     -1.350913     2.225821     0.543742
H     -0.345658     1.701007    -0.788303
6
Family_2 [H]C([H])=C([H])[H] | RMSD: 0.2364 | 624.00 to state    1 from traj    1 on state    2
C     -1.736488    -0.063059    -0.122506
H     -1.320327     0.166283     1.204727
H     -2.757470     0.089519     0.107467
C     -0.809263     1.631907    -0.044814
H     -1.584284     2.224734     0.471847
H      0.264723     1.580396     0.206404
6
Family_2 [H]C([H])=C([H])[H] | RMSD: 0.2238 | 1600.00 to state    1 from traj    1 on state    2
C     -1.622649     0.033706    -0.096860
H     -1.508626     0.287592     1.071935
H     -2.835725     0.374275    -0.096226
C     -0.921010     1.484663    -0.050635
H     -1.180975     2.347444     0.785427
H      0.103027     1.653117    -0.006917
6
Family_2 [H]C([H])=C([H])[H] | RMSD: 0.6977 | 3776.00 to state    1 from traj    1 on state    2
C     -1.666009     0.237552    -0.041145
H     -1.023450     0.462994     0.928119
H     -2.113979    -0.663153    -0.769404
C     -1.022300     1.393950    -0.019723
H     -0.856906     2.381971     0.510570
H      0.295643     1.132562     0.052713
6
Family_2 [H]C([H])=C([H])[H] | RMSD: 0.4891 | 4764.00 to state    1 from traj    1 on state    2
C     -1.574561     0.160111    -0.103879
H     -1.558665     0.220558     1.086422
H     -2.828799     0.503476    -0.042235
C     -0.908487     1.341358     0.014042
H     -1.578402     2.231910     0.550766
H     -0.178647     1.907855    -0.527763
6
Family_2 [H]C([H])=C([H])[H] | RMSD: 0.4445 | 6128.00 to state    1 from traj    1 on state    2
C     -1.610299     0.184967    -0.072959
H     -1.279932     0.599395     1.048841
H     -2.730304    -0.244835    -0.341588
C     -0.957521     1.410244    -0.055540
H     -1.272961     2.165256     0.832697
H      0.148803     1.226984    -0.012071
6
Family_2 [H]C([H])=C([H])[H] | RMSD: 0.5436 | 1484.00 to state    1 from traj    1 on state    2
C     -1.602673     0.132227    -0.148809
H     -1.806929    -0.354042     0.920513
H     -2.633343     0.037913     0.779341
C     -0.928758     1.450390    -0.029445
H     -1.047627     2.609634    -0.113418
H     -0.080089     1.603365     0.534291
6
Family_2 [H]C([H])=C([H])[H] | RMSD: 0.5623 | 1580.00 to state    1 from traj    1 on state    2
C     -1.633046     0.122807    -0.150484
H     -1.676975    -0.417565     0.960586
H     -2.432669     0.078404     0.787154
C     -0.921174     1.458255    -0.047224
H     -1.176978     2.658744    -0.098654
H     -0.009828     1.595815     0.703461
6
Family_2 [H]C([H])=C([H])[H] | RMSD: 0.7872 | 2044.00 to state    1 from traj    1 on state    2
C     -1.732277     0.236890    -0.028641
H     -0.737359     0.195389     1.023874
H     -1.704641    -0.420387    -0.817868
C     -0.946497     1.411240    -0.023563
H     -1.619259     2.219924     0.416637
H      0.248959     1.121314    -0.003871
6
Family_2 [H]C([H])=C([H])[H] | RMSD: 0.5980 | 3636.00 to state    1 from traj    1 on state    2
C     -1.646018     0.162460    -0.186627
H     -1.318525     0.486702     0.862669
H     -2.176268     0.117695     0.715538
C     -0.938877     1.361739     0.043601
H     -1.438640     2.369056    -0.249619
H      0.002498     1.619506     0.372378
6
Family_2 [H]C([H])=C([H])[H] | RMSD: 0.5286 | 568.00 to state    1 from traj    1 on state    2
C     -1.741484    -0.083602    -0.146010
H     -1.299319    -0.383269     0.955191
H     -2.539514     0.454843     0.675898
C     -0.806649     1.635547    -0.057556
H     -1.444585     2.426166    -0.048702
H     -0.085554     1.764607     0.839957
6
Family_2 [H]C([H])=C([H])[H] | RMSD: 0.4605 | 1764.00 to state    1 from traj    1 on state    2
C     -1.601187     0.076855    -0.069888
H     -1.439063     0.498996     1.008524
H     -2.614011     0.247084    -0.513238
C     -0.992919     1.466993     0.000779
H     -0.819513     2.256696     0.651133
H      0.051402     1.356048    -0.326220
6
Family_2 [H]C([H])=C([H])[H] | RMSD: 0.6384 | 4452.00 to state    1 from traj    1 on state    2
C     -1.567157     0.138316    -0.051869
H     -1.681743    -0.265932     0.932383
H     -2.295183     0.831431    -0.413302
C     -0.984737     1.366350     0.030771
H     -1.239225     2.540343     0.426037
H     -0.108018     1.719868    -0.697005
6
Family_2 [H]C([H])=C([H])[H] | RMSD: 0.5568 | 14780.00 to state    1 from traj    6 on state    2
C     -1.600463     0.115041    -0.099298
H     -1.871026     0.193395     0.756818
H     -2.699391     0.377131     0.265211
C     -0.860684     1.414744     0.021377
H     -1.704484     2.095971     0.413111
H     -0.130583     1.859909    -0.509931
6
Family_2 [H]C([H])=C([H])[H] | RMSD: 0.5640 | 1900.00 to state    1 from traj    1 on state    2
C     -1.622138     0.013286    -0.121791
H     -1.652585    -0.444649     0.907793
H     -2.248772     0.851145     0.548818
C     -0.946007     1.532619    -0.050517
H     -1.362205     2.632362     0.079451
H      0.133029     1.295459     0.513817
6
Family_2 [H]C([H])=C([H])[H] | RMSD: 0.7607 | 10396.00 to state    1 from traj    6 on state    2
C     -1.635970     0.232592     0.044099
H     -1.509347    -0.636265     0.812451
H     -1.960987    -0.319304    -0.920755
C     -1.032713     1.434720    -0.117534
H     -0.426297     2.376093     0.754913
H     -0.035921     1.467150     0.225127
6
Family_2 [H]C([H])=C([H])[H] | RMSD: 0.5222 | 784.00 to state    1 from traj    1 on state    2
C     -1.595543     0.085063    -0.066073
H     -1.400593     0.591134     0.910858
H     -2.539009     0.474980    -0.537165
C     -0.991702     1.420586     0.010592
H     -0.925600     2.181830     0.712407
H     -0.037736     1.566053    -0.428294
6
Family_2 [H]C([H])=C([H])[H] | RMSD: 0.6567 | 1400.00 to state    1 from traj    1 on state    2
C     -1.566901     0.210146    -0.068622
H     -2.162617    -0.181017     0.791874
H     -2.623202     0.055962     0.126605
C     -0.891243     1.381732     0.026316
H     -1.497449     2.099491     0.309432
H     -0.157998     1.812089    -0.727089
6
Family_2 [H]C([H])=C([H])[H] | RMSD: 0.6825 | 1504.00 to state    1 from traj    1 on state    2
C     -1.573760     0.203176    -0.069810
H     -2.178680    -0.218493     0.784320
H     -2.687381     0.003259     0.157257
C     -0.859847     1.379789     0.022682
H     -1.591343     2.255947     0.404497
H     -0.276225     1.852005    -0.787800
6
Family_2 [H]C([H])=C([H])[H] | RMSD: 0.6388 | 1172.00 to state    1 from traj    1 on state    2
C     -1.608714     0.168174    -0.197901
H     -1.526213     0.246759     1.279296
H     -2.586178     0.034973     0.595162
C     -0.943006     1.413537     0.100036
H     -1.405246     2.165017    -0.599979
H      0.191401     1.460912    -0.111634
6
Family_2 [H]C([H])=C([H])[H] | RMSD: 0.5386 | 612.00 to state    1 from traj    1 on state    2
C     -1.580685     0.054894    -0.071467
H     -1.652142     0.516878     0.989708
H     -2.672780     0.106404    -0.390849
C     -0.981490     1.526147    -0.003816
H     -0.725772     2.341451     0.685613
H     -0.150972     0.950919    -0.390711
6
Family_2 [H]C([H])=C([H])[H] | RMSD: 0.5907 | 1348.00 to state    1 from traj    1 on state    2
C     -1.606996     0.206780    -0.109044
H     -1.379313     0.433601     1.001021
H     -2.690416     0.243177    -0.026337
C     -0.896574     1.330511     0.053125
H     -1.786554     1.876733     0.226618
H     -0.043700     1.883446    -0.538266
6
Family_2 [H]C([H])=C([H])[H] | RMSD: 0.5041 | 1656.00 to state    1 from traj    1 on state    2
C     -1.655125     0.194099    -0.018948
H     -1.321120    -0.507364     0.802146
H     -2.604856    -0.240953    -0.315144
C     -0.935210     1.397469    -0.148847
H     -0.876113     2.524641     0.838967
H     -0.064025     2.013891     0.670137
6
Family_2 [H]C([H])=C([H])[H] | RMSD: 0.4218 | 2320.00 to state    1 from traj    1 on state    2
C     -1.586116     0.191199    -0.152193
H     -1.552823     0.280536     1.230265
H     -2.684226     0.224312     0.581279
C     -0.918510     1.379848    -0.061621
H     -1.630161     1.957033     0.390267
H     -0.020182     1.572849     0.342644
6
Family_2 [H]C([H])=C([H])[H] | RMSD: 0.6967 | 1248.00 to state    1 from traj    1 on state    2
C     -1.652816    -0.054571    -0.077657
H     -1.890769    -0.156432     1.127236
H     -2.560339     0.844647    -0.208194
C     -0.817523     1.540486     0.009008
H     -1.355411     2.225331     0.716224
H     -0.489425     2.135594    -0.820548
6
Family_2 [H]C([H])=C([H])[H] | RMSD: 0.4388 | 3612.00 to state    1 from traj    1 on state    2
C     -1.581469     0.147119    -0.105515
H     -1.700328     0.258491     1.083992
H     -2.764087     0.357526     0.091494
C     -0.917089     1.404179    -0.003261
H     -1.574428     1.980787     0.472848
H      0.079144     1.673255    -0.355481
6
Family_2 [H]C([H])=C([H])[H] | RMSD: 0.6624 | 1080.00 to state    1 from traj    1 on state    2
C     -1.525552     0.132529    -0.069931
H     -1.626037    -0.208828     0.910158
H     -2.177588     0.990741    -0.272227
C     -1.076520     1.401361     0.045259
H     -0.943428     2.571622     0.058812
H      0.020791     1.123952    -0.406043
6
Family_2 [H]C([H])=C([H])[H] | RMSD: 0.5807 | 2244.00 to state    1 from traj    1 on state    2
C     -1.580856     0.146617    -0.083302
H     -1.574271     0.240100     1.067504
H     -2.412512     0.768536    -0.151758
C     -0.930482     1.365501    -0.002856
H     -1.559206     1.933749     0.616326
H     -0.261429     1.794534    -0.508715
6
Family_2 [H]C([H])=C([H])[H] | RMSD: 0.4193 | 776.00 to state    1 from traj    1 on state    2
C     -1.655024     0.187348    -0.086145
H     -1.237070     0.412991     1.108246
H     -2.552739    -0.365298    -0.320548
C     -0.932828     1.395453    -0.028514
H     -1.357492     2.344351     0.633198
H      0.251594     1.502634    -0.057937
6
Family_2 [H]C([H])=C([H])[H] | RMSD: 0.7322 | 5636.00 to state    1 from traj    1 on state    2
C     -1.506174     0.108716    -0.024572
H     -2.229604    -0.334046     0.675542
H     -2.624720     0.668759    -0.249355
C     -0.975675     1.455705     0.013747
H     -0.954221     2.456710     0.537844
H     -0.350261     1.322269    -0.838325
6
Family_2 [H]C([H])=C([H])[H] | RMSD: 0.4923 | 7760.00 to state    1 from traj    1 on state    2
C     -1.531675     0.117576    -0.070258
H     -1.796766     0.099235     1.023952
H     -2.860983     0.674071    -0.194054
C     -0.968222     1.423510    -0.004977
H     -1.290973     2.155802     0.614176
H      0.004980     1.462631    -0.550875
6
Family_2 [H]C([H])=C([H])[H] | RMSD: 0.7581 | 8048.00 to state    1 from traj    1 on state    2
C     -1.768070     0.177159    -0.037876
H     -0.869357     0.199206     1.012440
H     -1.729178    -0.633108    -0.786028
C     -0.913400     1.454918    -0.021103
H     -1.474433     2.474362     0.512159
H      0.292787     1.267059    -0.039086
6
Family_2 [H]C([H])=C([H])[H] | RMSD: 0.3248 | 604.00 to state    1 from traj    1 on state    2
C     -1.683105     0.054496    -0.112597
H     -1.238654     0.387885     0.966097
H     -2.750169     0.136008     0.193130
C     -0.858753     1.499050    -0.066162
H     -1.530411     1.972270     0.551709
H      0.075492     1.747104     0.415814
6
Family_2 [H]C([H])=C([H])[H] | RMSD: 0.8289 | 11388.00 to state    1 from traj    1 on state    2
C     -1.541125     0.093917    -0.065557
H     -2.207653    -0.064129     1.083047
H     -2.456038     0.756507    -0.130534
C     -0.890101     1.452922     0.021898
H     -1.573254     2.254999     0.737494
H     -0.525058     1.375809    -1.173063
6
Family_2 [H]C([H])=C([H])[H] | RMSD: 0.5822 | 516.00 to state    1 from traj    1 on state    2
C     -1.547142     0.111339    -0.081425
H     -2.121010    -0.083083     0.969264
H     -2.811194     0.354696    -0.019496
C     -0.926121     1.444390     0.029825
H     -1.127563     2.326852     0.423952
H     -0.201343     1.618794    -0.762161
6
Family_2 [H]C([H])=C([H])[H] | RMSD: 0.6677 | 804.00 to state    1 from traj    1 on state    2
C     -1.587566     0.080427    -0.053166
H     -1.515428    -0.558636     1.173572
H     -2.343442     1.079458    -0.466231
C     -0.970477     1.441317     0.012114
H     -1.340287     2.512042     0.326716
H     -0.051738     1.589352    -0.548179
6
Family_2 [H]C([H])=C([H])[H] | RMSD: 0.4973 | 4392.00 to state    1 from traj    1 on state    2
C     -1.651789     0.140033    -0.110617
H     -1.398431     0.456451     1.165124
H     -2.534342    -0.416898    -0.320415
C     -0.959550     1.435924     0.040768
H     -0.837744     2.388009     0.263177
H      0.154681     1.548662    -0.278879
6
Family_2 [H]C([H])=C([H])[H] | RMSD: 0.7019 | 2708.00 to state    1 from traj    1 on state    2
C     -1.708149     0.234964     0.002151
H     -0.810330     0.199792     0.608322
H     -1.871607    -0.187822    -0.870138
C     -0.964692     1.344009    -0.040902
H     -1.335942     2.236294     0.639220
H      0.134882     1.692028     0.081062
6
Family_2 [H]C([H])=C([H])[H] | RMSD: 0.6367 | 3832.00 to state    1 from traj    1 on state    2
C     -1.539322     0.140615    -0.062711
H     -1.906955    -0.210290     1.188599
H     -2.595354     0.895306    -0.201615
C     -0.939150     1.385894    -0.027244
H     -1.511119     2.127856     0.760593
H     -0.185612     1.752564    -0.678987
6
Family_2 [H]C([H])=C([H])[H] | RMSD: 0.6093 | 5024.00 to state    1 from traj    1 on state    2
C     -1.532678     0.180659    -0.071411
H     -2.040159    -0.058553     1.048324
H     -2.552931     0.579764    -0.045725
C     -0.940763     1.371004    -0.005140
H     -1.459424     2.090138     0.619792
H     -0.206472     1.654360    -0.713514
6
Family_2 [H]C([H])=C([H])[H] | RMSD: 0.7149 | 960.00 to state    1 from traj    1 on state    2
C     -1.592855     0.078306    -0.144941
H     -1.505548    -0.469052     0.867308
H     -2.376765     0.721759     0.831078
C     -0.953758     1.488589    -0.050038
H     -1.007460     2.500486    -0.254671
H     -0.497310     1.331013     0.876310
6
Family_2 [H]C([H])=C([H])[H] | RMSD: 0.5301 | 2812.00 to state    1 from traj    1 on state    2
C     -1.587290     0.042714    -0.076443
H     -1.609523     0.440217     0.942504
H     -2.367447     0.603080    -0.382633
C     -0.996049     1.476126     0.019578
H     -0.912678     2.346572     0.599032
H     -0.059831     1.266951    -0.484589
6
Family_2 [H]C([H])=C([H])[H] | RMSD: 0.4218 | 3516.00 to state    1 from traj    1 on state    2
C     -1.578842     0.269843    -0.105950
H     -1.604841     0.132919     1.121894
H     -2.707210    -0.273902     0.009232
C     -0.948867     1.312588     0.001785
H     -1.449531     2.470902     0.397203
H      0.149236     1.569164    -0.290410
6
Family_2 [H]C([H])=C([H])[H] | RMSD: 0.3293 | 2456.00 to state    1 from traj    1 on state    2
C     -1.595467     0.178106    -0.107293
H     -1.534906     0.418350     0.980918
H     -2.635724     0.027133     0.205951
C     -0.945591     1.397832    -0.063996
H     -1.476801     2.146637     0.640697
H      0.194155     1.384343     0.210175
6
Family_2 [H]C([H])=C([H])[H] | RMSD: 0.6971 | 3776.00 to state    1 from traj    1 on state    2
C     -1.688493     0.200276    -0.017265
H     -0.762156     0.385886     0.623612
H     -2.029945    -0.104618    -0.873165
C     -0.970165     1.371368     0.017131
H     -1.328350     2.359254     0.431883
H      0.068445     1.387098    -0.184016
6
Family_2 [H]C([H])=C([H])[H] | RMSD: 0.6523 | 5576.00 to state    1 from traj    1 on state    2
C     -1.536613     0.146743    -0.032271
H     -1.975320    -0.179221     0.895052
H     -2.332037     0.779654    -0.390780
C     -1.013290     1.408391     0.000926
H     -1.267520     2.166847     0.563619
H      0.226990     1.457069    -0.697674
6
Family_2 [H]C([H])=C([H])[H] | RMSD: 0.7399 | 2080.00 to state    1 from traj    1 on state    2
C     -1.769890     0.217754    -0.085671
H     -1.225585     0.356604     1.077561
H     -1.706623    -1.058711    -0.212857
C     -0.892386     1.423229    -0.069216
H     -1.274318     2.296492     0.606960
H      0.197630     1.607017     0.370634
6
Family_2 [H]C([H])=C([H])[H] | RMSD: 0.3495 | 3436.00 to state    1 from traj    1 on state    2
C     -1.589190     0.126922    -0.100416
H     -1.604310     0.424295     1.063034
H     -2.688668     0.290413     0.088719
C     -0.949810     1.435357    -0.063902
H     -1.484652     2.031249     0.743671
H      0.299820     1.393258     0.059249
6
Family_2 [H]C([H])=C([H])[H] | RMSD: 0.5756 | 2584.00 to state    1 from traj    1 on state    2
C     -1.728802     0.187908    -0.118612
H     -1.304355     0.316744     1.042782
H     -2.125247    -0.780100    -0.048803
C     -0.884426     1.392437     0.006225
H     -1.239019     2.554541     0.302377
H      0.075282     1.832757     0.039528
6
Family_2 [H]C([H])=C([H])[H] | RMSD: 0.4636 | 9036.00 to state    1 from traj    1 on state    2
C     -1.592731     0.128691    -0.099681
H     -1.460379     0.334545     1.336774
H     -2.840890     0.175625    -0.374957
C     -0.946874     1.422731     0.021474
H     -1.332415     2.329759     0.551259
H      0.163099     1.428651    -0.584473
6
Family_2 [H]C([H])=C([H])[H] | RMSD: 0.2125 | 572.00 to state    1 from traj    1 on state    2
C     -1.724682    -0.044404    -0.120401
H     -1.323256     0.220878     1.055402
H     -2.761201     0.095035     0.170144
C     -0.821669     1.598177    -0.049532
H     -1.532101     2.279491     0.501725
H      0.226353     1.645165     0.294314
6
Family_2 [H]C([H])=C([H])[H] | RMSD: 0.3119 | 4568.00 to state    1 from traj    1 on state    2
C     -1.596686     0.154072    -0.142701
H     -1.650883     0.172408     1.166375
H     -2.747829     0.121430     0.487560
C     -0.916656     1.408627    -0.054959
H     -1.479433     2.243188     0.441049
H      0.094612     1.597187     0.256995
6
Family_2 [H]C([H])=C([H])[H] | RMSD: 0.3785 | 4684.00 to state    1 from traj    1 on state    2
C     -1.600422     0.206355    -0.136670
H     -1.591493     0.328497     1.001079
H     -2.662239    -0.171121     0.474644
C     -0.942858     1.375416    -0.049147
H     -1.423160     2.222587     0.368987
H      0.250084     1.526993     0.366147
6
Family_2 [H]C([H])=C([H])[H] | RMSD: 0.6831 | 4116.00 to state    1 from traj    1 on state    2
C     -1.609289     0.233025     0.021445
H     -1.423160    -0.438558     1.152299
H     -2.056988    -0.121917    -0.924685
C     -1.050129     1.438387    -0.129365
H     -0.576460     2.172956     0.857009
H      0.013675     1.226334     0.198031
6
Family_2 [H]C([H])=C([H])[H] | RMSD: 0.4728 | 1200.00 to state    1 from traj    1 on state    2
C     -1.621267     0.010273    -0.066613
H     -1.473055    -0.398139     0.941000
H     -2.406034     0.734958     0.121795
C     -0.920795     1.590798    -0.100043
H     -1.303707     2.378529     0.465430
H     -0.258533     0.961625     0.454316
6
Family_2 [H]C([H])=C([H])[H] | RMSD: 0.4641 | 1248.00 to state    1 from traj    1 on state    2
C     -1.626441    -0.012913    -0.069964
H     -1.489128    -0.337096     0.917469
H     -2.384676     0.779507     0.135895
C     -0.920373     1.598871    -0.102420
H     -1.208498     2.381432     0.511664
H     -0.302398     1.033211     0.485760
6
Family_2 [H]C([H])=C([H])[H] | RMSD: 0.4649 | 1252.00 to state    2 from traj    2 on state    1
C     -1.626969    -0.015801    -0.070993
H     -1.513580    -0.338873     0.916893
H     -2.384984     0.777481     0.161244
C     -0.917036     1.601885    -0.105638
H     -1.210757     2.372930     0.526162
H     -0.308857     1.044018     0.497098
6
Family_2 [H]C([H])=C([H])[H] | RMSD: 0.6986 | 676.00 to state    1 from traj    1 on state    2
C     -1.699548    -0.055420    -0.094632
H     -1.207005    -0.693326     0.785449
H     -2.263208     0.741137     0.479965
C     -0.861947     1.631727    -0.108446
H     -1.164128     2.577068     0.089649
H     -0.575429     1.347187     1.061463
6
Family_2 [H]C([H])=C([H])[H] | RMSD: 0.6663 | 2508.00 to state    1 from traj    1 on state    2
C     -1.643280     0.033946    -0.081837
H     -1.735207    -0.025311     0.951264
H     -2.298936     0.829188    -0.150867
C     -0.866667     1.430803     0.019424
H     -1.401997     2.252355     0.595836
H     -0.387852     2.245118    -0.655829
6
Family_2 [H]C([H])=C([H])[H] | RMSD: 0.7053 | 1904.00 to state    1 from traj    1 on state    2
C     -1.634363    -0.068821    -0.058481
H     -2.199652    -0.156525     0.825322
H     -2.405000     0.597165    -0.209566
C     -0.861858     1.593768     0.036637
H     -1.098021     2.500685     0.591537
H     -0.284870     1.642722    -0.950290
6
Family_2 [H]C([H])=C([H])[H] | RMSD: 0.5987 | 3188.00 to state    1 from traj    1 on state    2
C     -1.672867     0.199026    -0.060533
H     -0.989108     0.411141     1.145705
H     -2.538791    -0.531879    -0.743945
C     -0.936983     1.407205     0.009219
H     -1.177851     2.332742     0.508328
H      0.072169     1.403490    -0.301932
6
Family_2 [H]C([H])=C([H])[H] | RMSD: 0.5227 | 4984.00 to state    1 from traj    1 on state    2
C     -1.539470     0.141757    -0.062828
H     -1.718999     0.002444     1.034642
H     -2.606033     0.675771    -0.285564
C     -0.969376     1.386631    -0.011931
H     -1.366935     2.480512     0.734228
H     -0.145135     1.384319    -0.595791
6
Family_2 [H]C([H])=C([H])[H] | RMSD: 0.5286 | 5148.00 to state    1 from traj    1 on state    2
C     -1.595126     0.060545    -0.067880
H     -1.642784     0.127163     0.980079
H     -2.405075     0.853520    -0.276870
C     -0.947778     1.448398    -0.004842
H     -1.449473     2.228697     0.666192
H      0.066045     1.565365    -0.506150
6
Family_2 [H]C([H])=C([H])[H] | RMSD: 0.5270 | 2940.00 to state    1 from traj    1 on state    2
C     -1.615196     0.213868    -0.082267
H     -1.346879     0.450617     0.900919
H     -2.627927    -0.020633    -0.133250
C     -0.900970     1.362435     0.009186
H     -1.866445     2.096037     0.493458
H      0.091363     1.446091    -0.393608
6
Family_2 [H]C([H])=C([H])[H] | RMSD: 0.5549 | 3052.00 to state    1 from traj    1 on state    2
C     -1.635554     0.190712    -0.087198
H     -1.305240     0.488234     0.925086
H     -2.580149    -0.072855    -0.096256
C     -0.885998     1.410841     0.017340
H     -1.822667     1.876097     0.333908
H      0.022342     1.379764    -0.333619
6
Family_2 [H]C([H])=C([H])[H] | RMSD: 0.5552 | 4488.00 to state    1 from traj    1 on state    2
C     -1.642384     0.105671    -0.076165
H     -1.334754     0.590281     1.066097
H     -2.522158    -0.202212    -0.577017
C     -0.948112     1.466533     0.027467
H     -1.037546     2.408878     0.596216
H      0.030260     1.223991    -0.508298
6
Family_2 [H]C([H])=C([H])[H] | RMSD: 0.6260 | 1564.00 to state    1 from traj    1 on state    2
C     -1.771169     0.001115    -0.152511
H     -0.756774     0.221167     0.739959
H     -2.590954    -0.049447     0.368443
C     -0.831430     1.550339     0.046445
H     -1.365146     2.277051    -0.493747
H     -0.007106     1.819425     0.645905
6
Family_2 [H]C([H])=C([H])[H] | RMSD: 0.6392 | 1800.00 to state    1 from traj    1 on state    2
C     -1.663351    -0.028328    -0.065589
H     -1.566223     0.702480     0.878918
H     -2.835517     0.082228    -0.560059
C     -0.860907     1.550741     0.038651
H     -1.003588     2.137144     0.804606
H     -0.248137     1.692394    -0.805764
6
Family_2 [H]C([H])=C([H])[H] | RMSD: 0.7042 | 1580.00 to state    1 from traj    1 on state    2
C     -1.658350     0.257288    -0.022565
H     -0.875140     0.220079     0.968189
H     -2.008531    -0.255261    -0.937589
C     -0.995832     1.342860    -0.007412
H     -1.304912     2.549653     0.584614
H      0.083255     1.173501    -0.261297
6
Family_2 [H]C([H])=C([H])[H] | RMSD: 0.4380 | 1904.00 to state    1 from traj    1 on state    2
C     -1.564457     0.098464    -0.076212
H     -1.953409     0.093488     0.929998
H     -2.679451     0.572471     0.021135
C     -0.944911     1.427747    -0.047991
H     -1.191093     2.101674     0.780619
H     -0.006946     1.801349    -0.255076
6
Family_2 [H]C([H])=C([H])[H] | RMSD: 0.5177 | 2692.00 to state    1 from traj    1 on state    2
C     -1.613697     0.126311    -0.086219
H     -1.291605     0.430862     1.200230
H     -2.911584     0.203876    -0.510175
C     -0.916485     1.388644     0.025005
H     -1.353625     2.289313     0.670716
H     -0.026075     1.779065    -0.634640
6
Family_2 [H]C([H])=C([H])[H] | RMSD: 0.7501 | 1032.00 to state    1 from traj    1 on state    2
C     -1.655607     0.050377    -0.134868
H     -1.348780    -0.524469     0.771996
H     -2.166477     0.698598     0.847137
C     -0.900258     1.517492    -0.072263
H     -1.333941     2.462531    -0.192679
H     -0.427647     1.435947     1.038365
6
Family_2 [H]C([H])=C([H])[H] | RMSD: 0.7783 | 1252.00 to state    1 from traj    1 on state    2
C     -1.753025     0.183060    -0.085205
H     -1.132898     0.488767     1.122195
H     -1.657869    -0.968765    -0.361039
C     -0.910446     1.474565    -0.035575
H     -1.177447     2.427159     0.517928
H     -0.026433     1.055948     0.156803
6
Family_2 [H]C([H])=C([H])[H] | RMSD: 0.7279 | 4228.00 to state    1 from traj    1 on state    2
C     -1.737752     0.196962    -0.062747
H     -0.771560     0.321658     0.980556
H     -2.365526    -0.452843    -0.626964
C     -0.868001     1.418447     0.058417
H     -1.820109     2.026817     0.063685
H      0.274797     1.610499    -0.368963
6
Family_2 [H]C([H])=C([H])[H] | RMSD: 0.5800 | 632.00 to state    1 from traj    1 on state    2
C     -1.609281     0.141045    -0.156504
H     -1.793735    -0.281221     1.047934
H     -2.679413    -0.064713     0.714121
C     -0.917139     1.478417     0.021564
H     -1.353537     2.430185    -0.369108
H      0.198984     1.373584     0.211675
6
Family_2 [H]C([H])=C([H])[H] | RMSD: 0.4735 | 2164.00 to state    1 from traj    1 on state    2
C     -1.583087     0.030040    -0.079077
H     -1.640962     0.428366     1.093842
H     -2.605920     0.444485    -0.420885
C     -1.000893     1.502899    -0.008506
H     -0.811935     2.410640     0.751158
H      0.116971     1.205327    -0.383785
6
Family_2 [H]C([H])=C([H])[H] | RMSD: 0.3988 | 2232.00 to state    1 from traj    1 on state    2
C     -1.709871    -0.017407    -0.105222
H     -1.426718     0.200524     0.962745
H     -2.546684     0.475098     0.183640
C     -0.819539     1.535921    -0.060938
H     -1.681781     1.963671     0.639314
H      0.063110     2.021415     0.190928
6
Family_2 [H]C([H])=C([H])[H] | RMSD: 0.3773 | 2744.00 to state    1 from traj    1 on state    2
C     -1.630141     0.167223    -0.103620
H     -1.411459     0.351078     1.073496
H     -2.553475    -0.172412    -0.114425
C     -0.925458     1.401406    -0.000128
H     -1.405185     2.471983     0.491052
H      0.090106     1.412894    -0.217182
6
Family_2 [H]C([H])=C([H])[H] | RMSD: 0.7139 | 3820.00 to state    1 from traj    1 on state    2
C     -1.678704    -0.051842    -0.069840
H     -1.816872    -0.191075     1.026439
H     -2.563587     0.938307    -0.070596
C     -0.798969     1.532872    -0.043772
H     -1.480540     1.827480     0.799911
H     -0.347560     2.532636    -0.405273
6
Family_2 [H]C([H])=C([H])[H] | RMSD: 0.6719 | 6044.00 to state    1 from traj    1 on state    2
C     -1.554127     0.100466    -0.024591
H     -1.760960    -0.524274     0.837153
H     -2.217025     0.935863    -0.402218
C     -1.003839     1.456284    -0.007381
H     -1.168041     2.596886     0.426199
H     -0.105783     1.196625    -0.483444
6
Family_2 [H]C([H])=C([H])[H] | RMSD: 0.4451 | 3536.00 to state    1 from traj    1 on state    2
C     -1.679005     0.012927    -0.150835
H     -1.289732     0.164986     0.951691
H     -2.567887     0.506137     0.651333
C     -0.849906     1.514238    -0.065888
H     -1.789248     2.322801     0.335563
H      0.048838     1.563695     0.640531
6
Family_2 [H]C([H])=C([H])[H] | RMSD: 0.6154 | 1152.00 to state    1 from traj    1 on state    2
C     -1.595782     0.037712    -0.118843
H     -1.694228    -0.462964     0.870093
H     -2.198303     0.815160     0.529912
C     -0.975848     1.524683    -0.033181
H     -1.069307     2.622101    -0.070600
H     -0.127165     1.163536     0.478779
6
Family_2 [H]C([H])=C([H])[H] | RMSD: 0.5074 | 13880.00 to state    1 from traj    1 on state    2
C     -1.567243     0.187512    -0.096788
H     -1.501641     0.295149     1.293082
H     -2.655754     0.226388    -0.217586
C     -0.949642     1.396526     0.011613
H     -1.571629     2.208843     0.492636
H     -0.012302     1.149556    -0.556494
6
Family_2 [H]C([H])=C([H])[H] | RMSD: 0.4438 | 2408.00 to state    1 from traj    1 on state    2
C     -1.545562     0.164699    -0.102479
H     -1.903646    -0.034995     1.281348
H     -2.735672     0.490902     0.073306
C     -0.950243     1.385515    -0.030880
H     -1.345093     2.098729     0.586310
H     -0.008093     1.728342    -0.355183
6
Family_2 [H]C([H])=C([H])[H] | RMSD: 0.6431 | 1376.00 to state    1 from traj    1 on state    2
C     -1.526344     0.140412    -0.054324
H     -2.248095    -0.208938     0.900037
H     -2.829929     0.430534    -0.061421
C     -0.918109     1.410013    -0.014702
H     -1.232794     2.338803     0.757764
H     -0.293575     1.720054    -0.777179
6
Family_2 [H]C([H])=C([H])[H] | RMSD: 0.6182 | 2760.00 to state    1 from traj    1 on state    2
C     -1.565331     0.169065    -0.094495
H     -2.129238    -0.106592     0.989587
H     -2.938484     0.129511     0.219290
C     -0.860025     1.361290    -0.019872
H     -1.313705     2.304614     0.700566
H     -0.450516     2.192075    -0.549965
6
Family_2 [H]C([H])=C([H])[H] | RMSD: 0.5912 | 2008.00 to state    1 from traj    1 on state    2
C     -1.563600     0.118785    -0.092202
H     -1.636415     0.293624     1.128908
H     -2.305199     0.554377    -0.364994
C     -1.013627     1.410102     0.056871
H     -1.090786     2.469610     0.376616
H      0.010092     1.219494    -0.722828
6
Family_2 [H]C([H])=C([H])[H] | RMSD: 0.3143 | 4856.00 to state    1 from traj    1 on state    2
C     -1.636944     0.038922    -0.122742
H     -1.595314     0.229430     1.347692
H     -2.714349     0.414949     0.065498
C     -0.903579     1.501167    -0.046262
H     -1.420664     2.048127     0.628612
H      0.270669     1.711107    -0.031290
6
Family_2 [H]C([H])=C([H])[H] | RMSD: 0.5856 | 2484.00 to state    1 from traj    1 on state    2
C     -1.570612     0.114279    -0.094912
H     -1.989214     0.114001     0.918776
H     -2.625395     0.462890     0.058406
C     -0.910459     1.412745     0.040332
H     -1.275047     2.156517     0.387770
H     -0.278419     1.825891    -0.717870
6
Family_2 [H]C([H])=C([H])[H] | RMSD: 0.8136 | 4140.00 to state    1 from traj    1 on state    2
C     -1.423982     0.169823    -0.013263
H     -1.565568    -0.371471     0.813783
H     -2.523911     1.238123    -0.333052
C     -1.156084     1.446496    -0.077701
H     -0.869143     2.430561     0.446776
H     -0.029861     0.198073     0.153112
6
Family_2 [H]C([H])=C([H])[H] | RMSD: 0.6673 | 1560.00 to state    1 from traj    1 on state    2
C     -1.556432     0.187881    -0.005407
H     -1.650852    -0.046982     1.157747
H     -2.358262    -0.064009    -0.741584
C     -1.068461     1.498467    -0.091330
H     -0.452543     1.964676     0.745543
H      0.007330     0.807151    -0.012299
6
Family_2 [H]C([H])=C([H])[H] | RMSD: 0.7603 | 1436.00 to state    1 from traj    1 on state    2
C     -1.663489     0.193692    -0.176890
H     -1.219195     0.299174     1.076107
H     -2.440848    -0.208162     0.399308
C     -0.902151     1.407224     0.141520
H     -1.584337     2.051516    -0.835310
H      0.084011     1.536297    -0.221936
6
Family_2 [H]C([H])=C([H])[H] | RMSD: 0.3578 | 1852.00 to state    1 from traj    1 on state    2
C     -1.579490     0.104365    -0.094638
H     -1.446014     0.356473     1.314193
H     -2.801529     0.241029    -0.352667
C     -0.991067     1.448961    -0.031393
H     -0.908317     2.324795     0.706405
H      0.054072     1.323593    -0.169474
6
Family_2 [H]C([H])=C([H])[H] | RMSD: 0.7669 | 1288.00 to state    1 from traj    1 on state    2
C     -1.653895    -0.051609    -0.059926
H     -2.020439    -0.188563     1.009209
H     -2.289782     0.805448    -0.210556
C     -0.812950     1.565473     0.005925
H     -1.342870     2.188993     0.737494
H     -0.684490     1.910237    -0.895969
6
Family_2 [H]C([H])=C([H])[H] | RMSD: 0.6389 | 1804.00 to state    1 from traj    1 on state    2
C     -1.532611     0.193395    -0.006651
H     -1.589476    -0.447511     0.841637
H     -2.289269     0.891370    -0.616983
C     -1.044381     1.347635    -0.025338
H     -1.021267     2.382060     0.553896
H     -0.125101     1.566491    -0.400659
6
Family_2 [H]C([H])=C([H])[H] | RMSD: 0.5216 | 856.00 to state    1 from traj    1 on state    2
C     -1.693980     0.060652    -0.181127
H     -1.285129     0.200248     1.155306
H     -2.452315     0.140918     0.655624
C     -0.862605     1.509281     0.012169
H     -1.683411     2.188977    -0.209743
H      0.152593     1.517865     0.408776
6
Family_2 [H]C([H])=C([H])[H] | RMSD: 0.7971 | 1100.00 to state    1 from traj    1 on state    2
C     -1.590476     0.134381    -0.116359
H     -1.502349    -0.607557     0.613920
H     -2.118707     0.749883     0.829493
C     -0.971460     1.431502    -0.077180
H     -1.106467     2.552242    -0.172229
H     -0.476984     1.401691     1.031683
6
Family_2 [H]C([H])=C([H])[H] | RMSD: 0.7996 | 720.00 to state    1 from traj    1 on state    2
C     -1.659642     0.109700    -0.073661
H     -1.512387    -0.037175     0.977374
H     -2.828841     0.175925    -0.147627
C     -0.790019     1.511948     0.091542
H     -2.019033     1.594938    -0.125920
H     -0.182070     1.698098    -0.920169
6
Family_2 [H]C([H])=C([H])[H] | RMSD: 0.5423 | 1712.00 to state    1 from traj    1 on state    2
C     -1.535189     0.125682    -0.086605
H     -2.105787    -0.204677     1.250425
H     -2.773906     0.408578    -0.038003
C     -0.947593     1.450526    -0.007910
H     -1.256607     2.392751     0.559489
H     -0.011383     1.376585    -0.648978
6
Family_2 [H]C([H])=C([H])[H] | RMSD: 0.5635 | 2244.00 to state    1 from traj    1 on state    2
C     -1.702974     0.200722    -0.124037
H     -1.428535     0.354337     0.954605
H     -2.077070    -0.725976     0.159861
C     -0.902319     1.387771    -0.014019
H     -1.372027     2.619819     0.359421
H      0.189745     1.578671     0.167859
6
Family_2 [H]C([H])=C([H])[H] | RMSD: 0.4974 | 3068.00 to state    1 from traj    1 on state    2
C     -1.615166     0.087404    -0.102889
H     -1.406572     0.369073     1.233008
H     -2.561214     0.276786    -0.448039
C     -0.959298     1.426794     0.049970
H     -0.963929     2.481052     0.442846
H     -0.123517     1.585209    -0.600529
6
Family_2 [H]C([H])=C([H])[H] | RMSD: 0.7072 | 3016.00 to state    1 from traj    1 on state    2
C     -1.532906     0.122114    -0.049074
H     -2.175066    -0.317184     0.940668
H     -2.586712     0.768564    -0.122921
C     -0.922994     1.410417    -0.013986
H     -1.230075     2.234318     0.714701
H     -0.476144     1.807988    -0.784331
6
Family_2 [H]C([H])=C([H])[H] | RMSD: 0.5077 | 8968.00 to state    1 from traj    1 on state    2
C     -1.594662     0.147115    -0.080213
H     -1.393985     0.437698     1.150631
H     -2.623982     0.089363    -0.474374
C     -0.969334     1.427140     0.029251
H     -1.196920     2.251637     0.482746
H      0.034922     1.217802    -0.555040
6
Family_2 [H]C([H])=C([H])[H] | RMSD: 0.7103 | 2200.00 to state    1 from traj    1 on state    2
C     -1.514209     0.172984    -0.023884
H     -2.017375    -0.412297     0.879951
H     -2.450285     0.769759    -0.358699
C     -0.977964     1.381846    -0.004593
H     -1.363254     2.479503     0.656489
H     -0.204866     1.391001    -0.841700
6
Family_2 [H]C([H])=C([H])[H] | RMSD: 0.6698 | 3192.00 to state    1 from traj    1 on state    2
C     -1.545046     0.286611    -0.001330
H     -1.533217    -0.158657     0.943738
H     -2.539363    -0.375259    -0.571723
C     -1.004716     1.432559    -0.060460
H     -1.117302     2.281086     0.578609
H     -0.159689     0.522587    -0.217644
6
Family_2 [H]C([H])=C([H])[H] | RMSD: 0.6870 | 2776.00 to state    1 from traj    1 on state    2
C     -1.623075     0.257653    -0.146535
H     -1.782682     0.325603     0.925081
H     -2.036554    -0.699665     0.476513
C     -0.981083     1.376053     0.025734
H     -1.071944     2.439602    -0.105723
H      0.189773     1.222568     0.140278
6
Family_2 [H]C([H])=C([H])[H] | RMSD: 0.6102 | 6016.00 to state    1 from traj    1 on state    2
C     -1.600770     0.220024    -0.046330
H     -1.195088     0.429636     0.810539
H     -2.378355    -0.037441    -0.679069
C     -0.994711     1.340923     0.040851
H     -1.237453     2.529334     0.495700
H      0.006098     1.233557    -0.565168
6
Family_2 [H]C([H])=C([H])[H] | RMSD: 0.8089 | 668.00 to state    1 from traj    1 on state    2
C     -1.542477     0.119500     0.016343
H     -1.951890    -0.425783     0.932309
H     -2.497341     0.381273    -0.872538
C     -1.089503     1.505906    -0.031507
H      0.007892     1.885145     0.449223
H      0.071451     1.546377    -0.331587
6
Family_2 [H]C([H])=C([H])[H] | RMSD: 0.7962 | 800.00 to state    1 from traj    1 on state    2
C     -1.535427     0.150128     0.025877
H     -2.004267    -0.335718     0.844602
H     -2.303020     0.143806    -0.811417
C     -1.105296     1.516640    -0.064236
H     -0.047048     2.014768     0.601885
H      0.088628     1.071304    -0.181280
6
Family_2 [H]C([H])=C([H])[H] | RMSD: 0.6776 | 1804.00 to state    1 from traj    1 on state    2
C     -1.496767     0.166412    -0.044998
H     -2.300315    -0.504351     0.920484
H     -2.559453     0.465408    -0.125565
C     -1.004571     1.417772    -0.011218
H     -0.818192     2.543487     0.492963
H     -0.248617     1.373660    -0.621313
6
Family_2 [H]C([H])=C([H])[H] | RMSD: 0.2614 | 1252.00 to state    1 from traj    1 on state    2
C     -1.653413     0.089246    -0.110981
H     -1.428010     0.368680     1.122783
H     -2.741793    -0.156877    -0.073832
C     -0.906189     1.462143    -0.031335
H     -1.171240     2.439808     0.634297
H      0.108723     1.617371     0.009258
6
Family_2 [H]C([H])=C([H])[H] | RMSD: 0.6539 | 1548.00 to state    1 from traj    1 on state    2
C     -1.644435     0.123202    -0.062650
H     -1.296167     0.699802     0.882132
H     -2.651967    -0.053880    -0.575201
C     -0.891419     1.424007     0.044811
H     -1.593595     2.249526     0.700615
H      0.026438     1.423335    -0.798257
6
Family_2 [H]C([H])=C([H])[H] | RMSD: 0.5017 | 5616.00 to state    1 from traj    1 on state    2
C     -1.583776     0.011143    -0.067222
H     -1.773124    -0.269883     1.096288
H     -2.669772     0.912394    -0.311053
C     -0.969034     1.485544    -0.021528
H     -1.001161     2.511137     0.638551
H      0.130810     1.767134    -0.369550
6
Family_2 [H]C([H])=C([H])[H] | RMSD: 0.3986 | 7304.00 to state    1 from traj    1 on state    2
C     -1.637646     0.131089    -0.130279
H     -1.490107     0.295244     1.318094
H     -2.776778     0.072003     0.014026
C     -0.884138     1.403827     0.004318
H     -1.543663     2.191069     0.472775
H      0.127593     1.906934    -0.307264
6
Family_2 [H]C([H])=C([H])[H] | RMSD: 0.3060 | 4716.00 to state    1 from traj    1 on state    2
C     -1.734129    -0.036366    -0.084385
H     -1.299210     0.436359     0.926748
H     -2.728025    -0.151607    -0.183473
C     -0.850877     1.597644    -0.063306
H     -1.265882     2.210524     0.769721
H      0.363502     1.655856     0.243559
6
Family_2 [H]C([H])=C([H])[H] | RMSD: 0.6245 | 836.00 to state    1 from traj    1 on state    2
C     -1.594258     0.045743    -0.064556
H     -1.574262     0.670232     0.955700
H     -2.515828     0.281105    -0.608719
C     -0.988655     1.485919     0.023122
H     -0.715451     2.314093     0.771006
H     -0.149018     1.238599    -0.627561
6
Family_2 [H]C([H])=C([H])[H] | RMSD: 0.6401 | 4272.00 to state    1 from traj    1 on state    2
C     -1.604351     0.149030     0.018218
H     -1.501199    -0.328127     0.809433
H     -2.342128    -0.094767    -0.565417
C     -0.956464     1.543823    -0.121708
H     -1.109195     2.464112     0.891495
H     -0.265345     0.542116     0.094366
6
Family_2 [H]C([H])=C([H])[H] | RMSD: 0.4495 | 3296.00 to state    1 from traj    1 on state    2
C     -1.690192     0.138709    -0.128023
H     -1.225868     0.528582     0.777591
H     -2.411145    -0.333804     0.340551
C     -0.884937     1.425031    -0.041026
H     -1.474571     2.367122     0.396769
H      0.064274     1.559896     0.496137
6
Family_2 [H]C([H])=C([H])[H] | RMSD: 0.7036 | 1372.00 to state    1 from traj    1 on state    2
C     -1.731134     0.218611    -0.021986
H     -0.926609     0.378290     0.757165
H     -2.036992    -0.641591    -0.691355
C     -0.922834     1.426565    -0.032145
H     -1.445426     1.997552     0.505607
H      0.301144     1.417181     0.070315
6
Family_2 [H]C([H])=C([H])[H] | RMSD: 0.5181 | 660.00 to state    1 from traj    1 on state    2
C     -1.557757     0.085501    -0.081602
H     -1.911811     0.102840     1.003954
H     -2.879255     0.544023    -0.087516
C     -0.918260     1.447105     0.009528
H     -1.381881     2.261910     0.620847
H     -0.055346     1.584021    -0.681751
6
Family_2 [H]C([H])=C([H])[H] | RMSD: 0.3475 | 2944.00 to state    1 from traj    1 on state    2
C     -1.598441     0.149493    -0.114264
H     -1.537019     0.253085     1.248629
H     -2.749860    -0.008870    -0.115035
C     -0.943655     1.410402     0.008607
H     -1.202369     2.436796     0.442768
H      0.048328     1.486609    -0.320675
6
Family_2 [H]C([H])=C([H])[H] | RMSD: 0.6756 | 1276.00 to state    1 from traj    1 on state    2
C     -1.574232     0.135489    -0.009773
H     -1.770364    -0.078584     1.146002
H     -2.580506    -0.013528    -0.765298
C     -1.058705     1.523895    -0.067937
H     -0.217950     1.724740     0.618362
H      0.210337     1.349519    -0.076374
6
Family_2 [H]C([H])=C([H])[H] | RMSD: 0.7537 | 1960.00 to state    1 from traj    1 on state    2
C     -1.562591     0.157433    -0.035943
H     -1.435866    -0.392124     1.001417
H     -2.222586     1.118972    -0.505709
C     -0.976598     1.378748     0.029485
H     -1.521687     2.216369     0.269015
H     -0.295411     1.506971    -0.691050
6
Family_2 [H]C([H])=C([H])[H] | RMSD: 0.7819 | 2524.00 to state    1 from traj    1 on state    2
C     -1.570639     0.100926    -0.137727
H     -1.869651    -0.454366     0.835761
H     -2.109777     0.834098     0.618128
C     -1.008072     1.464169     0.061221
H     -1.051446     2.322264    -0.644276
H      0.026255     1.403659     0.098729
6
Family_2 [H]C([H])=C([H])[H] | RMSD: 0.6597 | 524.00 to state    1 from traj    1 on state    2
C     -1.559267     0.195831    -0.087016
H     -2.152035    -0.247661     0.961311
H     -2.609908     0.029556     0.168096
C     -0.901441     1.417187     0.044587
H     -1.502638     2.320029     0.152849
H     -0.146120     1.432705    -0.779965
6
Family_2 [H]C([H])=C([H])[H] | RMSD: 0.5597 | 832.00 to state    1 from traj    1 on state    2
C     -1.540336     0.134443    -0.087334
H     -1.767069     0.033243     1.245147
H     -2.794542     0.677480    -0.215323
C     -0.951336     1.401090     0.020031
H     -1.379233     2.163072     0.508764
H     -0.100907     1.584119    -0.739902
6
Family_2 [H]C([H])=C([H])[H] | RMSD: 0.1826 | 736.00 to state    1 from traj    1 on state    2
C     -1.721383    -0.067165    -0.098029
H     -1.432363     0.240333     0.891811
H     -2.704019     0.085961     0.072282
C     -0.847376     1.619828    -0.066423
H     -1.212705     2.246754     0.621233
H      0.225885     1.680749     0.370948
6
Family_2 [H]C([H])=C([H])[H] | RMSD: 0.4191 | 1388.00 to state    1 from traj    1 on state    2
C     -1.674477    -0.003901    -0.073909
H     -1.392909     0.512433     0.995978
H     -2.813265     0.213910    -0.416594
C     -0.885963     1.529252    -0.019215
H     -1.273291     2.088533     0.814629
H      0.257137     1.764356    -0.287660
6
Family_2 [H]C([H])=C([H])[H] | RMSD: 0.6641 | 3288.00 to state    1 from traj    1 on state    2
C     -1.576477     0.246514    -0.005488
H     -1.508079    -0.223237     1.077211
H     -2.319373    -0.347061    -0.624896
C     -1.012027     1.469405    -0.079874
H     -0.995455     2.336336     0.635563
H     -0.065017     0.542447    -0.074016
6
Family_2 [H]C([H])=C([H])[H] | RMSD: 0.6035 | 1884.00 to state    1 from traj    1 on state    2
C     -1.526641     0.171365    -0.123386
H     -1.707676     0.161231     1.154441
H     -2.657868     0.478994    -0.109556
C     -1.010543     1.349031     0.101225
H     -0.928961     2.457545    -0.018169
H     -0.204941     1.540503    -0.765932
6
Family_2 [H]C([H])=C([H])[H] | RMSD: 0.4032 | 1804.00 to state    1 from traj    1 on state    2
C     -1.611295     0.170820    -0.095781
H     -1.411214     0.368367     1.179088
H     -2.709942     0.203753    -0.167772
C     -0.925027     1.370016    -0.026931
H     -1.538040     2.019713     0.672889
H      0.149487     1.802888    -0.225294
6
Family_2 [H]C([H])=C([H])[H] | RMSD: 0.5976 | 4448.00 to state    1 from traj    1 on state    2
C     -1.531443     0.110329    -0.046059
H     -2.203406    -0.126626     0.905696
H     -2.709076     0.673967    -0.128292
C     -0.951657     1.416096    -0.057168
H     -1.163252     2.205209     0.984372
H     -0.068160     1.813885    -0.535043
6
Family_2 [H]C([H])=C([H])[H] | RMSD: 0.4037 | 9640.00 to state    1 from traj    1 on state    2
C     -1.580641     0.055405    -0.088781
H     -1.804098     0.072427     1.036854
H     -2.891883     0.599617    -0.046525
C     -0.923188     1.453990    -0.025280
H     -1.163911     2.225370     0.685804
H     -0.037000     1.871951    -0.320304
6
Family_2 [H]C([H])=C([H])[H] | RMSD: 0.5486 | 1124.00 to state    1 from traj    1 on state    2
C     -1.580646     0.122426    -0.116096
H     -1.623475     0.098135     1.312131
H     -2.701997     0.666518    -0.078187
C     -0.903371     1.359720     0.014635
H     -1.474546     2.364462     0.606457
H     -0.332954     1.964928    -0.634708
6
Family_2 [H]C([H])=C([H])[H] | RMSD: 0.5756 | 7432.00 to state    1 from traj    1 on state    2
C     -1.661979     0.204991    -0.054021
H     -1.204607     0.497630     0.828149
H     -2.273385    -0.488663    -0.483766
C     -0.963252     1.410934    -0.012200
H     -1.305219     2.298887     0.538585
H      0.332908     1.192121    -0.097187
6
Family_2 [H]C([H])=C([H])[H] | RMSD: 0.4533 | 2908.00 to state    1 from traj    1 on state    2
C     -1.533283     0.165765    -0.075781
H     -2.019893     0.039915     0.954051
H     -2.964830     0.371770     0.125813
C     -0.941900     1.380920    -0.072166
H     -1.206140     2.019124     0.842785
H     -0.047362     1.894214    -0.163041
6
Family_2 [H]C([H])=C([H])[H] | RMSD: 0.5621 | 3028.00 to state    1 from traj    1 on state    2
C     -1.536493     0.178220    -0.073779
H     -2.013043     0.065452     0.938914
H     -2.908809     0.524554     0.095442
C     -0.939401     1.351732    -0.055390
H     -1.329385     1.786758     0.779514
H      0.021480     2.147641    -0.278015
6
Family_2 [H]C([H])=C([H])[H] | RMSD: 0.6794 | 3276.00 to state    1 from traj    1 on state    2
C     -1.582241     0.115362    -0.061094
H     -1.830248    -0.031468     1.022466
H     -2.312508     0.868674    -0.192449
C     -0.907217     1.401540    -0.010124
H     -1.583729     2.021825     0.722954
H     -0.341638     1.820871    -0.707645
6
Family_2 [H]C([H])=C([H])[H] | RMSD: 0.7114 | 4256.00 to state    1 from traj    1 on state    2
C     -1.583182     0.271437    -0.037170
H     -1.420720     0.070887     1.111469
H     -2.115674    -0.465389    -0.543956
C     -1.027906     1.429182    -0.038688
H     -0.853703     2.323561     0.444462
H     -0.228728     0.561740    -0.111364
6
Family_2 [H]C([H])=C([H])[H] | RMSD: 0.5920 | 1376.00 to state    1 from traj    1 on state    2
C     -1.637367     0.230982    -0.031084
H     -1.506505     0.070804     1.030240
H     -2.279388    -0.625336    -0.488698
C     -1.008502     1.428508    -0.113024
H     -0.556824     2.050399     0.777352
H      0.138334     1.485007     0.394964
6
Family_2 [H]C([H])=C([H])[H] | RMSD: 0.5365 | 1532.00 to state    1 from traj    1 on state    2
C     -1.614114     0.193381    -0.024523
H     -1.648469    -0.140790     1.101440
H     -2.522041    -0.427565    -0.512161
C     -1.011630     1.454178    -0.128200
H     -0.505996     2.156047     0.884325
H      0.232303     1.535348     0.342910
6
Family_2 [H]C([H])=C([H])[H] | RMSD: 0.7043 | 960.00 to state    1 from traj    1 on state    2
C     -1.624693     0.049952    -0.142037
H     -1.702304    -0.522071     0.813574
H     -2.173345     0.712236     0.792656
C     -0.941862     1.515054    -0.006544
H     -1.303077     2.519340    -0.385020
H      0.029246     1.397218     0.545942
6
Family_2 [H]C([H])=C([H])[H] | RMSD: 0.5011 | 6020.00 to state    1 from traj    1 on state    2
C     -1.582539     0.163490    -0.140066
H     -1.711148     0.189137     1.204542
H     -2.684150     0.136537     0.212206
C     -0.913475     1.398958     0.058806
H     -1.381600     2.263279     0.067884
H     -0.213114     1.548239    -0.519654
6
Family_2 [H]C([H])=C([H])[H] | RMSD: 0.4036 | 552.00 to state    1 from traj    1 on state    2
C     -1.757433    -0.064026    -0.115477
H     -1.055401     0.110339     0.816615
H     -2.771910     0.146743     0.318762
C     -0.789420     1.639412    -0.045962
H     -1.649242     2.110039     0.159507
H      0.092321     1.615918     0.625492
6
Family_2 [H]C([H])=C([H])[H] | RMSD: 0.5769 | 1456.00 to state    1 from traj    1 on state    2
C     -1.650853    -0.075566    -0.094242
H     -1.989194    -0.041849     1.093379
H     -2.704863     0.425978    -0.200637
C     -0.857012     1.589225     0.049991
H     -1.050775     2.550448     0.481693
H     -0.103969     1.783975    -0.850437
6
Family_2 [H]C([H])=C([H])[H] | RMSD: 0.6875 | 1236.00 to state    1 from traj    1 on state    2
C     -1.714760     0.129502    -0.168393
H     -0.998211     0.286256     0.768776
H     -2.253880     0.134846     0.644549
C     -0.867945     1.401698     0.034831
H     -1.639775     2.090346    -0.404657
H     -0.065160     1.998083     0.579526
6
Family_2 [H]C([H])=C([H])[H] | RMSD: 0.6313 | 3980.00 to state    1 from traj    1 on state    2
C     -1.618511     0.210733    -0.155427
H     -1.405740     0.377889     1.187897
H     -2.509852    -0.169627     0.165459
C     -0.913489     1.373121     0.111738
H     -1.580207     2.297845    -0.277342
H     -0.065409     1.376020    -0.558711
6
Family_2 [H]C([H])=C([H])[H] | RMSD: 0.2530 | 788.00 to state    1 from traj    1 on state    2
C     -1.713646    -0.014212    -0.103219
H     -1.332353     0.313583     0.813894
H     -2.708215     0.044296     0.160043
C     -0.849928     1.555913    -0.070014
H     -1.403024     2.296128     0.631902
H      0.258597     1.730401     0.455058
6
Family_2 [H]C([H])=C([H])[H] | RMSD: 0.4283 | 2856.00 to state    1 from traj    1 on state    2
C     -1.494924     0.260434    -0.097666
H     -1.893476     0.023755     1.213568
H     -2.714819     0.174520     0.100231
C     -1.007983     1.339679    -0.035765
H     -1.212078     2.308630     0.529057
H     -0.087507     1.181480    -0.256210
6
Family_2 [H]C([H])=C([H])[H] | RMSD: 0.3809 | 3232.00 to state    1 from traj    1 on state    2
C     -1.676526    -0.000202    -0.104748
H     -1.409248     0.308367     1.288393
H     -2.875311     0.258130    -0.276702
C     -0.858568     1.518353    -0.009204
H     -1.416145     2.229912     0.700268
H      0.176362     1.868605    -0.357432
6
Family_2 [H]C([H])=C([H])[H] | RMSD: 0.6733 | 4004.00 to state    1 from traj    1 on state    2
C     -1.482910     0.214286    -0.053111
H     -2.111954    -0.363409     1.151065
H     -2.386679     0.695534    -0.218348
C     -1.032242     1.370053    -0.010235
H     -1.221746     2.373679     0.529898
H     -0.041596     1.170541    -0.711085
6
Family_2 [H]C([H])=C([H])[H] | RMSD: 0.7239 | 9148.00 to state    1 from traj    1 on state    2
C     -1.574309     0.072590    -0.012018
H     -1.734692    -0.683688     0.967124
H     -2.498669     1.061332    -0.571668
C     -0.946749     1.456695    -0.014150
H     -1.330110     2.462588     0.598293
H     -0.128125     1.692119    -0.685216
6
Family_2 [H]C([H])=C([H])[H] | RMSD: 0.2536 | 592.00 to state    1 from traj    1 on state    2
C     -1.707197    -0.049736    -0.099829
H     -1.359282     0.214399     0.959580
H     -2.828406     0.333440     0.104644
C     -0.828487     1.578871    -0.078991
H     -1.441279     2.097791     0.714968
H      0.111648     1.888512     0.348283
6
Family_2 [H]C([H])=C([H])[H] | RMSD: 0.3148 | 840.00 to state    1 from traj    1 on state    2
C     -1.716937    -0.062156    -0.085344
H     -1.446569     0.342189     0.855851
H     -2.782994     0.149244    -0.196371
C     -0.850880     1.571166    -0.027443
H     -1.217925     2.304107     0.721220
H      0.313051     1.978401    -0.040044
6
Family_2 [H]C([H])=C([H])[H] | RMSD: 0.5374 | 8912.00 to state    1 from traj    1 on state    2
C     -1.667253     0.083932    -0.118867
H     -1.389889     0.513580     0.850845
H     -2.971644    -0.412713    -0.033676
C     -0.859422     1.484194     0.077421
H     -1.474817     2.523316     0.135658
H      0.211692     1.445355    -0.462248
6
Family_2 [H]C([H])=C([H])[H] | RMSD: 0.5091 | 1236.00 to state    1 from traj    1 on state    2
C     -1.633811     0.166401    -0.143191
H     -1.524100     0.234973     1.129168
H     -2.590334     0.206572     0.544923
C     -0.863210     1.399868    -0.039253
H     -1.877279     1.826013     0.306986
H      0.013705     1.824104     0.189582
6
Family_2 [H]C([H])=C([H])[H] | RMSD: 0.5003 | 4496.00 to state    1 from traj    1 on state    2
C     -1.534908     0.181839    -0.073861
H     -1.795027     0.160977     0.985593
H     -2.656969     0.623357    -0.062298
C     -0.965312     1.358418    -0.023439
H     -1.385688     1.924730     0.642018
H     -0.102208     1.692547    -0.409199
6
Family_2 [H]C([H])=C([H])[H] | RMSD: 0.6625 | 5316.00 to state    1 from traj    1 on state    2
C     -1.621867     0.212665    -0.136773
H     -1.538791    -0.389419     0.864383
H     -2.226439     0.093411     0.876614
C     -0.912521     1.394484    -0.077633
H     -1.405818     2.345619    -0.069451
H     -0.361712     1.554934     0.879963
6
Family_2 [H]C([H])=C([H])[H] | RMSD: 0.6046 | 1244.00 to state    1 from traj    1 on state    2
C     -1.657647     0.187511    -0.051851
H     -1.130534     0.521288     0.901169
H     -2.309128    -0.335078    -0.668197
C     -0.961271     1.406603     0.019711
H     -1.257588     2.332721     0.514201
H      0.171728     1.240937    -0.367489
6
Family_2 [H]C([H])=C([H])[H] | RMSD: 0.6240 | 3320.00 to state    1 from traj    1 on state    2
C     -1.556772     0.164224    -0.109173
H     -1.584951     0.238062     1.232135
H     -2.520239     0.648423    -0.135543
C     -0.938809     1.360993     0.056731
H     -1.556031     2.206225     0.340783
H     -0.333951     1.488112    -0.815784
6
Family_2 [H]C([H])=C([H])[H] | RMSD: 0.5007 | 5560.00 to state    1 from traj    1 on state    2
C     -1.610348     0.186724    -0.122642
H     -1.368765     0.263368     1.183666
H     -2.622238    -0.158797    -0.212149
C     -0.946054     1.349183     0.064744
H     -1.057202     2.734981     0.209942
H     -0.222243     1.613895    -0.494847
6
Family_2 [H]C([H])=C([H])[H] | RMSD: 0.4317 | 2044.00 to state    1 from traj    1 on state    2
C     -1.660587     0.094308    -0.079963
H     -1.316509     0.519874     0.835696
H     -2.938721    -0.162673    -0.211808
C     -0.868668     1.470060    -0.002793
H     -1.538092     2.160882     0.591205
H      0.199398     1.596242    -0.232286
6
Family_2 [H]C([H])=C([H])[H] | RMSD: 0.5733 | 2220.00 to state    1 from traj    1 on state    2
C     -1.652210     0.183033    -0.099607
H     -1.199789     0.448226     1.303874
H     -2.465185    -0.229089    -0.384536
C     -0.909436     1.419721     0.035899
H     -1.585243     2.169865     0.345108
H      0.042246     1.267922    -0.508593
6
Family_2 [H]C([H])=C([H])[H] | RMSD: 0.8178 | 3612.00 to state    1 from traj    1 on state    2
C     -1.678120     0.150581     0.006044
H     -1.405988     0.240626     1.020119
H     -1.739470    -0.472672    -0.842862
C     -1.006814     1.543720    -0.126755
H     -0.494684     1.843431     0.975435
H     -0.098760     0.954698     0.282373
6
Family_2 [H]C([H])=C([H])[H] | RMSD: 0.6518 | 4052.00 to state    1 from traj    1 on state    2
C     -1.701029     0.230612    -0.014251
H     -0.902539     0.208086     0.783617
H     -2.110807    -0.352322    -0.875364
C     -0.967939     1.355864    -0.023748
H     -1.178954     2.216053     0.558881
H      0.263149     1.779075    -0.017632
6
Family_2 [H]C([H])=C([H])[H] | RMSD: 0.7617 | 808.00 to state    1 from traj    1 on state    2
C     -1.711655     0.060274    -0.093126
H     -1.707352    -0.017153     1.007431
H     -2.847632    -0.356259    -0.001970
C     -0.712800     1.557847     0.079259
H     -1.731966     1.932153     0.063499
H     -0.555743     1.915083    -0.907006
6
Family_2 [H]C([H])=C([H])[H] | RMSD: 0.3905 | 580.00 to state    1 from traj    1 on state    2
C     -1.703953     0.027461    -0.110297
H     -1.215093     0.289749     0.862965
H     -2.769754     0.206004     0.242166
C     -0.829404     1.525245    -0.046260
H     -1.637326     1.891179     0.370400
H      0.077120     1.866343     0.386661
6
Family_2 [H]C([H])=C([H])[H] | RMSD: 0.5629 | 3136.00 to state    1 from traj    1 on state    2
C     -1.704930     0.231951    -0.100697
H     -1.166393     0.398578     1.159756
H     -2.222802    -0.781981    -0.190727
C     -0.911140     1.391759    -0.030054
H     -1.295175     2.203093     0.416670
H      0.124908     1.587530     0.168998
6
Family_2 [H]C([H])=C([H])[H] | RMSD: 0.3521 | 1340.00 to state    1 from traj    1 on state    2
C     -1.653873     0.038356    -0.078299
H     -1.416379     0.459073     0.873202
H     -2.873221     0.208094    -0.161109
C     -0.893442     1.496118    -0.048481
H     -1.470820     2.115432     0.811008
H      0.381701     1.687934    -0.015716
6
Family_2 [H]C([H])=C([H])[H] | RMSD: 0.4708 | 4680.00 to state    1 from traj    1 on state    2
C     -1.654585     0.097088    -0.153990
H     -1.585500     0.356109     1.082226
H     -2.521270    -0.145493     0.335048
C     -0.900957     1.485809     0.053584
H     -1.401891     2.273474    -0.076807
H      0.227964     1.409447    -0.147337
6
Family_2 [H]C([H])=C([H])[H] | RMSD: 0.6976 | 2356.00 to state    1 from traj    1 on state    2
C     -1.763350     0.243874    -0.075445
H     -1.080009     0.108439     1.057440
H     -1.834805    -0.820526    -0.372529
C     -0.877059     1.367969    -0.017072
H     -1.425868     2.322479     0.356094
H      0.071235     1.938226     0.058115
6
Family_2 [H]C([H])=C([H])[H] | RMSD: 0.7885 | 2484.00 to state    1 from traj    1 on state    2
C     -1.642966     0.220190    -0.063411
H     -1.463377    -0.093966     1.037251
H     -2.701617     0.060158    -0.221350
C     -0.800652     1.381246     0.053216
H     -2.080285     1.724994     0.180895
H     -0.369069     1.981448    -0.878598
6
Family_2 [H]C([H])=C([H])[H] | RMSD: 0.6849 | 2880.00 to state    1 from traj    1 on state    2
C     -1.561229     0.109515    -0.055306
H     -1.885906    -0.061606     0.991327
H     -2.498541     0.868071    -0.293962
C     -0.934319     1.413651     0.021305
H     -1.479717     2.056335     0.575780
H     -0.131408     1.742467    -0.871272
6
Family_2 [H]C([H])=C([H])[H] | RMSD: 0.6094 | 3756.00 to state    1 from traj    1 on state    2
C     -1.570602     0.148638    -0.108042
H     -1.481668     0.370587     1.143489
H     -2.592045     0.405467    -0.143108
C     -0.918105     1.397355     0.059108
H     -1.480331     2.316059     0.340966
H     -0.523034     1.241156    -0.761543
6
Family_2 [H]C([H])=C([H])[H] | RMSD: 0.6168 | 3892.00 to state    1 from traj    1 on state    2
C     -1.605272     0.123210    -0.097410
H     -1.425767     0.520304     1.033238
H     -2.606008     0.242980    -0.386220
C     -0.928727     1.402896     0.092778
H     -1.303525     2.289880     0.293611
H     -0.202096     1.517070    -0.888725
6
Family_2 [H]C([H])=C([H])[H] | RMSD: 0.6554 | 1640.00 to state    1 from traj    1 on state    2
C     -1.698233     0.200630    -0.051917
H     -0.968046     0.369057     1.042021
H     -1.970157    -0.477831    -0.717553
C     -0.967820     1.419690    -0.007427
H     -1.134518     2.340022     0.453889
H      0.108834     1.216369    -0.074507
6
Family_2 [H]C([H])=C([H])[H] | RMSD: 0.5017 | 2396.00 to state    1 from traj    1 on state    2
C     -1.623102     0.152646    -0.088092
H     -1.292690     0.461223     1.179480
H     -2.593782    -0.151725    -0.504329
C     -0.957985     1.416874     0.031210
H     -1.070328     2.393122     0.470422
H     -0.019512     1.350314    -0.471069
6
Family_2 [H]C([H])=C([H])[H] | RMSD: 0.4943 | 4692.00 to state    1 from traj    1 on state    2
C     -1.593278     0.207558    -0.106242
H     -1.464531     0.315152     1.200583
H     -2.557408     0.385981    -0.054665
C     -0.918565     1.313426    -0.010241
H     -1.674414     2.015857     0.608258
H     -0.105040     1.914283    -0.369479
6
Family_2 [H]C([H])=C([H])[H] | RMSD: 0.6410 | 1352.00 to state    1 from traj    1 on state    2
C     -1.569573     0.065377    -0.068178
H     -1.735650    -0.206345     0.984774
H     -2.433045     0.824463    -0.247558
C     -0.947829     1.480843     0.046694
H     -1.152717     2.372250     0.222877
H     -0.413741     1.340193    -0.707383
6
Family_2 [H]C([H])=C([H])[H] | RMSD: 0.7413 | 5876.00 to state    1 from traj    1 on state    2
C     -1.732461     0.279878    -0.089571
H     -1.332826     0.049661     1.056448
H     -1.632759    -0.862701    -0.142050
C     -0.919993     1.364961    -0.006986
H     -1.458324     2.352238     0.158105
H      0.297984     1.616253     0.074755
6
Family_2 [H]C([H])=C([H])[H] | RMSD: 0.5497 | 2408.00 to state    1 from traj    1 on state    2
C     -1.558934     0.121863    -0.072149
H     -1.711509    -0.149614     1.166018
H     -2.688520     0.905765    -0.223911
C     -0.957040     1.382745    -0.024095
H     -1.287325     2.055830     0.627953
H     -0.064814     2.014429    -0.426531
6
Family_2 [H]C([H])=C([H])[H] | RMSD: 0.5016 | 6768.00 to state    1 from traj    1 on state    2
C     -1.535723     0.187853    -0.058085
H     -1.479292    -0.021867     1.170560
H     -2.477130     0.748285    -0.489861
C     -1.028764     1.333979    -0.023787
H     -1.162288     2.395523     0.695978
H     -0.055399     1.499226    -0.404404
6
Family_2 [H]C([H])=C([H])[H] | RMSD: 0.7541 | 8248.00 to state    1 from traj    1 on state    2
C     -1.638174     0.146096     0.029938
H     -1.563528    -0.384965     1.028902
H     -2.004643    -0.296361    -0.918668
C     -1.016568     1.556534    -0.124166
H     -0.496866     2.300187     0.885729
H     -0.033620     0.847975     0.123543
6
Family_2 [H]C([H])=C([H])[H] | RMSD: 0.6855 | 6620.00 to state    1 from traj    1 on state    2
C     -1.702653     0.001174    -0.105262
H     -1.537667    -0.774226     0.796750
H     -2.013723     0.734484     0.569683
C     -0.857860     1.542631    -0.068063
H     -1.514526     2.596778     0.040762
H     -0.155545     1.802299     0.654813
6
Family_2 [H]C([H])=C([H])[H] | RMSD: 0.4174 | 2436.00 to state    1 from traj    1 on state    2
C     -1.717763    -0.061269    -0.098126
H     -1.319581     0.084823     1.049142
H     -2.856513     0.553327     0.103039
C     -0.797244     1.594654    -0.068987
H     -1.725241     1.828915     0.599667
H      0.137644     2.016438     0.236139
6
Family_2 [H]C([H])=C([H])[H] | RMSD: 0.4591 | 3132.00 to state    1 from traj    1 on state    2
C     -1.582341     0.249850    -0.117516
H     -1.668012     0.241794     1.135291
H     -2.474827    -0.449557     0.085436
C     -0.994408     1.365706    -0.005366
H     -1.002670     2.445906     0.270695
H      0.117514     1.266238    -0.030479
6
Family_2 [H]C([H])=C([H])[H] | RMSD: 0.7841 | 1184.00 to state    1 from traj    1 on state    2
C     -1.575710     0.180533    -0.133254
H     -1.474214    -0.483363     0.769996
H     -2.082163     0.674971     0.858149
C     -0.967188     1.398623    -0.054302
H     -1.272384     2.504380    -0.237711
H     -0.602603     1.242111     0.841142
6
Family_2 [H]C([H])=C([H])[H] | RMSD: 0.6783 | 2916.00 to state    1 from traj    1 on state    2
C     -1.603729     0.098040    -0.061676
H     -1.676542    -0.347241     1.009628
H     -2.346053     1.007929    -0.220983
C     -0.908484     1.375827    -0.016957
H     -1.399590     2.279111     0.633148
H     -0.374804     2.252904    -0.488107
6
Family_2 [H]C([H])=C([H])[H] | RMSD: 0.3368 | 576.00 to state    1 from traj    1 on state    2
C     -1.653514     0.090369    -0.114098
H     -1.423707     0.354423     1.191258
H     -2.833361    -0.135477    -0.107057
C     -0.887148     1.461876    -0.009548
H     -1.452638     2.481709     0.601352
H      0.251715     1.558120    -0.215510
6
Family_2 [H]C([H])=C([H])[H] | RMSD: 0.5582 | 2124.00 to state    1 from traj    1 on state    2
C     -1.531279     0.118720    -0.036805
H     -1.553852    -0.072431     0.948765
H     -2.576047     0.994256    -0.479782
C     -1.021233     1.415971    -0.018687
H     -1.215853     2.235817     0.613994
H      0.028952     1.310307    -0.425040
6
Family_2 [H]C([H])=C([H])[H] | RMSD: 0.2809 | 2716.00 to state    1 from traj    1 on state    2
C     -1.649983     0.118792    -0.111977
H     -1.356414     0.373920     1.120597
H     -2.757425    -0.110528    -0.012227
C     -0.896110     1.427900    -0.046197
H     -1.473334     2.456150     0.716305
H      0.193878     1.605395     0.056791
6
Family_2 [H]C([H])=C([H])[H] | RMSD: 0.7515 | 3788.00 to state    1 from traj    1 on state    2
C     -1.631681     0.196168     0.020028
H     -1.429816    -0.159474     0.829665
H     -2.059504    -0.467309    -0.781804
C     -0.989088     1.525280    -0.073365
H     -0.859768     2.295198     0.630919
H     -0.154377     0.574187    -0.046511
6
Family_2 [H]C([H])=C([H])[H] | RMSD: 0.5301 | 2208.00 to state    1 from traj    1 on state    2
C     -1.621872     0.169065    -0.052976
H     -1.153434     0.595354     1.000526
H     -2.420860    -0.020893    -0.699124
C     -1.009548     1.390385    -0.023379
H     -0.941204     2.193779     0.760237
H      0.138937     1.404685    -0.155099
6
Family_2 [H]C([H])=C([H])[H] | RMSD: 0.4575 | 896.00 to state    1 from traj    1 on state    2
C     -1.560544     0.101353    -0.075711
H     -1.607679     0.328570     0.945549
H     -2.578313     0.473923    -0.303767
C     -1.000666     1.440348     0.012552
H     -0.951479     2.326196     0.518666
H     -0.075683     1.255719    -0.411143
6
Family_2 [H]C([H])=C([H])[H] | RMSD: 0.6935 | 1916.00 to state    1 from traj    1 on state    2
C     -1.552063     0.145674    -0.000327
H     -1.733315    -0.363280     0.704324
H     -2.307144     0.906667    -0.612410
C     -1.009189     1.393250     0.003059
H     -1.267118     2.310469     0.540931
H      0.094924     1.563652    -0.668684
6
Family_2 [H]C([H])=C([H])[H] | RMSD: 0.6082 | 5100.00 to state    1 from traj    1 on state    2
C     -1.656612     0.220405    -0.103897
H     -1.462462     0.503021     0.943816
H     -2.192494    -0.842870    -0.049029
C     -0.974726     1.409460    -0.018782
H     -0.920348     2.471194     0.374147
H      0.197766     1.202535     0.189591
6
Family_2 [H]C([H])=C([H])[H] | RMSD: 0.2721 | 4160.00 to state    1 from traj    1 on state    2
C     -1.630240     0.086220    -0.120534
H     -1.532233     0.249640     1.232575
H     -2.779001     0.224764     0.035245
C     -0.904841     1.444914    -0.026978
H     -1.318723     2.204123     0.568439
H      0.105450     1.831801    -0.081835
6
Family_2 [H]C([H])=C([H])[H] | RMSD: 0.2506 | 1068.00 to state    1 from traj    1 on state    2
C     -1.662394     0.028934    -0.134102
H     -1.460203     0.231348     1.344621
H     -2.648323     0.342508     0.195028
C     -0.889841     1.509807    -0.074927
H     -1.447776     2.148916     0.660625
H      0.236198     1.696916     0.287171
6
Family_2 [H]C([H])=C([H])[H] | RMSD: 0.5850 | 2176.00 to state    1 from traj    1 on state    2
C     -1.550611     0.152318    -0.100319
H     -1.474377     0.329853     1.196756
H     -2.767567     0.337166    -0.362602
C     -0.968878     1.385835     0.069522
H     -1.144155     2.489785     0.339118
H     -0.324190     1.269888    -0.809581
6
Family_2 [H]C([H])=C([H])[H] | RMSD: 0.3343 | 696.00 to state    1 from traj    1 on state    2
C     -1.599859     0.108129    -0.124483
H     -1.802501     0.097534     1.293675
H     -2.637190     0.110060     0.145991
C     -0.929579     1.465116    -0.019804
H     -1.295673     2.403139     0.476165
H      0.143622     1.397817    -0.199838
6
Family_2 [H]C([H])=C([H])[H] | RMSD: 0.7035 | 2164.00 to state    1 from traj    1 on state    2
C     -1.673883     0.239655    -0.039262
H     -1.087815     0.501672     0.805953
H     -2.154141    -0.710876    -0.620904
C     -0.952170     1.409009    -0.003998
H     -1.315818     2.316767     0.501253
H      0.117261     1.002304    -0.174109
6
Family_2 [H]C([H])=C([H])[H] | RMSD: 0.4393 | 1008.00 to state    1 from traj    1 on state    2
C     -1.665505     0.094426    -0.147036
H     -1.332167     0.239113     0.987247
H     -2.490215     0.328760     0.603159
C     -0.863391     1.438936    -0.066891
H     -1.779579     2.179919     0.396956
H      0.003751     1.735981     0.558441
6
Family_2 [H]C([H])=C([H])[H] | RMSD: 0.5071 | 1060.00 to state    1 from traj    1 on state    2
C     -1.575652     0.078424    -0.081599
H     -1.707519     0.131142     1.166999
H     -2.657333     0.720005    -0.265660
C     -0.944107     1.438036    -0.000883
H     -1.413466     2.254410     0.689285
H      0.071241     1.579623    -0.611087
6
Family_2 [H]C([H])=C([H])[H] | RMSD: 0.7771 | 1212.00 to state    1 from traj    1 on state    2
C     -1.648419     0.028282    -0.083678
H     -1.378067    -0.842574     0.733663
H     -2.061438     0.857539     0.473170
C     -0.917321     1.546258    -0.097383
H     -1.069822     2.604215     0.019846
H     -0.649862     1.373930     0.927510
6
Family_2 [H]C([H])=C([H])[H] | RMSD: 0.7454 | 1660.00 to state    1 from traj    1 on state    2
C     -1.503434     0.180198    -0.014778
H     -1.879885    -0.552811     0.852405
H     -2.419392     0.858907    -0.492146
C     -1.022764     1.390107     0.022874
H     -1.104697     2.449009     0.335588
H     -0.226388     1.288466    -0.795595
6
Family_2 [H]C([H])=C([H])[H] | RMSD: 0.7170 | 732.00 to state    1 from traj    1 on state    2
C     -1.606273     0.022512    -0.108101
H     -1.657592    -0.514234     0.832497
H     -2.144845     0.865429     0.372136
C     -0.971018     1.568041     0.032706
H     -1.189637     2.453727    -0.441797
H     -0.029459     0.997391     0.132271
6
Family_2 [H]C([H])=C([H])[H] | RMSD: 0.5085 | 1232.00 to state    1 from traj    1 on state    2
C     -1.576196     0.118722    -0.120987
H     -1.995992    -0.057211     1.250055
H     -2.726654     0.180371     0.123432
C     -0.918210     1.447939     0.034514
H     -1.312063     2.450048     0.281926
H      0.025528     1.513783    -0.628313
6
Family_2 [H]C([H])=C([H])[H] | RMSD: 0.5662 | 4136.00 to state    1 from traj    1 on state    2
C     -1.545172     0.180677    -0.060736
H     -1.817022    -0.252493     1.101459
H     -2.499216     0.824875    -0.172910
C     -0.967682     1.319341    -0.062037
H     -1.267321     2.218463     0.852519
H     -0.205797     2.090241    -0.321422
6
Family_2 [H]C([H])=C([H])[H] | RMSD: 0.3930 | 3576.00 to state    1 from traj    1 on state    2
C     -1.576498     0.203806    -0.107028
H     -1.674992     0.204024     1.048823
H     -2.674935    -0.268736    -0.036975
C     -1.000962     1.370303    -0.001335
H     -0.885063     2.604083     0.377461
H      0.215466     1.458886    -0.101371
6
Family_2 [H]C([H])=C([H])[H] | RMSD: 0.4550 | 3836.00 to state    1 from traj    1 on state    2
C     -1.607274     0.118734    -0.075175
H     -1.335978     0.414185     1.111011
H     -2.662468     0.345747    -0.442321
C     -0.945223     1.423748     0.002291
H     -1.345891     2.118812     0.636571
H      0.027364     1.496360    -0.440079
6
Family_2 [H]C([H])=C([H])[H] | RMSD: 0.7034 | 4400.00 to state    1 from traj    1 on state    2
C     -1.523838     0.151540    -0.037084
H     -2.139401    -0.395827     0.689864
H     -2.723723     0.630805    -0.217736
C     -0.962626     1.348636     0.005478
H     -0.972915     2.579256     0.634997
H     -0.267772     2.064972    -0.733797
6
Family_2 [H]C([H])=C([H])[H] | RMSD: 0.7023 | 2624.00 to state    1 from traj    1 on state    2
C     -1.609177     0.076873    -0.113776
H     -1.750697     0.136056     1.024156
H     -2.433812     0.762254    -0.005219
C     -0.888020     1.378328     0.057264
H     -1.197863     2.196435     0.370027
H     -0.593545     2.320378    -0.718868
6
Family_2 [H]C([H])=C([H])[H] | RMSD: 0.7019 | 2788.00 to state    1 from traj    1 on state    2
C     -1.602604     0.098768    -0.052769
H     -1.713209    -0.323931     1.014683
H     -2.214802     0.996944    -0.279304
C     -0.907179     1.405654    -0.003579
H     -1.654966     2.289047     0.612546
H     -0.242961     1.866556    -0.679783
6
Family_2 [H]C([H])=C([H])[H] | RMSD: 0.6296 | 2672.00 to state    1 from traj    1 on state    2
C     -1.619975     0.172443    -0.015303
H     -1.578441    -0.014571     1.237495
H     -2.418664    -0.464414    -0.613608
C     -0.997515     1.542178    -0.130547
H     -0.612994     1.827380     0.850825
H      0.067554     0.975548     0.259902
6
Family_2 [H]C([H])=C([H])[H] | RMSD: 0.6088 | 3128.00 to state    1 from traj    1 on state    2
C     -1.653681     0.247103    -0.041475
H     -1.087565     0.302980     0.927648
H     -2.289478    -0.322128    -0.700015
C     -0.962737     1.349125     0.010942
H     -1.478675     2.351196     0.498413
H      0.300390     1.402637    -0.365508
6
Family_2 [H]C([H])=C([H])[H] | RMSD: 0.6355 | 1792.00 to state    1 from traj    1 on state    2
C     -1.604933     0.091963    -0.087794
H     -1.499033     0.517108     1.151272
H     -2.657554    -0.169523    -0.558348
C     -0.970203     1.484964     0.060551
H     -0.799889     2.581903     0.447313
H     -0.090749     1.035184    -0.718895
6
Family_2 [H]C([H])=C([H])[H] | RMSD: 0.5093 | 2216.00 to state    1 from traj    1 on state    2
C     -1.567118     0.241121    -0.128011
H     -1.823282     0.099053     1.179500
H     -2.621897    -0.169130     0.251239
C     -0.966708     1.367176     0.020663
H     -1.526003     2.348592     0.135881
H      0.431723     1.312354    -0.290778
6
Family_2 [H]C([H])=C([H])[H] | RMSD: 0.5301 | 3080.00 to state    1 from traj    1 on state    2
C     -1.630323     0.133852    -0.127814
H     -1.387125     0.407197     1.259243
H     -2.863788     0.090233    -0.117462
C     -0.880010     1.406406     0.065750
H     -1.604230     2.128071     0.228787
H      0.035750     1.776104    -0.634315
6
Family_2 [H]C([H])=C([H])[H] | RMSD: 0.5962 | 968.00 to state    1 from traj    1 on state    2
C     -1.622969     0.000057    -0.082520
H     -1.817963    -0.095874     0.893582
H     -2.530319     0.768431    -0.146386
C     -0.886400     1.472822     0.034141
H     -1.165049     2.495257     0.494135
H     -0.317543     2.036666    -0.668141
6
Family_2 [H]C([H])=C([H])[H] | RMSD: 0.4549 | 1588.00 to state    1 from traj    1 on state    2
C     -1.682504     0.175119    -0.100364
H     -1.280347     0.518556     0.993156
H     -2.459658    -0.589546    -0.065446
C     -0.908697     1.426444    -0.043407
H     -1.304852     2.239505     0.564191
H      0.189060     1.502611     0.217938
6
Family_2 [H]C([H])=C([H])[H] | RMSD: 0.2671 | 1904.00 to state    1 from traj    1 on state    2
C     -1.590487     0.115199    -0.109447
H     -1.691224     0.260620     1.133106
H     -2.690487     0.143979     0.092855
C     -0.952208     1.455859    -0.041541
H     -1.189818     2.252260     0.576373
H      0.137751     1.377742    -0.006488
6
Family_2 [H]C([H])=C([H])[H] | RMSD: 0.4844 | 2220.00 to state    1 from traj    1 on state    2
C     -1.628163     0.230605    -0.079163
H     -1.130903     0.516593     1.201868
H     -2.567417    -0.334994    -0.404327
C     -0.947130     1.373844    -0.042860
H     -1.388796     2.167129     0.718219
H      0.041762     1.287997    -0.065058
6
Family_2 [H]C([H])=C([H])[H] | RMSD: 0.4692 | 540.00 to state    1 from traj    1 on state    2
C     -1.690815     0.140965    -0.094448
H     -1.265802     0.495581     0.977173
H     -2.569202    -0.354164    -0.177125
C     -0.876683     1.442475     0.003158
H     -1.540553     2.075432     0.429849
H      0.237327     1.670218    -0.145400
6
Family_2 [H]C([H])=C([H])[H] | RMSD: 0.7484 | 1192.00 to state    1 from traj    1 on state    2
C     -1.724391     0.183630    -0.107538
H     -1.349450     0.650822     0.918666
H     -1.701201    -0.902168     0.065364
C     -0.921027     1.465652    -0.047866
H     -1.179979     2.305637     0.470805
H      0.020866     1.048211     0.393619
6
Family_2 [H]C([H])=C([H])[H] | RMSD: 0.7512 | 1216.00 to state    1 from traj    1 on state    2
C     -1.720227     0.198091    -0.094782
H     -1.320974     0.655191     0.875911
H     -1.729217    -0.920789    -0.029600
C     -0.925541     1.454396    -0.049088
H     -1.214268     2.293402     0.520102
H      0.058862     1.036515     0.344616
6
Family_2 [H]C([H])=C([H])[H] | RMSD: 0.7579 | 4100.00 to state    1 from traj    1 on state    2
C     -1.596571     0.029319    -0.124538
H     -1.803242    -0.692109     0.748112
H     -2.297937     0.918149     0.850669
C     -0.926381     1.543665    -0.039255
H     -1.299167     2.514822    -0.238701
H     -0.268694     1.270788     0.588331
6
Family_2 [H]C([H])=C([H])[H] | RMSD: 0.7470 | 9220.00 to state    1 from traj    1 on state    2
C     -1.582404     0.012665    -0.066930
H     -2.228600    -0.284983     0.854343
H     -2.624674     0.663170    -0.105760
C     -0.881721     1.489448     0.036746
H     -1.016778     2.546229     0.551102
H     -0.499942     1.931709    -0.943298
6
Family_2 [H]C([H])=C([H])[H] | RMSD: 0.3816 | 1116.00 to state    1 from traj    1 on state    2
C     -1.611525     0.186038    -0.153306
H     -1.518127     0.325328     1.294343
H     -2.696476    -0.002003     0.455009
C     -0.905832     1.386394    -0.047450
H     -1.585389     2.050523     0.406242
H      0.064297     1.644385     0.233268
6
Family_2 [H]C([H])=C([H])[H] | RMSD: 0.5080 | 1424.00 to state    1 from traj    1 on state    2
C     -1.677163     0.052982    -0.106629
H     -1.369431     0.506960     1.047057
H     -2.887394     0.085656    -0.244238
C     -0.848274     1.450614     0.040600
H     -1.548649     2.207630     0.534505
H      0.166058     2.038208    -0.553835
6
Family_2 [H]C([H])=C([H])[H] | RMSD: 0.5607 | 1716.00 to state    1 from traj    1 on state    2
C     -1.678229     0.066740    -0.141492
H     -1.392300     0.486190     0.981513
H     -2.782853    -0.106810     0.069601
C     -0.865009     1.486058     0.108045
H     -1.538156     2.196847    -0.156479
H      0.286006     1.675964    -0.499379
6
Family_2 [H]C([H])=C([H])[H] | RMSD: 0.7455 | 1396.00 to state    1 from traj    1 on state    2
C     -1.719365     0.110623    -0.145980
H     -0.939690    -0.021098     0.626103
H     -2.568087     0.128212     0.775643
C     -0.789407     1.438178    -0.020478
H     -1.720683     2.139599    -0.246241
H     -0.609535     2.053087     0.824676
6
Family_2 [H]C([H])=C([H])[H] | RMSD: 0.7416 | 2484.00 to state    1 from traj    1 on state    2
C     -1.491645     0.149271    -0.046805
H     -1.978013    -0.105093     0.694269
H     -2.714942     0.817723    -0.190759
C     -0.968419     1.388187     0.051827
H     -1.186881     2.338708     0.373942
H     -0.538548     1.383637    -0.940581
6
Family_2 [H]C([H])=C([H])[H] | RMSD: 0.4987 | 2244.00 to state    1 from traj    1 on state    2
C     -1.689121    -0.096636    -0.087283
H     -1.683699    -0.095863     1.035257
H     -2.788724     0.814337     0.012795
C     -0.804856     1.599246    -0.035495
H     -1.595727     2.005053     0.649639
H      0.053868     2.126668    -0.237994
6
Family_2 [H]C([H])=C([H])[H] | RMSD: 0.7578 | 608.00 to state    1 from traj    1 on state    2
C     -1.630116     0.038350    -0.121359
H     -1.451161    -0.569378     0.774675
H     -2.102419     0.734720     0.607973
C     -0.959847     1.551516    -0.020531
H     -0.979818     2.463612    -0.449783
H     -0.337149     1.181541     0.754568
6
Family_2 [H]C([H])=C([H])[H] | RMSD: 0.3762 | 2872.00 to state    1 from traj    1 on state    2
C     -1.586514     0.202156    -0.121126
H     -1.504973     0.321515     1.279620
H     -2.897863    -0.195358     0.018686
C     -0.938522     1.389673    -0.008350
H     -1.405554     2.283052     0.428055
H      0.164200     1.377901    -0.186852
6
Family_2 [H]C([H])=C([H])[H] | RMSD: 0.4850 | 3084.00 to state    1 from traj    1 on state    2
C     -1.622811     0.059877    -0.108434
H     -1.705715     0.243394     0.975586
H     -2.537952     0.216770     0.214739
C     -0.880748     1.539698     0.005024
H     -1.680842     2.237850     0.330759
H      0.024389     0.996787    -0.292171
6
Family_2 [H]C([H])=C([H])[H] | RMSD: 0.4611 | 5044.00 to state    1 from traj    1 on state    2
C     -1.541004     0.213599    -0.083833
H     -1.829070     0.177605     1.088667
H     -2.442300     0.287396    -0.014924
C     -0.980687     1.356896    -0.042093
H     -1.512638     2.347862     0.764020
H      0.099958     1.228458    -0.340552
6
Family_2 [H]C([H])=C([H])[H] | RMSD: 0.7439 | 876.00 to state    1 from traj    1 on state    2
C     -1.713550    -0.047413    -0.142341
H     -1.357265    -0.584144     0.685330
H     -2.469219     0.630958     0.879995
C     -0.821261     1.594744    -0.034944
H     -1.369598     2.405291    -0.372138
H     -0.331645     1.865229     0.915996
6
Family_2 [H]C([H])=C([H])[H] | RMSD: 0.4587 | 2536.00 to state    1 from traj    1 on state    2
C     -1.629781    -0.050471    -0.083490
H     -1.647732    -0.037834     1.079207
H     -2.670007     0.799009    -0.265336
C     -0.902936     1.548292     0.008451
H     -1.193940     2.511237     0.576666
H     -0.040989     1.634857    -0.499677
6
Family_2 [H]C([H])=C([H])[H] | RMSD: 0.7287 | 756.00 to state    1 from traj    1 on state    2
C     -1.728627     0.206619    -0.082746
H     -1.104476     0.363061     1.193897
H     -1.733288    -0.832886    -0.489089
C     -0.959806     1.436080    -0.020078
H     -1.032065     2.464408     0.401702
H      0.172616     1.186372     0.115433
6
Family_2 [H]C([H])=C([H])[H] | RMSD: 0.5960 | 2324.00 to state    1 from traj    1 on state    2
C     -1.535218     0.109924    -0.062466
H     -2.055301    -0.037785     0.920789
H     -2.509791     0.525021    -0.110402
C     -0.964528     1.469613     0.007447
H     -1.169291     2.310753     0.510212
H     -0.211165     1.135586    -0.668288
6
Family_2 [H]C([H])=C([H])[H] | RMSD: 0.5816 | 5992.00 to state    1 from traj    1 on state    2
C     -1.692414     0.221877    -0.049651
H     -0.993965     0.366149     0.932928
H     -2.220852    -0.407636    -0.586381
C     -0.925440     1.381394    -0.013813
H     -1.497844     2.185890     0.524869
H      0.174450     1.506362    -0.118491
6
Family_2 [H]C([H])=C([H])[H] | RMSD: 0.5059 | 6844.00 to state    1 from traj    1 on state    2
C     -1.558537     0.143582    -0.096021
H     -1.755975     0.084028     1.243022
H     -2.806541     0.594264    -0.091269
C     -0.923420     1.370864    -0.012941
H     -1.546986     2.228964     0.723722
H     -0.048009     1.801914    -0.580405
6
Family_2 [H]C([H])=C([H])[H] | RMSD: 0.5168 | 2080.00 to state    1 from traj    1 on state    2
C     -1.613721     0.178183    -0.071022
H     -1.222717     0.419649     1.097931
H     -2.776178     0.056739    -0.528699
C     -0.923950     1.363034     0.010393
H     -1.540551     2.350118     0.708416
H      0.045798     1.563667    -0.558490
6
Family_2 [H]C([H])=C([H])[H] | RMSD: 0.4507 | 4556.00 to state    1 from traj    1 on state    2
C     -1.580549     0.119666    -0.098945
H     -1.514862     0.102659     1.298836
H     -2.630949     0.526095    -0.333101
C     -0.972803     1.396436     0.023187
H     -1.131295     2.405443     0.458512
H     -0.029695     1.655248    -0.524812
6
Family_2 [H]C([H])=C([H])[H] | RMSD: 0.4488 | 6664.00 to state    1 from traj    1 on state    2
C     -1.603749     0.154616    -0.079652
H     -1.347801     0.430619     1.156506
H     -2.774992     0.167595    -0.378213
C     -0.933746     1.400890    -0.010716
H     -1.507989     2.134894     0.705106
H      0.135042     1.486809    -0.409885
6
Family_2 [H]C([H])=C([H])[H] | RMSD: 0.7740 | 5352.00 to state    1 from traj    1 on state    2
C     -1.533353     0.155823    -0.081651
H     -1.981848    -0.097564     1.048658
H     -2.492828     0.883107     0.020270
C     -0.901311     1.352351     0.011657
H     -1.425074     2.099237     0.594756
H     -0.821289     1.899120    -0.832941
6
Family_2 [H]C([H])=C([H])[H] | RMSD: 0.7956 | 5572.00 to state    1 from traj    1 on state    2
C     -1.682817     0.168675    -0.145532
H     -1.314487    -0.357407     0.774128
H     -2.048018     0.122228     0.990074
C     -0.860148     1.443926    -0.066511
H     -1.738006     2.250385    -0.263745
H     -0.330049     1.524391     1.022895
6
Family_2 [H]C([H])=C([H])[H] | RMSD: 0.6629 | 6044.00 to state    1 from traj    1 on state    2
C     -1.548375     0.125924    -0.003421
H     -1.818220    -0.529138     0.723974
H     -2.211104     1.001095    -0.509055
C     -1.053553     1.401236    -0.046137
H     -0.910429     2.388486     0.617223
H      0.211777     1.697231    -0.244909
6
Family_2 [H]C([H])=C([H])[H] | RMSD: 0.4711 | 7524.00 to state    1 from traj    1 on state    2
C     -1.602242     0.233493    -0.100629
H     -1.484979     0.448292     0.944275
H     -2.521965    -0.479499     0.058469
C     -0.964287     1.390803    -0.028080
H     -1.304781     2.371249     0.446722
H      0.161942     1.060195     0.080906
6
Family_2 [H]C([H])=C([H])[H] | RMSD: 0.4383 | 1364.00 to state    1 from traj    1 on state    2
C     -1.662387     0.076043    -0.095480
H     -1.414768     0.505550     0.859612
H     -2.878341    -0.069877    -0.112627
C     -0.867975     1.478036     0.024435
H     -1.518169     2.108877     0.420061
H      0.230540     1.692366    -0.323777
6
Family_2 [H]C([H])=C([H])[H] | RMSD: 0.5842 | 1564.00 to state    1 from traj    1 on state    2
C     -1.664513     0.184681    -0.078357
H     -1.064184     0.431615     1.142627
H     -2.484066    -0.178877    -0.544188
C     -0.897495     1.384889     0.030648
H     -1.657438     2.347413     0.510074
H      0.002037     1.452189    -0.543315
6
Family_2 [H]C([H])=C([H])[H] | RMSD: 0.5296 | 3604.00 to state    1 from traj    1 on state    2
C     -1.628868     0.021797    -0.096370
H     -1.551436     0.419221     1.024142
H     -2.559017     0.431788    -0.401547
C     -0.947346     1.474633     0.068604
H     -0.933827     2.340588     0.380414
H      0.009899     1.732243    -0.675436
6
Family_2 [H]C([H])=C([H])[H] | RMSD: 0.7613 | 1104.00 to state    1 from traj    1 on state    2
C     -1.599085     0.080464    -0.095969
H     -1.579073     0.582651     1.000973
H     -2.660730     0.340895    -0.342379
C     -0.872547     1.416523     0.084183
H     -1.220370     2.364224     0.577446
H     -0.820372     1.629442    -1.098875
6
Family_2 [H]C([H])=C([H])[H] | RMSD: 0.6870 | 1196.00 to state    1 from traj    1 on state    2
C     -1.603851     0.077316    -0.100683
H     -1.525272     0.580930     0.896651
H     -2.637564     0.450001    -0.245121
C     -0.883158     1.403965     0.083803
H     -1.280377     2.340123     0.486094
H     -0.654103     1.733303    -0.939769
6
Family_2 [H]C([H])=C([H])[H] | RMSD: 0.8061 | 616.00 to state    1 from traj    1 on state    2
C     -1.667807     0.028539    -0.112892
H     -1.379612    -0.753313     0.642332
H     -2.113290     0.763480     0.727045
C     -0.900245     1.532891    -0.063277
H     -1.147402     2.516943    -0.277141
H     -0.491328     1.622212     1.003659
6
Family_2 [H]C([H])=C([H])[H] | RMSD: 0.7333 | 1848.00 to state    1 from traj    1 on state    2
C     -1.585326     0.008278    -0.022169
H     -2.186695    -0.120416     0.649066
H     -2.232772     0.732838    -0.302898
C     -0.926912     1.547018     0.002688
H     -1.187269     2.313224     0.716477
H     -0.189958     1.296780    -0.833793
6
Family_2 [H]C([H])=C([H])[H] | RMSD: 0.7104 | 2112.00 to state    1 from traj    1 on state    2
C     -1.623496     0.180793     0.010267
H     -1.356118    -0.030685     1.026016
H     -2.134783    -0.340939    -0.836866
C     -1.014721     1.509505    -0.119552
H     -0.875678     2.410746     0.986482
H      0.071012     0.574651     0.123300
6
Family_2 [H]C([H])=C([H])[H] | RMSD: 0.5324 | 2492.00 to state    1 from traj    1 on state    2
C     -1.565478     0.125814    -0.047313
H     -1.471641    -0.011873     0.974770
H     -2.307154     0.908218    -0.475625
C     -1.014967     1.378326    -0.029676
H     -1.270074     2.463604     0.750315
H      0.064911     1.472031    -0.335366
6
Family_2 [H]C([H])=C([H])[H] | RMSD: 0.5320 | 2588.00 to state    1 from traj    1 on state    2
C     -1.581908     0.090346    -0.067891
H     -1.452912    -0.008751     1.015816
H     -2.282468     0.903283    -0.439427
C     -1.019913     1.406736     0.012894
H     -1.007705     2.431603     0.432717
H      0.013839     1.589933    -0.357072
6
Family_2 [H]C([H])=C([H])[H] | RMSD: 0.7575 | 3076.00 to state    1 from traj    1 on state    2
C     -1.672983     0.147227    -0.178180
H     -1.748031     0.739045     1.140209
H     -1.874341    -0.679124     0.530507
C     -0.914033     1.476215     0.028549
H     -1.319352     2.452496     0.136123
H      0.036069     0.897998    -0.027159
6
Family_2 [H]C([H])=C([H])[H] | RMSD: 0.4065 | 4292.00 to state    1 from traj    1 on state    2
C     -1.624298     0.167450    -0.103979
H     -1.308607     0.367978     1.272346
H     -2.762352    -0.119001    -0.253584
C     -0.913334     1.405244     0.003074
H     -1.402413     2.270393     0.511240
H     -0.020742     1.495737    -0.330935
6
Family_2 [H]C([H])=C([H])[H] | RMSD: 0.5097 | 3916.00 to state    1 from traj    1 on state    2
C     -1.585874     0.148442    -0.115446
H     -1.401350     0.289691     1.114225
H     -2.818573     0.327713    -0.254272
C     -0.954860     1.337029     0.070936
H     -1.030526     2.456461     0.253231
H     -0.206696     1.980573    -0.586102
6
Family_2 [H]C([H])=C([H])[H] | RMSD: 0.5055 | 4072.00 to state    1 from traj    1 on state    2
C     -1.579066     0.194351    -0.100991
H     -1.414864     0.347312     1.131120
H     -2.913274     0.136810    -0.233780
C     -0.928353     1.350474     0.049865
H     -1.507408     2.237078     0.354329
H     -0.018568     1.625985    -0.645752
6
Family_2 [H]C([H])=C([H])[H] | RMSD: 0.2797 | 4776.00 to state    1 from traj    1 on state    2
C     -1.623592     0.082829    -0.095005
H     -1.531364     0.316988     0.930785
H     -2.678360     0.051122    -0.129831
C     -0.959064     1.440433    -0.031588
H     -0.875668     2.557259     0.662849
H      0.127777     1.678759     0.041359
6
Family_2 [H]C([H])=C([H])[H] | RMSD: 0.7455 | 964.00 to state    1 from traj    1 on state    2
C     -1.670567     0.176145    -0.029576
H     -1.562415     0.076472     1.167818
H     -1.805490    -0.660961    -0.460575
C     -0.975455     1.546450    -0.127592
H     -0.706073     2.009926     0.809071
H     -0.128594     0.803497     0.353165
6
Family_2 [H]C([H])=C([H])[H] | RMSD: 0.7110 | 1156.00 to state    1 from traj    1 on state    2
C     -1.649743     0.222707    -0.030826
H     -1.459415     0.225486     1.029230
H     -2.244295    -0.873040    -0.319953
C     -0.928225     1.513873    -0.130215
H     -1.050062     2.016779     0.869199
H     -0.259711     0.693075     0.337156
6
Family_2 [H]C([H])=C([H])[H] | RMSD: 0.3590 | 2236.00 to state    1 from traj    1 on state    2
C     -1.641001     0.144244    -0.094053
H     -1.305111     0.444750     1.101390
H     -2.757953    -0.091791    -0.173994
C     -0.905058     1.422916    -0.032840
H     -1.514411     2.174100     0.670087
H      0.183777     1.553982    -0.088752
6
Family_2 [H]C([H])=C([H])[H] | RMSD: 0.4260 | 4560.00 to state    1 from traj    1 on state    2
C     -1.558954     0.209664    -0.078167
H     -1.436777     0.489380     1.133245
H     -2.755343     0.224511    -0.270927
C     -1.004206     1.359008    -0.048983
H     -1.357446     1.922084     0.755535
H      0.359649     1.427062    -0.106059
6
Family_2 [H]C([H])=C([H])[H] | RMSD: 0.5185 | 1968.00 to state    1 from traj    1 on state    2
C     -1.637459     0.173095    -0.073400
H     -1.157868     0.452982     1.123729
H     -2.684331    -0.076331    -0.578968
C     -0.928595     1.384161     0.022124
H     -1.363206     2.198873     0.551910
H      0.049967     1.623538    -0.488973
6
Family_2 [H]C([H])=C([H])[H] | RMSD: 0.5860 | 2096.00 to state    1 from traj    1 on state    2
C     -1.627262     0.187338    -0.050648
H     -0.946004     0.425399     1.200566
H     -2.341204     0.272526    -0.855840
C     -0.999289     1.350400    -0.017597
H     -1.273261     2.231838     0.770668
H      0.125893     1.501871    -0.305486
6
Family_2 [H]C([H])=C([H])[H] | RMSD: 0.4331 | 1356.00 to state    1 from traj    1 on state    2
C     -1.612133     0.149805    -0.106599
H     -1.499157     0.361016     0.966676
H     -2.726092     0.031264     0.040995
C     -0.899447     1.416950     0.019678
H     -1.685335     2.320295     0.384836
H      0.106048     1.373295    -0.360066
6
Family_2 [H]C([H])=C([H])[H] | RMSD: 0.7762 | 2040.00 to state    1 from traj    1 on state    2
C     -1.651793     0.284620    -0.077805
H     -1.529683    -0.179452     1.060564
H     -2.648649    -0.363070    -0.082528
C     -0.788296     1.312974     0.035570
H     -1.881508     2.019682     0.249574
H     -0.596557     2.241238    -0.727635
6
Family_2 [H]C([H])=C([H])[H] | RMSD: 0.7491 | 3076.00 to state    1 from traj    1 on state    2
C     -1.737797     0.232150    -0.094107
H     -1.414039     0.014566     0.977159
H     -1.369782    -0.674123     0.007090
C     -0.932213     1.398311    -0.033724
H     -1.367028     2.514337     0.243313
H      0.234118     1.471991     0.292348
6
Family_2 [H]C([H])=C([H])[H] | RMSD: 0.7550 | 1032.00 to state    1 from traj    1 on state    2
C     -1.580016     0.118293    -0.118009
H     -1.581931    -0.707718     0.828836
H     -2.165699     0.861419     0.774589
C     -0.959905     1.451938    -0.084823
H     -1.263164     2.625575    -0.040073
H     -0.456033     1.265182     0.850250
6
Family_2 [H]C([H])=C([H])[H] | RMSD: 0.8240 | 1224.00 to state    1 from traj    1 on state    2
C     -1.714236     0.214328    -0.117720
H     -1.523258     0.553302     0.849337
H     -1.600649    -1.088483     0.196346
C     -0.946577     1.433200    -0.036724
H     -0.913259     2.512296     0.342543
H      0.010839     1.146293     0.448799
6
Family_2 [H]C([H])=C([H])[H] | RMSD: 0.6078 | 1564.00 to state    1 from traj    1 on state    2
C     -1.742310     0.182453    -0.111662
H     -1.232948     0.534382     0.911292
H     -2.451156    -0.923523     0.108301
C     -0.827725     1.424236    -0.038750
H     -1.634084     2.206703     0.507768
H      0.210194     1.792484     0.261615
6
Family_2 [H]C([H])=C([H])[H] | RMSD: 0.6544 | 1696.00 to state    1 from traj    1 on state    2
C     -1.773166     0.147740    -0.129730
H     -1.313299     0.550797     0.950012
H     -2.178736    -0.851585     0.240848
C     -0.800127     1.453597    -0.016072
H     -1.678659     2.078773     0.352939
H      0.101513     1.895816     0.190249
6
Family_2 [H]C([H])=C([H])[H] | RMSD: 0.4858 | 3476.00 to state    1 from traj    1 on state    2
C     -1.637064     0.184675    -0.125060
H     -1.367997     0.379299     1.057140
H     -2.819178    -0.151402     0.078659
C     -0.864042     1.366058     0.037263
H     -1.763952     2.286016     0.287071
H      0.021793     1.762877    -0.379982
6
Family_2 [H]C([H])=C([H])[H] | RMSD: 0.6710 | 1036.00 to state    1 from traj    1 on state    2
C     -1.648422     0.070767    -0.149330
H     -1.406607    -0.362817     0.875231
H     -2.198493     0.633774     0.872982
C     -0.891368     1.480697    -0.067104
H     -1.463765     2.500081    -0.052497
H     -0.399535     1.497038     0.879961
6
Family_2 [H]C([H])=C([H])[H] | RMSD: 0.5495 | 1876.00 to state    1 from traj    1 on state    2
C     -1.602325     0.107865    -0.127569
H     -1.820384     0.077591     1.338287
H     -2.605160     0.552299     0.153420
C     -0.876935     1.406996     0.003874
H     -1.580299     2.071627     0.511420
H     -0.183802     2.002715    -0.532497
6
Family_2 [H]C([H])=C([H])[H] | RMSD: 0.6664 | 2064.00 to state    1 from traj    1 on state    2
C     -1.592431     0.072888    -0.076406
H     -2.227616     0.058473     0.976999
H     -2.560026     0.481413     0.062985
C     -0.859809     1.467923    -0.012318
H     -1.567916     2.015465     0.797727
H     -0.156051     1.839660    -0.783789
6
Family_2 [H]C([H])=C([H])[H] | RMSD: 0.5863 | 9656.00 to state    1 from traj    1 on state    2
C     -1.639429     0.183465    -0.052528
H     -0.971136     0.445859     1.185054
H     -2.621430    -0.209228    -0.863732
C     -0.974107     1.402031     0.003549
H     -1.076986     2.259169     0.602641
H      0.079899     1.366771    -0.343616
6
Family_2 [H]C([H])=C([H])[H] | RMSD: 0.6017 | 4488.00 to state    1 from traj    1 on state    2
C     -1.553575     0.186921    -0.124097
H     -1.746809     0.179958     1.169415
H     -2.630239     0.366362     0.120685
C     -0.917809     1.364012     0.063522
H     -1.655650     2.317098     0.208910
H     -0.250794     1.410992    -0.780505
6
Family_2 [H]C([H])=C([H])[H] | RMSD: 0.4252 | 4620.00 to state    1 from traj    1 on state    2
C     -1.558231     0.203668    -0.124649
H     -1.660380     0.139234     1.310433
H     -2.872149     0.101556     0.066378
C     -0.937099     1.358075     0.012851
H     -1.520397     2.434224     0.404133
H      0.054762     1.470583    -0.452070
6
Family_2 [H]C([H])=C([H])[H] | RMSD: 0.6867 | 5132.00 to state    1 from traj    1 on state    2
C     -1.737408     0.179191    -0.038838
H     -0.836410     0.342672     1.026416
H     -2.061853    -0.631037    -0.830379
C     -0.924736     1.442202    -0.027423
H     -1.283639     2.414509     0.618020
H      0.171450     1.308683    -0.027789
6
Family_2 [H]C([H])=C([H])[H] | RMSD: 0.4105 | 3212.00 to state    1 from traj    1 on state    2
C     -1.610965     0.191236    -0.084825
H     -1.452963     0.304193     0.911410
H     -2.640424    -0.200041    -0.181288
C     -0.939293     1.373707     0.000724
H     -1.409247     2.599675     0.548665
H      0.158981     1.403636    -0.279945
6
Family_2 [H]C([H])=C([H])[H] | RMSD: 0.6117 | 1028.00 to state    1 from traj    1 on state    2
C     -1.558789     0.211214    -0.125589
H     -1.999506    -0.545628     1.021588
H     -2.474382     0.060415     0.748743
C     -0.955966     1.434168    -0.048986
H     -1.348049     2.440224    -0.072285
H      0.055233     1.193967     0.378853
6
Family_2 [H]C([H])=C([H])[H] | RMSD: 0.6325 | 608.00 to state    1 from traj    1 on state    2
C     -1.545834     0.081403    -0.078285
H     -1.936893    -0.007204     0.986279
H     -2.812623     0.680686    -0.122344
C     -0.912878     1.445074     0.036131
H     -1.234151     2.285524     0.489990
H     -0.450822     1.606809    -0.854917
6
Family_2 [H]C([H])=C([H])[H] | RMSD: 0.6593 | 820.00 to state    1 from traj    1 on state    2
C     -1.506981     0.109853    -0.023947
H     -2.275469     0.009070     0.622640
H     -2.734871     0.670058    -0.194678
C     -0.996303     1.439406    -0.034616
H     -0.870180     1.942906     0.806088
H     -0.022862     1.672310    -0.539520
6
Family_2 [H]C([H])=C([H])[H] | RMSD: 0.6520 | 956.00 to state    1 from traj    1 on state    2
C     -1.567436     0.232875    -0.020428
H     -1.714548    -0.065459     1.128959
H     -2.319467    -0.448699    -0.512889
C     -1.045913     1.476560    -0.105200
H     -0.636442     2.220460     0.759188
H      0.078578     0.679443     0.118394
6
Family_2 [H]C([H])=C([H])[H] | RMSD: 0.3887 | 1004.00 to state    1 from traj    1 on state    2
C     -1.567456     0.161496    -0.088799
H     -1.649625     0.138486     1.170042
H     -2.789806     0.320985    -0.196346
C     -0.959333     1.358483    -0.028891
H     -1.394989     2.520689     0.807009
H      0.211123     1.663083    -0.381636
6
Family_2 [H]C([H])=C([H])[H] | RMSD: 0.6654 | 4080.00 to state    1 from traj    1 on state    2
C     -1.602488     0.043273    -0.054034
H     -1.940647    -0.253604     0.828093
H     -2.223320     0.783330    -0.313368
C     -0.957225     1.471055     0.044142
H     -1.091865     2.419672     0.340052
H      0.024834     1.761179    -0.740199
6
Family_2 [H]C([H])=C([H])[H] | RMSD: 0.7502 | 4328.00 to state    1 from traj    1 on state    2
C     -1.622183    -0.036186    -0.041202
H     -1.815257    -0.816664     1.006110
H     -2.394218     1.048724    -0.284556
C     -0.880991     1.591020     0.011596
H     -1.460132     2.619977     0.300425
H     -0.235094     1.375886    -0.672479
6
Family_2 [H]C([H])=C([H])[H] | RMSD: 0.6933 | 5028.00 to state    1 from traj    1 on state    2
C     -1.507922     0.159428    -0.047608
H     -2.089904    -0.042135     0.714031
H     -2.798748     0.831557    -0.083996
C     -0.951633     1.343912    -0.007331
H     -1.231958     2.004153     0.707476
H     -0.303842     2.047934    -0.686151
6
Family_2 [H]C([H])=C([H])[H] | RMSD: 0.6623 | 5128.00 to state    1 from traj    1 on state    2
C     -1.584096     0.280561    -0.014681
H     -1.456206     0.042966     1.200247
H     -2.126403    -0.320732    -0.622397
C     -1.068105     1.425797    -0.124083
H     -0.710868     1.751936     0.742687
H      0.164533     0.948238     0.329652
6
Family_2 [H]C([H])=C([H])[H] | RMSD: 0.4102 | 1304.00 to state    1 from traj    1 on state    2
C     -1.676427     0.146202    -0.113249
H     -1.349378     0.494668     0.928373
H     -2.629571    -0.428432     0.139743
C     -0.887271     1.444472    -0.033963
H     -1.442206     2.141283     0.443786
H      0.237650     1.593339     0.238947
6
Family_2 [H]C([H])=C([H])[H] | RMSD: 0.3449 | 1136.00 to state    1 from traj    1 on state    2
C     -1.691533     0.039339    -0.158246
H     -1.317602     0.224664     1.178095
H     -2.695245     0.084369     0.471514
C     -0.846461     1.521653    -0.030471
H     -1.631076     2.238439     0.208759
H      0.154133     1.607071     0.387042
6
Family_2 [H]C([H])=C([H])[H] | RMSD: 0.7258 | 536.00 to state    1 from traj    1 on state    2
C     -1.698071    -0.065990    -0.073105
H     -1.439711    -0.837436     0.553490
H     -2.126951     0.843331     0.472849
C     -0.861886     1.638330    -0.085782
H     -1.349580     2.656452     0.042801
H     -0.311846     1.356974     0.820826
6
Family_2 [H]C([H])=C([H])[H] | RMSD: 0.4627 | 1468.00 to state    1 from traj    1 on state    2
C     -1.661840     0.040198    -0.082433
H     -1.348666     0.504486     1.073366
H     -2.836424     0.183988    -0.350087
C     -0.867440     1.506880     0.001320
H     -1.532990     2.013314     0.675457
H      0.124454     1.618548    -0.435494
6
Family_2 [H]C([H])=C([H])[H] | RMSD: 0.3255 | 580.00 to state    1 from traj    1 on state    2
C     -1.728458    -0.078137    -0.104833
H     -1.429412     0.043605     1.099764
H     -2.747110     0.302986     0.060863
C     -0.796233     1.646803    -0.022659
H     -1.684878     2.070004     0.381882
H      0.213092     1.646501    -0.026633
6
Family_2 [H]C([H])=C([H])[H] | RMSD: 0.7271 | 1172.00 to state    1 from traj    1 on state    2
C     -1.588006     0.111427    -0.145262
H     -1.560742    -0.477956     0.784346
H     -2.338904     0.713513     0.917076
C     -0.944092     1.438226    -0.053962
H     -1.132962     2.551925    -0.187101
H     -0.527439     1.502180     0.856291
6
Family_2 [H]C([H])=C([H])[H] | RMSD: 0.5217 | 1048.00 to state    1 from traj    1 on state    2
C     -1.576772     0.172721    -0.050374
H     -1.243068     0.485910     0.952467
H     -2.597501     0.323916    -0.656474
C     -1.007169     1.365405     0.002849
H     -1.084518     2.194891     0.685439
H     -0.017218     1.422293    -0.418410
6
Family_2 [H]C([H])=C([H])[H] | RMSD: 0.5043 | 1628.00 to state    1 from traj    1 on state    2
C     -1.584279     0.134212    -0.066459
H     -2.153421    -0.250751     0.812675
H     -2.591784    -0.089852     0.110598
C     -0.922185     1.479092    -0.022021
H     -1.122862     2.467332     0.448154
H      0.002564     1.404482    -0.320410
6
Family_2 [H]C([H])=C([H])[H] | RMSD: 0.3418 | 1820.00 to state    1 from traj    1 on state    2
C     -1.666399     0.088403    -0.100196
H     -1.301147     0.547240     1.020412
H     -2.764902    -0.339830    -0.069781
C     -0.904517     1.491380    -0.070194
H     -1.177012     2.329015     0.778426
H      0.145559     1.394207     0.297978
6
Family_2 [H]C([H])=C([H])[H] | RMSD: 0.6075 | 5916.00 to state    1 from traj    1 on state    2
C     -1.667279     0.283091    -0.085749
H     -1.370016     0.306595     0.960969
H     -1.831028    -0.637745    -0.048207
C     -0.974175     1.342223    -0.067947
H     -1.345058     2.387997     0.558909
H      0.289105     1.331268     0.356445
6
Family_2 [H]C([H])=C([H])[H] | RMSD: 0.7003 | 1096.00 to state    1 from traj    1 on state    2
C     -1.618617    -0.003432    -0.084987
H     -1.450153    -0.593376     0.764280
H     -2.364403     0.734440     0.397148
C     -0.928345     1.579823    -0.104738
H     -0.745793     2.670563     0.234952
H     -0.822592     1.159430     0.861042
6
Family_2 [H]C([H])=C([H])[H] | RMSD: 0.7662 | 2440.00 to state    1 from traj    1 on state    2
C     -1.668855     0.252125    -0.071642
H     -1.197833     0.102079     0.985767
H     -2.640791    -0.255121    -0.194535
C     -0.830664     1.394942     0.057582
H     -2.046682     1.522467    -0.099662
H     -0.062943     1.759482    -0.527328
6
Family_2 [H]C([H])=C([H])[H] | RMSD: 0.4794 | 1996.00 to state    1 from traj    1 on state    2
C     -1.560580     0.153791    -0.069561
H     -1.545953     0.210099     1.055491
H     -2.591957     0.675707    -0.324841
C     -0.974323     1.355227    -0.017660
H     -1.427935     2.244695     0.768208
H      0.039222     1.643356    -0.462845
6
Family_2 [H]C([H])=C([H])[H] | RMSD: 0.7599 | 568.00 to state    1 from traj    1 on state    2
C     -1.654194     0.158731    -0.007294
H     -1.549967    -0.085264     1.034112
H     -1.958968    -0.608123    -0.657046
C     -0.981663     1.564568    -0.088772
H     -0.608560     2.254506     0.676950
H     -0.206195     0.659433     0.087384
6
Family_2 [H]C([H])=C([H])[H] | RMSD: 0.6853 | 2000.00 to state    1 from traj    1 on state    2
C     -1.559933     0.109024    -0.007537
H     -1.739488    -0.398948     0.777909
H     -2.457481     1.045881    -0.497059
C     -0.959707     1.419774    -0.018953
H     -1.409843     2.197780     0.658581
H     -0.101680     1.693440    -0.627067
6
Family_2 [H]C([H])=C([H])[H] | RMSD: 0.4568 | 1032.00 to state    1 from traj    1 on state    2
C     -1.638024     0.103790    -0.124392
H     -1.460019     0.422686     0.962234
H     -2.794167     0.082825     0.086735
C     -0.869749     1.435475     0.055778
H     -1.560644     2.210318     0.195961
H     -0.035067     1.697614    -0.430640
6
Family_2 [H]C([H])=C([H])[H] | RMSD: 0.3585 | 1788.00 to state    1 from traj    1 on state    2
C     -1.622144     0.087218    -0.102371
H     -1.565093     0.330997     0.960893
H     -2.624744     0.488531     0.168332
C     -0.915083     1.427149    -0.073187
H     -1.499046     2.022082     0.779413
H      0.189951     1.868511     0.179977
6
Family_2 [H]C([H])=C([H])[H] | RMSD: 0.3907 | 4716.00 to state    1 from traj    1 on state    2
C     -1.606591     0.197509    -0.084621
H     -1.401881     0.266581     1.003907
H     -2.505415     0.042196    -0.308753
C     -0.974504     1.336170     0.007188
H     -1.150448     2.423472     0.497367
H      0.081517     1.747757    -0.273133
6
Family_2 [H]C([H])=C([H])[H] | RMSD: 0.7118 | 1980.00 to state    1 from traj    1 on state    2
C     -1.580758     0.093375    -0.061895
H     -1.992944     0.097110     0.807988
H     -2.516265     0.808351    -0.101812
C     -0.891783     1.397083     0.005910
H     -1.512098     1.980142     0.745106
H     -0.248398     2.109398    -0.787474
6
Family_2 [H]C([H])=C([H])[H] | RMSD: 0.5600 | 3792.00 to state    1 from traj    1 on state    2
C     -1.551341     0.181331    -0.079939
H     -1.885151     0.037802     1.041546
H     -2.643880     0.612388    -0.053609
C     -0.939394     1.327097    -0.017552
H     -1.471069     2.082678     0.714746
H     -0.052810     2.048009    -0.544294
6
Family_2 [H]C([H])=C([H])[H] | RMSD: 0.6209 | 4064.00 to state    1 from traj    1 on state    2
C     -1.546908     0.098500    -0.077995
H     -2.041238    -0.120205     0.912815
H     -2.908487     0.486277    -0.174941
C     -0.948568     1.402878     0.047511
H     -0.976166     2.555682     0.446539
H     -0.070531     1.943137    -0.824451
6
Family_2 [H]C([H])=C([H])[H] | RMSD: 0.5962 | 5556.00 to state    1 from traj    1 on state    2
C     -1.512416     0.143843    -0.067768
H     -1.967383    -0.275136     1.229741
H     -2.647156     0.643967    -0.235056
C     -0.985089     1.416185    -0.012670
H     -1.225527     2.580618     0.648967
H     -0.132182     1.216578    -0.688459
6
Family_2 [H]C([H])=C([H])[H] | RMSD: 0.3723 | 1296.00 to state    1 from traj    1 on state    2
C     -1.571550     0.112514    -0.097774
H     -1.748810     0.212852     1.064298
H     -2.610051     0.152125    -0.063109
C     -0.980775     1.452019    -0.014167
H     -1.017485     2.579192     0.562721
H      0.057318     1.168183    -0.233333
6
Family_2 [H]C([H])=C([H])[H] | RMSD: 0.5554 | 4420.00 to state    1 from traj    1 on state    2
C     -1.594035     0.173355    -0.087415
H     -1.421733     0.403329     0.859748
H     -2.687234     0.417606    -0.208505
C     -0.924987     1.329218     0.050844
H     -1.646394     2.161547     0.414158
H      0.039509     1.868165    -0.632908
6
Family_2 [H]C([H])=C([H])[H] | RMSD: 0.6294 | 720.00 to state    1 from traj    1 on state    2
C     -1.558464     0.147910    -0.002499
H     -1.932441    -0.128586     0.983982
H     -2.614353    -0.061802    -0.539573
C     -1.037090     1.528117    -0.104849
H     -0.335749     1.737581     0.761869
H      0.078618     1.236624     0.069558
6
Family_2 [H]C([H])=C([H])[H] | RMSD: 0.4765 | 2680.00 to state    1 from traj    1 on state    2
C     -1.544838     0.159600    -0.062661
H     -1.825996     0.091006     0.947159
H     -2.479025     0.662123    -0.184966
C     -0.992439     1.357890    -0.038946
H     -1.253954     2.221786     0.808763
H      0.060645     1.697987    -0.363512
6
Family_2 [H]C([H])=C([H])[H] | RMSD: 0.5851 | 2224.00 to state    1 from traj    1 on state    2
C     -1.696136     0.253939    -0.109561
H     -1.313260     0.257709     1.069302
H     -2.142830    -0.629791    -0.006782
C     -0.898173     1.355807     0.004280
H     -1.653253     2.258429     0.220696
H      0.290573     1.687263    -0.032003
6
Family_2 [H]C([H])=C([H])[H] | RMSD: 0.7189 | 2752.00 to state    1 from traj    1 on state    2
C     -1.597078     0.055893    -0.073769
H     -1.871516    -0.193284     1.089408
H     -2.469960     0.915258    -0.247040
C     -0.888639     1.428963     0.032362
H     -1.514140     2.364251     0.589630
H     -0.257087     1.975542    -0.941892
6
Family_2 [H]C([H])=C([H])[H] | RMSD: 0.7872 | 1032.00 to state    1 from traj    1 on state    2
C     -1.594031     0.071429    -0.133484
H     -1.439713    -0.556207     0.766812
H     -2.350243     0.901013     0.881312
C     -0.938731     1.480151    -0.084191
H     -1.095760     2.521133    -0.108183
H     -0.666429     1.400758     1.050528
6
Family_2 [H]C([H])=C([H])[H] | RMSD: 0.5511 | 1044.00 to state    1 from traj    1 on state    2
C     -1.627591     0.007078    -0.114817
H     -1.530558    -0.349642     0.878211
H     -2.267662     0.870170     0.538397
C     -0.918817     1.541507    -0.074315
H     -1.482133     2.608011     0.253730
H     -0.109179     1.173839     0.580008
6
Family_2 [H]C([H])=C([H])[H] | RMSD: 0.4493 | 1480.00 to state    1 from traj    1 on state    2
C     -1.639525     0.179206    -0.085025
H     -1.179517     0.410261     1.095331
H     -2.567256    -0.057823    -0.395511
C     -0.928482     1.380989     0.013400
H     -1.314938     2.164850     0.455072
H     -0.070464     1.646757    -0.304714
6
Family_2 [H]C([H])=C([H])[H] | RMSD: 0.4164 | 2192.00 to state    1 from traj    1 on state    2
C     -1.588452     0.109952    -0.114708
H     -1.773890     0.162254     1.177221
H     -2.742119    -0.016527    -0.045921
C     -0.965046     1.455600     0.016279
H     -1.134704     2.680514     0.409660
H      0.345661     1.273975    -0.371392
6
Family_2 [H]C([H])=C([H])[H] | RMSD: 0.5173 | 2588.00 to state    1 from traj    1 on state    2
C     -1.592653     0.064180    -0.064376
H     -1.450596     0.391772     0.878998
H     -2.771222     0.651189    -0.412768
C     -0.939756     1.446832     0.022659
H     -1.340595     2.129277     0.606474
H      0.006066     1.577855    -0.578903
6
Family_2 [H]C([H])=C([H])[H] | RMSD: 0.7576 | 588.00 to state    1 from traj    1 on state    2
C     -1.671658     0.149649    -0.011278
H     -1.423722     0.103031     1.075829
H     -2.012262    -0.673994    -0.684735
C     -0.958250     1.569860    -0.101372
H     -0.680126     2.146632     0.809435
H     -0.278457     0.690041     0.138483
6
Family_2 [H]C([H])=C([H])[H] | RMSD: 0.6227 | 3188.00 to state    1 from traj    1 on state    2
C     -1.647466     0.260099    -0.101186
H     -1.322921     0.325157     1.004565
H     -2.176920    -0.490472    -0.259967
C     -0.959392     1.335695     0.074302
H     -1.294817     2.426356     0.004928
H      0.125422     1.478825    -0.432459
6
Family_2 [H]C([H])=C([H])[H] | RMSD: 0.6258 | 1264.00 to state    1 from traj    1 on state    2
C     -1.600885     0.164536    -0.164163
H     -1.666424    -0.232702     0.988949
H     -2.311906     0.429655     0.910042
C     -0.941921     1.407473    -0.024400
H     -1.536103     2.275649    -0.229785
H      0.081970     1.550676     0.574377
6
Family_2 [H]C([H])=C([H])[H] | RMSD: 0.6239 | 1312.00 to state    1 from traj    1 on state    2
C     -1.603072     0.157983    -0.155914
H     -1.715544    -0.357580     0.999687
H     -2.354406     0.388361     0.913151
C     -0.934896     1.427685    -0.045034
H     -1.472173     2.264444    -0.180822
H      0.052012     1.565284     0.659133
6
Family_2 [H]C([H])=C([H])[H] | RMSD: 0.5713 | 2088.00 to state    1 from traj    1 on state    2
C     -1.545634     0.137128    -0.073478
H     -1.238609    -0.057664     1.209777
H     -2.276599     1.095142    -0.427190
C     -1.062567     1.383809    -0.014966
H     -1.160811     2.407852     0.410236
H      0.022789     1.186498    -0.142225
6
Family_2 [H]C([H])=C([H])[H] | RMSD: 0.7134 | 1800.00 to state    1 from traj    1 on state    2
C     -1.735740     0.219543    -0.009309
H     -0.739111     0.032075     0.833239
H     -2.145396    -0.442322    -0.998591
C     -0.925305     1.349631    -0.024652
H     -1.323386     2.567176     0.643472
H      0.184342     1.900126    -0.076732
6
Family_2 [H]C([H])=C([H])[H] | RMSD: 0.6504 | 1888.00 to state    1 from traj    1 on state    2
C     -1.735279     0.201894    -0.026959
H     -0.761872     0.158684     0.795443
H     -2.062127    -0.270422    -0.774634
C     -0.914814     1.359174    -0.026400
H     -1.294179     2.276859     0.549414
H     -0.035880     1.988523     0.062299
6
Family_2 [H]C([H])=C([H])[H] | RMSD: 0.7928 | 2140.00 to state    1 from traj    1 on state    2
C     -1.739691     0.286097     0.012817
H     -0.785658     0.145565     0.675387
H     -2.159888    -0.706223    -0.877286
C     -0.886724     1.354344    -0.051718
H     -1.808637     2.056665     0.681466
H      0.317986     1.711848    -0.019324
6
Family_2 [H]C([H])=C([H])[H] | RMSD: 0.8189 | 2272.00 to state    1 from traj    1 on state    2
C     -1.755999     0.287262    -0.026207
H     -0.916939     0.108827     0.964018
H     -1.803558    -0.818699    -0.656377
C     -0.882162     1.378451    -0.040795
H     -1.935267     2.182677     0.533437
H      0.359528     1.433916    -0.045985
6
Family_2 [H]C([H])=C([H])[H] | RMSD: 0.7170 | 1372.00 to state    1 from traj    1 on state    2
C     -1.678966     0.093618    -0.188074
H     -1.011808     0.354430     0.809690
H     -2.454382     0.324700     0.687987
C     -0.909470     1.438078     0.082139
H     -1.461766     2.080845    -0.722750
H      0.039214     1.743657     0.484078
6
Family_2 [H]C([H])=C([H])[H] | RMSD: 0.5461 | 2796.00 to state    1 from traj    1 on state    2
C     -1.616134    -0.008024    -0.072149
H     -1.700794    -0.233757     1.082803
H     -2.407418     1.018744    -0.231982
C     -0.929996     1.515590    -0.006593
H     -1.395336     2.391384     0.532327
H      0.110702     1.614783    -0.448169
6
Family_2 [H]C([H])=C([H])[H] | RMSD: 0.6295 | 2876.00 to state    1 from traj    1 on state    2
C     -1.623347    -0.018737    -0.055999
H     -1.917202    -0.355073     1.009732
H     -2.305197     0.943795    -0.245899
C     -0.907195     1.548011     0.000538
H     -1.363436     2.309328     0.520232
H      0.007248     1.634434    -0.626487
6
Family_2 [H]C([H])=C([H])[H] | RMSD: 0.7889 | 1096.00 to state    1 from traj    1 on state    2
C     -1.610859     0.056183    -0.091448
H     -1.577914    -0.860680     0.744902
H     -2.052998     0.829215     0.527857
C     -0.966046     1.532418    -0.069486
H     -0.932697     2.633120    -0.161913
H     -0.462533     1.223909     0.803510
6
Family_2 [H]C([H])=C([H])[H] | RMSD: 0.6870 | 1232.00 to state    1 from traj    1 on state    2
C     -1.554555     0.094933    -0.067258
H     -1.968194    -0.193535     0.976677
H     -2.339776     0.724700    -0.186151
C     -0.952712     1.460146     0.046660
H     -1.200569     2.368991     0.300254
H     -0.347393     1.324846    -0.848618
6
Family_2 [H]C([H])=C([H])[H] | RMSD: 0.5644 | 1252.00 to state    1 from traj    1 on state    2
C     -1.562013     0.103142    -0.047636
H     -1.696462    -0.152614     0.992447
H     -2.498386     0.977589    -0.317811
C     -0.963492     1.416538    -0.028140
H     -1.341863     2.122157     0.677954
H     -0.101900     1.699674    -0.452954
6
Family_2 [H]C([H])=C([H])[H] | RMSD: 0.6647 | 2136.00 to state    1 from traj    1 on state    2
C     -1.682674     0.240329    -0.031506
H     -0.779647     0.256225     0.907489
H     -2.197849    -0.220211    -0.867252
C     -0.953926     1.347506     0.021413
H     -1.364251     2.221403     0.352318
H      0.026907     1.577280    -0.275570
6
Family_2 [H]C([H])=C([H])[H] | RMSD: 0.4553 | 696.00 to state    1 from traj    1 on state    2
C     -1.592886     0.057154    -0.084484
H     -1.574212     0.371542     0.972235
H     -2.728034     0.389869    -0.309533
C     -0.947943     1.473770     0.033128
H     -1.092559     2.366451     0.504801
H     -0.061210     1.384971    -0.558839
6
Family_2 [H]C([H])=C([H])[H] | RMSD: 0.3750 | 1332.00 to state    1 from traj    1 on state    2
C     -1.639538     0.202062    -0.098255
H     -1.402679     0.339569     1.001372
H     -2.645701    -0.361758    -0.089592
C     -0.939535     1.367559    -0.025761
H     -1.173650     2.247353     0.488946
H      0.221723     1.826559     0.073726
6
Family_2 [H]C([H])=C([H])[H] | RMSD: 0.7577 | 576.00 to state    1 from traj    1 on state    2
C     -1.739772    -0.086929    -0.130349
H     -1.199069    -0.717362     0.717280
H     -2.315199     0.574660     0.676273
C     -0.835837     1.650881    -0.032446
H     -1.203589     2.694718    -0.432755
H     -0.323722     1.567259     0.975723
6
Family_2 [H]C([H])=C([H])[H] | RMSD: 0.2978 | 1736.00 to state    1 from traj    1 on state    2
C     -1.647711     0.083102    -0.118691
H     -1.518176     0.303331     1.033117
H     -2.770974    -0.046516     0.041367
C     -0.889448     1.455873     0.005952
H     -1.328950     2.475088     0.444164
H      0.118358     1.684989    -0.178576
6
Family_2 [H]C([H])=C([H])[H] | RMSD: 0.5834 | 2132.00 to state    1 from traj    1 on state    2
C     -1.751505    -0.075498    -0.107404
H     -1.145766     0.166440     0.853143
H     -2.790786     0.378274    -0.028337
C     -0.777555     1.625120     0.078835
H     -1.825414     1.912855    -0.170555
H      0.165723     1.832447    -0.317123
6
Family_2 [H]C([H])=C([H])[H] | RMSD: 0.7133 | 2568.00 to state    1 from traj    1 on state    2
C     -1.530650     0.171992    -0.053924
H     -2.045947    -0.147248     1.058652
H     -2.442646     0.767825    -0.242471
C     -0.960804     1.376433     0.012658
H     -1.569114     2.087644     0.596199
H      0.013355     1.596064    -0.923957
6
Family_2 [H]C([H])=C([H])[H] | RMSD: 0.5382 | 3428.00 to state    1 from traj    1 on state    2
C     -1.574478     0.151370    -0.094920
H     -1.569764     0.327455     1.177627
H     -2.623863    -0.107510    -0.127785
C     -0.947443     1.478665    -0.004358
H     -1.181010     2.391251     0.468998
H     -0.306677     0.720658    -0.339158
6
Family_2 [H]C([H])=C([H])[H] | RMSD: 0.4694 | 5648.00 to state    1 from traj    1 on state    2
C     -1.593219     0.077883    -0.082324
H     -1.714368     0.285775     0.877241
H     -2.466942     0.516061    -0.160478
C     -0.957064     1.452120     0.024821
H     -1.274044     2.257751     0.464574
H      0.111990     1.464214    -0.499439
6
Family_2 [H]C([H])=C([H])[H] | RMSD: 0.6471 | 2452.00 to state    1 from traj    1 on state    2
C     -1.691831     0.211713    -0.040619
H     -1.013469     0.358100     0.826887
H     -2.190083    -0.507021    -0.725944
C     -0.945070     1.392752     0.022496
H     -1.293013     2.383765     0.397503
H      0.185314     1.401695    -0.285787
6
Family_2 [H]C([H])=C([H])[H] | RMSD: 0.7372 | 688.00 to state    1 from traj    1 on state    2
C     -1.714577    -0.022897    -0.125011
H     -1.348162    -0.614291     0.713975
H     -2.119271     0.632995     0.743576
C     -0.848015     1.597304    -0.044795
H     -1.443516     2.430414    -0.311962
H     -0.285742     1.545584     0.874485
6
Family_2 [H]C([H])=C([H])[H] | RMSD: 0.7600 | 1692.00 to state    1 from traj    1 on state    2
C     -1.592097     0.015482    -0.063192
H     -2.121026    -0.119092     1.000821
H     -2.622164     0.840834    -0.187659
C     -0.858803     1.476064     0.007707
H     -1.327735     2.191494     0.811519
H     -0.456655     2.068797    -0.966816
6
Family_2 [H]C([H])=C([H])[H] | RMSD: 0.7978 | 1884.00 to state    1 from traj    1 on state    2
C     -1.676610     0.015739    -0.138897
H     -1.557274    -0.627843     0.765666
H     -2.174466     0.586540     0.876618
C     -0.885550     1.589680    -0.012170
H     -1.377102     2.228769    -0.610074
H     -0.092996     1.437702     0.764578
6
Family_2 [H]C([H])=C([H])[H] | RMSD: 0.5100 | 2816.00 to state    1 from traj    1 on state    2
C     -1.564096     0.269450    -0.091212
H     -1.530484     0.248189     1.087334
H     -2.547274    -0.287554    -0.325804
C     -1.038314     1.316555     0.038391
H     -0.893484     2.485977     0.226994
H      0.249017     1.409880    -0.362410
6
Family_2 [H]C([H])=C([H])[H] | RMSD: 0.7047 | 588.00 to state    1 from traj    1 on state    2
C     -1.552910     0.068392    -0.087174
H     -1.662190    -0.429471     1.143576
H     -2.402679     0.844099    -0.260043
C     -1.008750     1.481201     0.069385
H     -0.824172     2.719007    -0.087915
H     -0.318756     1.156735    -0.586933
6
Family_2 [H]C([H])=C([H])[H] | RMSD: 0.5743 | 1672.00 to state    1 from traj    1 on state    2
C     -1.571593     0.103635    -0.098544
H     -1.560950     0.281178     1.377602
H     -2.603740     0.322678    -0.421366
C     -0.979317     1.455455     0.033902
H     -1.217556     2.587438     0.535963
H      0.046351     0.985924    -0.725220
6
Family_2 [H]C([H])=C([H])[H] | RMSD: 0.6920 | 2864.00 to state    1 from traj    1 on state    2
C     -1.623231     0.019729    -0.050016
H     -1.827458    -0.243451     0.899773
H     -2.467664     1.012733    -0.191329
C     -0.853177     1.457130    -0.033751
H     -1.622776     2.262564     0.892969
H     -0.305731     2.125199    -0.606556
6
Family_2 [H]C([H])=C([H])[H] | RMSD: 0.7175 | 532.00 to state    1 from traj    1 on state    2
C     -1.746671    -0.075338    -0.117696
H     -1.059066    -0.559597     0.710741
H     -2.320060     0.636927     0.590736
C     -0.809812     1.654355    -0.037665
H     -1.521029     2.393450    -0.346101
H     -0.369327     1.468986     0.892572
6
Family_2 [H]C([H])=C([H])[H] | RMSD: 0.6966 | 1968.00 to state    1 from traj    1 on state    2
C     -1.570155     0.061330    -0.066020
H     -1.745540    -0.226165     0.891709
H     -2.610728     0.968521    -0.227480
C     -0.905860     1.427136     0.044408
H     -1.357485     2.521331     0.436878
H     -0.514559     1.755053    -0.846870
6
Family_2 [H]C([H])=C([H])[H] | RMSD: 0.5382 | 1288.00 to state    1 from traj    1 on state    2
C     -1.767268    -0.054676    -0.134868
H     -1.044121    -0.059378     0.775700
H     -2.555346     0.269865     0.565753
C     -0.769777     1.605613    -0.042665
H     -1.598123     2.214145    -0.008306
H     -0.303509     1.849716     0.778999
6
Family_2 [H]C([H])=C([H])[H] | RMSD: 0.6507 | 2684.00 to state    1 from traj    1 on state    2
C     -1.543072     0.154721    -0.056251
H     -1.838172    -0.280862     1.028001
H     -2.540305     0.816727    -0.330314
C     -0.966157     1.357065     0.021849
H     -1.272825     2.341328     0.497549
H     -0.181240     1.863680    -0.788593
6
Family_2 [H]C([H])=C([H])[H] | RMSD: 0.6337 | 2776.00 to state    1 from traj    1 on state    2
C     -1.647080    -0.032371    -0.102173
H     -1.670537    -0.015350     1.197559
H     -2.573349     0.807090    -0.233073
C     -0.849382     1.498633     0.045758
H     -1.352601     2.491147     0.540057
H     -0.388186     2.000430    -0.835606
6
Family_2 [H]C([H])=C([H])[H] | RMSD: 0.7040 | 6352.00 to state    1 from traj    1 on state    2
C     -1.677635     0.009731    -0.152593
H     -1.301884    -0.481887     0.911820
H     -2.382349     0.632090     0.809610
C     -0.860070     1.551959    -0.032673
H     -1.299951     2.383937    -0.352791
H     -0.509063     1.612093     0.835649
6
Family_2 [H]C([H])=C([H])[H] | RMSD: 0.6940 | 6792.00 to state    1 from traj    1 on state    2
C     -1.636964     0.304463    -0.026257
H     -1.016184     0.233085     0.877335
H     -2.057019    -0.366557    -0.810927
C     -1.003334     1.319572     0.022662
H     -1.212500     2.255915     0.311350
H      0.014923     1.280897    -0.338208
6
Family_2 [H]C([H])=C([H])[H] | RMSD: 0.6878 | 10568.00 to state    1 from traj    1 on state    2
C     -1.493482     0.207757    -0.033406
H     -1.997299    -0.180157     0.993411
H     -2.442416     0.768751    -0.337135
C     -1.018706     1.379054    -0.002097
H     -1.353995     2.011892     0.535440
H     -0.003574     1.246399    -0.771949
6
Family_2 [H]C([H])=C([H])[H] | RMSD: 0.6368 | 10692.00 to state    1 from traj    1 on state    2
C     -1.535321     0.141557    -0.025077
H     -1.824290    -0.338851     0.778501
H     -2.404943     0.840548    -0.367374
C     -0.982604     1.392849    -0.012545
H     -1.149007     2.462270     0.618896
H     -0.350696     1.507370    -0.585013
6
Family_2 [H]C([H])=C([H])[H] | RMSD: 0.7464 | 6036.00 to state    1 from traj    1 on state    2
C     -1.616343     0.158486     0.035486
H     -1.595314    -0.438728     0.915361
H     -2.030406    -0.182844    -0.901600
C     -1.035283     1.523124    -0.124054
H     -0.469033     2.456097     0.914968
H     -0.041034     0.882781     0.123330
6
Family_2 [H]C([H])=C([H])[H] | RMSD: 0.5882 | 2416.00 to state    1 from traj    1 on state    2
C     -1.570848     0.028165    -0.053355
H     -2.108085    -0.190483     0.997259
H     -2.433342     0.894401    -0.192579
C     -0.960565     1.494192    -0.043738
H     -1.102238     2.219922     0.818553
H      0.075450     1.691070    -0.469577
6
Family_2 [H]C([H])=C([H])[H] | RMSD: 0.4067 | 1032.00 to state    1 from traj    1 on state    2
C     -1.582366     0.104207    -0.089350
H     -1.732505     0.232340     1.070218
H     -2.736678     0.476451    -0.083105
C     -0.934222     1.425073    -0.020645
H     -1.428784     2.163606     0.701534
H      0.153113     1.660016    -0.381264
6
Family_2 [H]C([H])=C([H])[H] | RMSD: 0.6902 | 1376.00 to state    1 from traj    1 on state    2
C     -1.737432     0.057103    -0.104160
H     -0.985987    -0.089725     0.526158
H     -2.516872     0.187220     0.569009
C     -0.796593     1.537708    -0.048734
H     -1.732838     1.833271    -0.161310
H     -0.301382     1.820803     0.884701
6
Family_2 [H]C([H])=C([H])[H] | RMSD: 0.4281 | 2736.00 to state    1 from traj    1 on state    2
C     -1.557341     0.164528    -0.079441
H     -1.705902     0.121689     0.982521
H     -2.769163     0.475133    -0.143324
C     -0.954534     1.340116    -0.018279
H     -1.388100     2.403041     0.749504
H      0.062152     1.826105    -0.427591
6
Family_2 [H]C([H])=C([H])[H] | RMSD: 0.5181 | 3020.00 to state    1 from traj    1 on state    2
C     -1.614592     0.179384    -0.100101
H     -1.293361     0.404400     1.278407
H     -2.571419     0.107785    -0.317949
C     -0.924588     1.392633     0.032337
H     -1.465905     2.035127     0.368844
H     -0.144977     1.475867    -0.525126
6
Family_2 [H]C([H])=C([H])[H] | RMSD: 0.4608 | 1220.00 to state    1 from traj    1 on state    2
C     -1.611331     0.204709    -0.122614
H     -1.504213     0.334130     1.098404
H     -2.658883    -0.131290     0.026569
C     -0.927687     1.362719     0.047185
H     -1.466491     2.222779     0.155094
H      0.151994     1.652246    -0.384563
6
Family_2 [H]C([H])=C([H])[H] | RMSD: 0.5541 | 2672.00 to state    1 from traj    1 on state    2
C     -1.685750     0.202899    -0.057811
H     -1.007088     0.300459     1.029543
H     -2.295909    -0.367885    -0.676180
C     -0.938988     1.368960    -0.000147
H     -1.226401     2.432342     0.541158
H      0.073217     1.660151    -0.207195
6
Family_2 [H]C([H])=C([H])[H] | RMSD: 0.6427 | 536.00 to state    1 from traj    1 on state    2
C     -1.626704     0.033917    -0.109660
H     -1.621430    -0.507408     0.735360
H     -2.086473     0.787214     0.569178
C     -0.958537     1.528815    -0.049313
H     -1.159061     2.542109    -0.078824
H     -0.059840     1.311897     0.665277
6
Family_2 [H]C([H])=C([H])[H] | RMSD: 0.5267 | 1196.00 to state    1 from traj    1 on state    2
C     -1.654701    -0.032507    -0.123492
H     -1.471943    -0.348055     0.908878
H     -2.363880     0.670562     0.569162
C     -0.899573     1.597057    -0.077306
H     -1.165917     2.556506     0.146388
H     -0.294061     1.233132     0.764931
6
Family_2 [H]C([H])=C([H])[H] | RMSD: 0.6958 | 1820.00 to state    1 from traj    1 on state    2
C     -1.708243     0.294865    -0.056983
H     -1.079794     0.162568     1.022505
H     -1.931610    -0.749516    -0.481621
C     -0.923107     1.352659    -0.007776
H     -1.583486     2.255759     0.327672
H      0.217493     1.454650    -0.100190
6
Family_2 [H]C([H])=C([H])[H] | RMSD: 0.3810 | 2112.00 to state    1 from traj    1 on state    2
C     -1.643946     0.168678    -0.105238
H     -1.343713     0.514985     1.193042
H     -2.467540    -0.189884    -0.107915
C     -0.941448     1.413207    -0.051826
H     -1.354103     2.116593     0.673296
H      0.240366     1.463893     0.109814
6
Family_2 [H]C([H])=C([H])[H] | RMSD: 0.6783 | 2992.00 to state    1 from traj    1 on state    2
C     -1.669703     0.297620    -0.030128
H     -0.948054     0.287119     0.930493
H     -2.058441    -0.444750    -0.698292
C     -0.963580     1.342890    -0.015654
H     -1.532842     2.049506     0.438723
H      0.184977     1.315160    -0.128683
6
Family_2 [H]C([H])=C([H])[H] | RMSD: 0.6620 | 1260.00 to state    1 from traj    1 on state    2
C     -1.729749     0.096725    -0.132179
H     -0.871367     0.168285     0.532342
H     -2.552030    -0.084610     0.628276
C     -0.801141     1.466086    -0.030031
H     -1.692724     2.316435    -0.074435
H     -0.458326     1.732762     0.843383
6
Family_2 [H]C([H])=C([H])[H] | RMSD: 0.6442 | 1344.00 to state    1 from traj    1 on state    2
C     -1.726198     0.091417    -0.134497
H     -0.877107     0.226735     0.584143
H     -2.496675    -0.054002     0.588664
C     -0.824769     1.473174    -0.030283
H     -1.524887     2.206674    -0.097628
H     -0.436535     1.732248     0.884999
6
Family_2 [H]C([H])=C([H])[H] | RMSD: 0.5498 | 2448.00 to state    1 from traj    1 on state    2
C     -1.602947     0.092571    -0.062736
H     -1.324778     0.408378     0.973462
H     -2.552280     0.546965    -0.666599
C     -0.997969     1.401815     0.035588
H     -0.988720     2.278312     0.568355
H      0.125735     1.714543    -0.555014
6
Family_2 [H]C([H])=C([H])[H] | RMSD: 0.5570 | 3012.00 to state    1 from traj    1 on state    2
C     -1.646984     0.187743     0.015973
H     -1.234091    -0.445111     0.912334
H     -2.577919    -0.073560    -0.781420
C     -0.981963     1.430132    -0.128733
H     -0.748072     2.072329     0.798938
H      0.154053     1.923090     0.410482
6
Family_2 [H]C([H])=C([H])[H] | RMSD: 0.3949 | 992.00 to state    1 from traj    1 on state    2
C     -1.576795     0.150278    -0.092782
H     -1.629826     0.202480     1.125541
H     -2.678011     0.396395    -0.113575
C     -0.937901     1.379877    -0.014895
H     -1.427733     2.277246     0.667560
H     -0.031829     1.645871    -0.399768
6
Family_2 [H]C([H])=C([H])[H] | RMSD: 0.5482 | 1392.00 to state    1 from traj    1 on state    2
C     -1.667479     0.166373    -0.115949
H     -1.295989     0.447158     1.174704
H     -2.629187    -0.483604    -0.208440
C     -0.884793     1.423921     0.053062
H     -1.539470     2.435436     0.258789
H      0.144979     1.406404    -0.478986
6
Family_2 [H]C([H])=C([H])[H] | RMSD: 0.8018 | 2424.00 to state    1 from traj    1 on state    2
C     -1.501172     0.091711    -0.016864
H     -2.495960    -0.320321     0.613630
H     -2.586187     0.623314    -0.192622
C     -0.977687     1.475598    -0.007694
H     -0.691945     2.282721     0.672651
H     -0.420339     1.493557    -0.804318
6
Family_2 [H]C([H])=C([H])[H] | RMSD: 0.6163 | 552.00 to state    1 from traj    1 on state    2
C     -1.639066     0.089387    -0.159727
H     -1.812957    -0.164174     1.061182
H     -2.798903     0.077070     0.646980
C     -0.853373     1.501447     0.064202
H     -1.613682     2.166693    -0.397759
H      0.192928     1.719371    -0.175436
6
Family_2 [H]C([H])=C([H])[H] | RMSD: 0.4929 | 3512.00 to state    1 from traj    1 on state    2
C     -1.610459     0.121316    -0.079138
H     -1.285212     0.307970     1.168706
H     -2.609195     0.257448    -0.520224
C     -0.938947     1.399472     0.007998
H     -1.278952     2.639135     0.736462
H     -0.180453     1.429048    -0.540550
6
Family_2 [H]C([H])=C([H])[H] | RMSD: 0.4005 | 3160.00 to state    1 from traj    1 on state    2
C     -1.665015     0.137296    -0.092137
H     -1.249487     0.508559     1.016617
H     -2.758518    -0.277532    -0.187277
C     -0.882221     1.439327    -0.021182
H     -1.391695     2.092203     0.583786
H      0.020026     1.645064    -0.066133
6
Family_2 [H]C([H])=C([H])[H] | RMSD: 0.4755 | 4544.00 to state    1 from traj    1 on state    2
C     -1.604158     0.154812    -0.099137
H     -1.457111     0.399617     1.182217
H     -2.775661    -0.149117    -0.333305
C     -0.957868     1.428226     0.043519
H     -1.082860     2.239543     0.297669
H      0.112192     1.401809    -0.487137
6
Family_2 [H]C([H])=C([H])[H] | RMSD: 0.3850 | 1536.00 to state    1 from traj    1 on state    2
C     -1.598364     0.084915    -0.101325
H     -1.587335     0.281948     1.168559
H     -2.779842     0.075853    -0.154787
C     -0.923867     1.474716    -0.008449
H     -1.167393     2.602976     0.651945
H     -0.143057     1.209981    -0.360967
6
Family_2 [H]C([H])=C([H])[H] | RMSD: 0.5696 | 1704.00 to state    1 from traj    1 on state    2
C     -1.618501     0.077210    -0.072805
H     -1.459772     0.571404     1.072614
H     -2.591611    -0.080231    -0.533396
C     -0.965583     1.519949     0.024782
H     -0.983075     2.277702     0.542076
H      0.093855     0.954720    -0.512345
6
Family_2 [H]C([H])=C([H])[H] | RMSD: 0.4790 | 2104.00 to state    1 from traj    1 on state    2
C     -1.660297     0.245498    -0.071090
H     -1.065043     0.277114     1.137208
H     -2.389338    -0.398749    -0.496556
C     -0.954795     1.332611    -0.039199
H     -1.145584     2.315180     0.617634
H      0.028846     1.757031     0.052600
6
Family_2 [H]C([H])=C([H])[H] | RMSD: 0.7892 | 2032.00 to state    1 from traj    1 on state    2
C     -1.650115     0.231685     0.007306
H     -1.205124    -0.183001     1.211260
H     -1.896485    -0.522405    -0.892803
C     -1.016769     1.497417    -0.118793
H     -0.834190     2.242990     0.766715
H     -0.018187     0.613816     0.239989
6
Family_2 [H]C([H])=C([H])[H] | RMSD: 0.7065 | 4972.00 to state    1 from traj    1 on state    2
C     -1.569627     0.127254    -0.086752
H     -2.099428     0.120328     0.893804
H     -2.768764     0.506544     0.189062
C     -0.851898     1.411125     0.014293
H     -1.688911     1.832033     0.563889
H     -0.320500     1.965098    -0.786636
6
Family_2 [H]C([H])=C([H])[H] | RMSD: 0.6746 | 6056.00 to state    1 from traj    1 on state    2
C     -1.521958     0.108814    -0.034874
H     -2.169694    -0.237177     0.761516
H     -2.587008     0.671784    -0.299965
C     -0.995018     1.442226     0.023018
H     -0.980622     2.346793     0.487605
H     -0.002913     1.491732    -0.811161
6
Family_2 [H]C([H])=C([H])[H] | RMSD: 0.7316 | 932.00 to state    1 from traj    1 on state    2
C     -1.615972     0.040534    -0.069888
H     -1.939094    -0.079171     1.026153
H     -2.486430     0.914856    -0.049582
C     -0.846251     1.440786    -0.042854
H     -1.438889     1.918733     0.912933
H     -0.528232     2.349472    -0.549384
6
Family_2 [H]C([H])=C([H])[H] | RMSD: 0.5891 | 2452.00 to state    1 from traj    1 on state    2
C     -1.595396     0.087542    -0.083722
H     -1.574316     0.291828     1.064003
H     -2.669561     0.742914    -0.288495
C     -0.911829     1.395920     0.020592
H     -1.645757     2.212185     0.710235
H      0.033209     1.831433    -0.736791
6
Family_2 [H]C([H])=C([H])[H] | RMSD: 0.4854 | 984.00 to state    1 from traj    1 on state    2
C     -1.663539     0.121592    -0.132700
H     -1.403818     0.286143     0.944662
H     -2.505873     0.231385     0.508282
C     -0.859300     1.435353    -0.046378
H     -1.758500     1.833743     0.301022
H     -0.002176     1.851498     0.376582
6
Family_2 [H]C([H])=C([H])[H] | RMSD: 0.2715 | 1844.00 to state    1 from traj    1 on state    2
C     -1.692349     0.000725    -0.116243
H     -1.442974     0.241049     1.065463
H     -2.824671     0.188685     0.068939
C     -0.855163     1.503184    -0.049678
H     -1.315609     2.286557     0.678250
H      0.206869     2.118445     0.161139
6
Family_2 [H]C([H])=C([H])[H] | RMSD: 0.7449 | 996.00 to state    1 from traj    1 on state    2
C     -1.601589     0.116695    -0.139451
H     -1.383587    -0.376630     0.792910
H     -2.183754     0.600724     0.828473
C     -0.970719     1.455635    -0.075824
H     -1.009545     2.537068    -0.157885
H     -0.504031     1.258283     1.098367
6
Family_2 [H]C([H])=C([H])[H] | RMSD: 0.7385 | 1232.00 to state    1 from traj    1 on state    2
C     -1.725081     0.211559    -0.118776
H     -1.494031     0.280348     1.047816
H     -1.507743    -0.817774     0.088298
C     -0.947973     1.417861    -0.020221
H     -1.143118     2.517513     0.234501
H      0.264421     1.359092     0.282351
6
Family_2 [H]C([H])=C([H])[H] | RMSD: 0.6830 | 1540.00 to state    1 from traj    1 on state    2
C     -1.616803     0.137394     0.023012
H     -1.274040    -0.260315     0.930032
H     -2.208617     0.098070    -0.841440
C     -0.986083     1.549169    -0.090411
H     -1.018080     2.253279     0.728055
H     -0.215821     0.567244    -0.016823
6
Family_2 [H]C([H])=C([H])[H] | RMSD: 0.7306 | 2684.00 to state    1 from traj    1 on state    2
C     -1.722329     0.256449    -0.022529
H     -0.922104     0.061032     0.791464
H     -2.172768    -0.660151    -0.878967
C     -0.950751     1.323296     0.002563
H     -1.028094     2.420585     0.402765
H      0.242817     2.109618    -0.080627
6
Family_2 [H]C([H])=C([H])[H] | RMSD: 0.6982 | 920.00 to state    1 from traj    1 on state    2
C     -1.560645     0.035607    -0.057685
H     -1.798471     0.674655     1.034795
H     -2.495047     0.444389    -0.627444
C     -1.035856     1.508487     0.002212
H     -0.486389     2.051036     0.853181
H     -0.012742     1.185824    -0.602826
6
Family_2 [H]C([H])=C([H])[H] | RMSD: 0.3129 | 588.00 to state    1 from traj    1 on state    2
C     -1.736814    -0.056625    -0.126555
H     -1.351663     0.049340     1.134671
H     -2.757811     0.223382     0.281575
C     -0.791654     1.616148    -0.051699
H     -1.718788     2.126944     0.396175
H      0.224963     1.772386     0.308314
6
Family_2 [H]C([H])=C([H])[H] | RMSD: 0.3657 | 9796.00 to state    1 from traj    1 on state    2
C     -1.581962     0.182024    -0.116725
H     -1.584053     0.190501     1.316377
H     -2.710297     0.065148    -0.044538
C     -0.942825     1.378129    -0.005744
H     -1.401439     2.457995     0.525212
H      0.048624     1.450907    -0.341028
6
Family_2 [H]C([H])=C([H])[H] | RMSD: 0.4144 | 1056.00 to state    1 from traj    1 on state    2
C     -1.676241     0.060586    -0.124963
H     -1.270083     0.295614     0.910882
H     -2.803356     0.253957     0.455769
C     -0.838574     1.486804    -0.079472
H     -1.753879     1.972705     0.500687
H      0.061329     1.794356     0.565363
6
Family_2 [H]C([H])=C([H])[H] | RMSD: 0.5669 | 1564.00 to state    1 from traj    1 on state    2
C     -1.653695     0.239705    -0.061943
H     -1.108108     0.326931     1.086347
H     -2.426969    -0.524473    -0.600824
C     -0.950554     1.371574     0.001661
H     -1.308716     2.420658     0.499298
H      0.143475     1.332221    -0.269800
6
Family_2 [H]C([H])=C([H])[H] | RMSD: 0.6079 | 7216.00 to state    1 from traj    1 on state    2
C     -1.653813     0.125545    -0.161101
H     -1.425746     0.337229     1.211353
H     -2.489743    -0.052011     0.251002
C     -0.875147     1.460532     0.101437
H     -1.670961     2.227999    -0.280491
H     -0.010986     1.342430    -0.474203
6
Family_2 [H]C([H])=C([H])[H] | RMSD: 0.6109 | 2304.00 to state    1 from traj    1 on state    2
C     -1.562589     0.068482    -0.038524
H     -2.021549    -0.256689     0.983859
H     -2.375000     0.898476    -0.241971
C     -0.948924     1.472602    -0.055142
H     -1.291189     2.214754     0.874662
H     -0.117599     1.535216    -0.503738
6
Family_2 [H]C([H])=C([H])[H] | RMSD: 0.4612 | 13060.00 to state    1 from traj    1 on state    2
C     -1.652282     0.179094    -0.121422
H     -1.210182     0.358704     1.286285
H     -2.704488    -0.163623    -0.233389
C     -0.898610     1.356083     0.032037
H     -1.335661     2.313024     0.356951
H     -0.085769     1.954043    -0.348053
6
Family_2 [H]C([H])=C([H])[H] | RMSD: 0.6710 | 1004.00 to state    1 from traj    1 on state    2
C     -1.602050     0.106197    -0.060902
H     -1.583410    -0.386389     1.140563
H     -2.176007     1.112112    -0.275807
C     -0.939658     1.401710    -0.016620
H     -1.588743     2.178573     0.503780
H     -0.097375     1.882788    -0.448092
6
Family_2 [H]C([H])=C([H])[H] | RMSD: 0.7757 | 1604.00 to state    1 from traj    1 on state    2
C     -1.736291     0.262306    -0.111454
H     -1.530313     0.054928     0.998307
H     -1.531050    -0.902306     0.198227
C     -0.896834     1.387085    -0.014904
H     -1.484988     2.361980     0.105071
H      0.190109     1.586619     0.200755
6
Family_2 [H]C([H])=C([H])[H] | RMSD: 0.7706 | 1112.00 to state    1 from traj    1 on state    2
C     -1.574569     0.078506    -0.077285
H     -2.031881    -0.141112     0.967863
H     -2.485009     0.862494     0.008782
C     -0.862301     1.406816     0.000316
H     -1.353388     2.260426     0.735397
H     -0.824475     2.074398    -0.798183
6
Family_2 [H]C([H])=C([H])[H] | RMSD: 0.6887 | 4500.00 to state    1 from traj    1 on state    2
C     -1.652089     0.130035     0.011113
H     -1.418080     0.006457     1.051928
H     -2.281356    -0.429120    -0.784879
C     -0.948454     1.587417    -0.119143
H     -0.835073     1.997246     0.939885
H     -0.209977     0.715638     0.077027
6
Family_2 [H]C([H])=C([H])[H] | RMSD: 0.4552 | 5028.00 to state    1 from traj    1 on state    2
C     -1.555079     0.161400    -0.079960
H     -1.812123     0.003704     1.058019
H     -2.682357     0.512813    -0.115440
C     -0.951241     1.349553    -0.024474
H     -1.358745     2.405547     0.760888
H     -0.013980     1.828727    -0.462351
6
Family_2 [H]C([H])=C([H])[H] | RMSD: 0.7136 | 1376.00 to state    1 from traj    1 on state    2
C     -1.703704     0.208219     0.003023
H     -0.777991     0.288465     0.648734
H     -2.036249    -0.262766    -0.988577
C     -0.959453     1.381215    -0.019178
H     -1.346162     2.362013     0.640320
H      0.162009     1.427928    -0.111261
6
Family_2 [H]C([H])=C([H])[H] | RMSD: 0.8245 | 1128.00 to state    1 from traj    1 on state    2
C     -1.526158     0.108444    -0.036334
H     -1.955025     0.535540     0.876761
H     -2.392263     0.171378    -0.589086
C     -1.067746     1.503983     0.005980
H     -0.127724     1.883407     0.617289
H     -0.348565     0.951341    -0.546561
6
Family_2 [H]C([H])=C([H])[H] | RMSD: 0.4099 | 2636.00 to state    1 from traj    1 on state    2
C     -1.638985     0.107518    -0.078564
H     -1.335141     0.528076     1.118102
H     -2.572500     0.138407    -0.422191
C     -0.960582     1.428515    -0.043327
H     -1.221670     2.136154     0.853345
H      0.373197     1.649311    -0.100125
6
Family_2 [H]C([H])=C([H])[H] | RMSD: 0.5823 | 3156.00 to state    1 from traj    1 on state    2
C     -1.660263     0.267201    -0.087352
H     -1.192120     0.269155     1.125164
H     -2.455306    -0.537530    -0.381520
C     -0.921494     1.331515     0.033918
H     -1.575011     2.349554     0.278395
H      0.254114     1.623863    -0.388621
6
Family_2 [H]C([H])=C([H])[H] | RMSD: 0.6448 | 4836.00 to state    1 from traj    1 on state    2
C     -1.519355     0.048826    -0.045868
H     -2.127899    -0.372496     0.858125
H     -2.712019     0.740978    -0.264644
C     -1.012602     1.493002    -0.002094
H     -0.575980     2.595403     0.500551
H     -0.145823     1.419008    -0.525817
6
Family_2 [H]C([H])=C([H])[H] | RMSD: 0.6398 | 8520.00 to state    1 from traj    1 on state    2
C     -1.599508     0.110758    -0.109280
H     -1.399827     0.414436     1.080792
H     -2.557105     0.745412    -0.151455
C     -0.892172     1.364618     0.052293
H     -1.591940     2.158988     0.473667
H     -0.492780     1.855884    -0.727260
6
Family_2 [H]C([H])=C([H])[H] | RMSD: 0.7717 | 2028.00 to state    1 from traj    1 on state    2
C     -1.590350     0.107031    -0.012104
H     -1.774917     0.172368     1.149897
H     -2.390187    -0.248033    -0.758166
C     -1.020179     1.597787    -0.057978
H     -0.322445     1.790789     0.688061
H     -0.137940     0.725631    -0.248001
6
Family_2 [H]C([H])=C([H])[H] | RMSD: 0.6971 | 2164.00 to state    1 from traj    1 on state    2
C     -1.599199     0.137562    -0.005190
H     -1.572924    -0.017736     1.143898
H     -2.241603    -0.198873    -0.792237
C     -1.027455     1.545228    -0.094545
H     -0.502311     2.239576     0.864351
H     -0.116516     0.680268    -0.030885
6
Family_2 [H]C([H])=C([H])[H] | RMSD: 0.5512 | 3484.00 to state    1 from traj    1 on state    2
C     -1.608055     0.227038    -0.074161
H     -1.164531     0.265047     1.060253
H     -2.627854     0.025452    -0.567993
C     -0.953647     1.307344     0.051498
H     -1.402600     2.508941     0.405691
H     -0.012315     1.672174    -0.631191
6
Family_2 [H]C([H])=C([H])[H] | RMSD: 0.6282 | 1524.00 to state    1 from traj    1 on state    2
C     -1.550052     0.095442    -0.076575
H     -2.279814    -0.178445     1.135541
H     -2.918182     0.355723     0.008999
C     -0.887730     1.471428    -0.013600
H     -1.288722     2.211676     0.713035
H     -0.197179     1.695557    -0.786355
6
Family_2 [H]C([H])=C([H])[H] | RMSD: 0.4297 | 948.00 to state    1 from traj    1 on state    2
C     -1.613047     0.048084    -0.073871
H     -1.419962     0.464932     1.047912
H     -2.721131     0.287925    -0.509362
C     -0.970819     1.477347    -0.006712
H     -0.819327     2.309603     0.726938
H      0.017224     1.515822    -0.308568
6
Family_2 [H]C([H])=C([H])[H] | RMSD: 0.5787 | 3352.00 to state    1 from traj    1 on state    2
C     -1.665956     0.145025    -0.177433
H     -1.379074     0.294572     0.919775
H     -2.577393    -0.027526     0.708916
C     -0.868642     1.403641     0.044020
H     -1.712482     2.197311    -0.268681
H      0.138696     1.837064     0.226414
6
Family_2 [H]C([H])=C([H])[H] | RMSD: 0.6737 | 3396.00 to state    1 from traj    1 on state    2
C     -1.588915     0.125878    -0.039668
H     -1.730471    -0.298901     0.918861
H     -2.285821     0.952046    -0.365180
C     -0.947775     1.376074    -0.008879
H     -1.377062     2.113876     0.589732
H     -0.111968     2.091033    -0.568227
6
Family_2 [H]C([H])=C([H])[H] | RMSD: 0.7776 | 2188.00 to state    1 from traj    1 on state    2
C     -1.561353     0.058099    -0.031120
H     -2.255741    -0.272926     0.720934
H     -2.490425     0.815998    -0.232432
C     -0.909135     1.462453     0.012432
H     -1.226381     2.248113     0.694031
H     -0.321624     1.845228    -0.963137
6
Family_2 [H]C([H])=C([H])[H] | RMSD: 0.3538 | 7784.00 to state    1 from traj    1 on state    2
C     -1.646424     0.064377    -0.076558
H     -1.368782     0.513259     0.933289
H     -2.636568    -0.087720    -0.284766
C     -0.938215     1.488917    -0.065658
H     -1.018670     2.492679     0.929983
H      0.090037     1.328048     0.112806
6
Family_2 [H]C([H])=C([H])[H] | RMSD: 0.3637 | 740.00 to state    1 from traj    1 on state    2
C     -1.712170    -0.054628    -0.111697
H     -1.539865     0.175900     1.054588
H     -2.821047     0.302905     0.148388
C     -0.791800     1.593914    -0.028267
H     -1.723975     2.058503     0.546866
H      0.189667     1.875878    -0.085363
6
Family_2 [H]C([H])=C([H])[H] | RMSD: 0.6842 | 1420.00 to state    1 from traj    1 on state    2
C     -1.533693     0.108993    -0.020271
H     -2.106621    -0.331519     0.790390
H     -2.529219     0.796159    -0.400950
C     -0.989019     1.435381     0.001614
H     -1.114431     2.270847     0.607978
H      0.078383     1.617075    -0.778382
6
Family_2 [H]C([H])=C([H])[H] | RMSD: 0.7153 | 2164.00 to state    1 from traj    1 on state    2
C     -1.676058     0.255944    -0.036232
H     -1.129677     0.239016     0.851939
H     -1.764707    -0.531813    -0.735441
C     -1.021073     1.357067    -0.002442
H     -0.869569     2.460296     0.392577
H      0.170383     1.367210    -0.051524
6
Family_2 [H]C([H])=C([H])[H] | RMSD: 0.6544 | 2816.00 to state    1 from traj    1 on state    2
C     -1.524641     0.076946    -0.052533
H     -2.312796    -0.245575     0.827558
H     -2.568244     0.494525    -0.133804
C     -0.996045     1.482877    -0.002751
H     -0.629689     2.511990     0.553967
H     -0.185298     1.407534    -0.592255
6
Family_2 [H]C([H])=C([H])[H] | RMSD: 0.5940 | 3832.00 to state    1 from traj    1 on state    2
C     -1.569439     0.106475    -0.049248
H     -1.714108    -0.247864     1.027814
H     -2.507851     1.001910    -0.268916
C     -0.935661     1.389638    -0.052171
H     -1.409506     2.248335     0.860757
H     -0.250282     1.925233    -0.414464
6
Family_2 [H]C([H])=C([H])[H] | RMSD: 0.4690 | 1544.00 to state    1 from traj    1 on state    2
C     -1.564866     0.160369    -0.100628
H     -1.677927     0.199442     0.982461
H     -2.719377     0.357246    -0.061659
C     -0.938378     1.353195     0.035920
H     -1.336149     2.461234     0.442333
H     -0.170409     1.701767    -0.595382
6
Family_2 [H]C([H])=C([H])[H] | RMSD: 0.6712 | 3060.00 to state    1 from traj    1 on state    2
C     -1.612743     0.103018    -0.103776
H     -1.732904     0.108145     1.029511
H     -2.470871     0.788320     0.088579
C     -0.863340     1.352582    -0.010009
H     -1.512383     2.086650     0.708661
H     -0.511346     2.427251    -0.474206
6
Family_2 [H]C([H])=C([H])[H] | RMSD: 0.4530 | 5340.00 to state    1 from traj    1 on state    2
C     -1.656163     0.165259    -0.117488
H     -1.431347     0.300505     1.072222
H     -2.725332    -0.444613    -0.107149
C     -0.907572     1.378926     0.023620
H     -1.330405     2.722971     0.417593
H      0.304009     1.775949    -0.267449
6
Family_2 [H]C([H])=C([H])[H] | RMSD: 0.7122 | 1888.00 to state    1 from traj    1 on state    2
C     -1.577100     0.101338    -0.062226
H     -1.580408    -0.438889     0.990513
H     -2.228390     1.008588    -0.390068
C     -0.989338     1.411665     0.062463
H     -1.136014     2.522604     0.062229
H     -0.206049     1.634061    -0.668778
6
Family_2 [H]C([H])=C([H])[H] | RMSD: 0.5412 | 2428.00 to state    1 from traj    1 on state    2
C     -1.602639     0.199702     0.002908
H     -1.401954    -0.240693     1.025194
H     -2.541975    -0.141159    -0.760694
C     -1.019239     1.440643    -0.113317
H     -0.541250     2.099444     0.813563
H     -0.005078     1.491410     0.234249
6
Family_2 [H]C([H])=C([H])[H] | RMSD: 0.8623 | 600.00 to state    1 from traj    1 on state    2
C     -1.544330     0.124625    -0.023425
H     -1.803742     0.070510     1.089569
H     -2.274296     0.029393    -0.800452
C     -1.083624     1.541166     0.014112
H     -0.063791     2.138638     0.343382
H     -0.276031     0.667251    -0.524807
6
Family_2 [H]C([H])=C([H])[H] | RMSD: 0.7011 | 6388.00 to state    1 from traj    1 on state    2
C     -1.676539     0.247075    -0.045080
H     -1.064893     0.374023     0.907960
H     -2.050865    -0.694235    -0.691120
C     -0.965563     1.382355     0.004890
H     -1.124207     2.511371     0.464332
H     -0.009303     1.147897    -0.205570
6
Family_2 [H]C([H])=C([H])[H] | RMSD: 0.4029 | 7480.00 to state    1 from traj    1 on state    2
C     -1.621975     0.214830    -0.101351
H     -1.384637     0.325585     1.160909
H     -2.616871     0.068684    -0.058948
C     -0.934307     1.323764    -0.051949
H     -1.565924     2.037834     0.693348
H      0.295562     1.989336     0.028083
6
Family_2 [H]C([H])=C([H])[H] | RMSD: 0.5946 | 2860.00 to state    1 from traj    1 on state    2
C     -1.564703     0.159206    -0.085106
H     -1.377555     0.307139     1.103304
H     -2.564788     0.614305    -0.433272
C     -0.966295     1.343274     0.054819
H     -1.386921     2.415820     0.476135
H     -0.243893     1.514494    -0.788553
6
Family_2 [H]C([H])=C([H])[H] | RMSD: 0.5457 | 3032.00 to state    1 from traj    1 on state    2
C     -1.557295     0.109613    -0.091969
H     -1.619910     0.319613     0.996904
H     -2.523221     0.463836    -0.283264
C     -1.000948     1.426094     0.059722
H     -0.886706     2.397690     0.280215
H     -0.218678     1.274696    -0.612890
6
Family_2 [H]C([H])=C([H])[H] | RMSD: 0.5496 | 1864.00 to state    1 from traj    1 on state    2
C     -1.588369     0.071043    -0.067819
H     -1.520461     0.607334     0.997759
H     -2.642648     0.132680    -0.573097
C     -1.010441     1.476291     0.002394
H     -0.580358     2.326151     0.731736
H     -0.021659     1.251116    -0.380097
6
Family_2 [H]C([H])=C([H])[H] | RMSD: 0.7321 | 5028.00 to state    1 from traj    1 on state    2
C     -1.772585     0.229882    -0.056798
H     -1.050437     0.158503     0.945458
H     -1.635661    -0.689204    -0.352485
C     -0.880572     1.413152    -0.045054
H     -1.584762     2.007442     0.386242
H      0.153319     1.700211     0.231132
6
Family_2 [H]C([H])=C([H])[H] | RMSD: 0.5233 | 5660.00 to state    1 from traj    1 on state    2
C     -1.554422     0.100472    -0.055690
H     -1.851099    -0.033646     0.994686
H     -2.542169     0.920220    -0.198976
C     -0.980026     1.403482    -0.066414
H     -1.218215     2.090100     0.913036
H      0.079436     1.857515    -0.257080
6
Family_2 [H]C([H])=C([H])[H] | RMSD: 0.3049 | 584.00 to state    1 from traj    1 on state    2
C     -1.697259     0.039492    -0.105026
H     -1.319882     0.398602     1.011445
H     -2.662005     0.079065     0.049778
C     -0.846968     1.503261    -0.059974
H     -1.565319     2.104789     0.710903
H      0.131683     1.789420     0.190686
6
Family_2 [H]C([H])=C([H])[H] | RMSD: 0.5149 | 2060.00 to state    1 from traj    1 on state    2
C     -1.612932     0.149874    -0.115917
H     -1.418414     0.432381     1.040102
H     -2.943632    -0.059440    -0.108857
C     -0.893950     1.400830     0.072995
H     -1.508092     2.312860     0.202389
H      0.009624     1.591329    -0.625471
6
Family_2 [H]C([H])=C([H])[H] | RMSD: 0.4685 | 2812.00 to state    1 from traj    1 on state    2
C     -1.595561     0.145497    -0.085420
H     -1.309690     0.381557     1.131626
H     -2.996399     0.183494    -0.387499
C     -0.923848     1.398264     0.022492
H     -1.298065     2.119551     0.504259
H     -0.107092     1.675270    -0.501847
6
Family_2 [H]C([H])=C([H])[H] | RMSD: 0.4023 | 2964.00 to state    1 from traj    1 on state    2
C     -1.609150     0.174488    -0.106714
H     -1.576246     0.317570     1.068979
H     -2.660726     0.003395     0.043990
C     -0.926077     1.394089    -0.009924
H     -1.650543     2.237817     0.495860
H      0.364759     1.505374    -0.222291
6
Family_2 [H]C([H])=C([H])[H] | RMSD: 0.6611 | 856.00 to state    1 from traj    1 on state    2
C     -1.589041     0.070516    -0.068235
H     -1.517182    -0.235500     0.952356
H     -2.116596     1.035492    -0.329750
C     -1.006347     1.454937     0.050319
H     -1.276336     2.469183     0.085038
H      0.104212     1.308848    -0.497447
6
Family_2 [H]C([H])=C([H])[H] | RMSD: 0.6712 | 2348.00 to state    1 from traj    1 on state    2
C     -1.574922     0.092441    -0.064633
H     -1.323907    -0.308239     1.155456
H     -2.528032     1.193163    -0.454126
C     -0.965705     1.411567     0.033173
H     -1.443529     2.308073     0.255876
H     -0.162954     1.640546    -0.585625
6
Family_2 [H]C([H])=C([H])[H] | RMSD: 0.2804 | 584.00 to state    1 from traj    1 on state    2
C     -1.737042    -0.078570    -0.112801
H     -1.472618     0.058089     1.064265
H     -2.656165     0.296895     0.176618
C     -0.809606     1.619818    -0.056746
H     -1.568078     2.154333     0.532965
H      0.310185     1.880480     0.243145
6
Family_2 [H]C([H])=C([H])[H] | RMSD: 0.3402 | 820.00 to state    1 from traj    1 on state    2
C     -1.718733    -0.117663    -0.073773
H     -1.459044     0.170373     0.877441
H     -2.708663     0.547824    -0.193312
C     -0.835442     1.607367    -0.062669
H     -1.204147     2.221906     0.875582
H      0.074865     2.063897     0.062804
6
Family_2 [H]C([H])=C([H])[H] | RMSD: 0.5093 | 2680.00 to state    1 from traj    1 on state    2
C     -1.646598    -0.011298    -0.068765
H     -1.466378     0.586536     0.873576
H     -2.572450     0.479552    -0.487060
C     -0.936927     1.500038    -0.000366
H     -0.877405     2.130343     0.799509
H     -0.031037     1.819045    -0.365571
6
Family_2 [H]C([H])=C([H])[H] | RMSD: 0.5201 | 2840.00 to state    1 from traj    1 on state    2
C     -1.610474     0.059638    -0.044336
H     -1.506414     0.660902     0.776249
H     -2.696811     0.268333    -0.538927
C     -0.971883     1.474280    -0.032169
H     -1.071852     2.095207     0.971679
H      0.313905     1.452705    -0.300683
6
Family_2 [H]C([H])=C([H])[H] | RMSD: 0.7052 | 592.00 to state    1 from traj    1 on state    2
C     -1.559673     0.156536    -0.002863
H     -1.755124    -0.571389     0.905489
H     -2.178425     0.900635    -0.593795
C     -0.999852     1.399838    -0.023368
H     -1.322379     2.353850     0.596121
H      0.022698     1.526466    -0.598525
6
Family_2 [H]C([H])=C([H])[H] | RMSD: 0.6503 | 1036.00 to state    1 from traj    1 on state    2
C     -1.618554     0.084750    -0.126951
H     -1.679012    -0.485128     0.943230
H     -2.053346     0.780653     0.696368
C     -0.938599     1.485632    -0.057592
H     -1.567874     2.422736    -0.005516
H      0.038737     1.324390     0.561597
6
Family_2 [H]C([H])=C([H])[H] | RMSD: 0.3246 | 1124.00 to state    1 from traj    1 on state    2
C     -1.622081     0.159939    -0.130730
H     -1.491847     0.351387     1.174404
H     -2.668578    -0.003403     0.254345
C     -0.907888     1.406857    -0.041310
H     -1.583680     2.178764     0.513068
H      0.158686     1.558634     0.104872
6
Family_2 [H]C([H])=C([H])[H] | RMSD: 0.4642 | 1528.00 to state    1 from traj    1 on state    2
C     -1.594088     0.152099    -0.076568
H     -1.285229     0.455275     1.264610
H     -2.605279     0.308438    -0.513034
C     -0.975136     1.395701    -0.023574
H     -1.276359     2.134628     0.781724
H      0.049200     1.413401    -0.343322
6
Family_2 [H]C([H])=C([H])[H] | RMSD: 0.7679 | 1564.00 to state    1 from traj    1 on state    2
C     -1.535108     0.118982     0.005718
H     -1.907648    -0.210417     0.807302
H     -2.426595     0.058003    -0.663440
C     -1.066851     1.561815    -0.034516
H     -0.328271     2.350910     0.497182
H     -0.065087     0.528497    -0.301183
6
Family_2 [H]C([H])=C([H])[H] | RMSD: 0.5818 | 5132.00 to state    1 from traj    1 on state    2
C     -1.527657     0.190167    -0.096701
H     -1.641518     0.177934     1.022744
H     -2.710134     0.503303    -0.240978
C     -0.994351     1.319970     0.080403
H     -1.154957     2.476530     0.229249
H     -0.173673     1.602748    -0.820102
6
Family_2 [H]C([H])=C([H])[H] | RMSD: 0.6252 | 2016.00 to state    1 from traj    1 on state    2
C     -1.585417     0.140443    -0.098522
H     -1.506750     0.207581     1.171760
H     -2.360928     0.780190    -0.208798
C     -0.928217     1.356331     0.038548
H     -1.639254     2.249473     0.488406
H     -0.273125     1.682501    -0.740018
6
Family_2 [H]C([H])=C([H])[H] | RMSD: 0.7031 | 3216.00 to state    1 from traj    1 on state    2
C     -1.573524     0.109646    -0.079017
H     -1.612037    -0.110956     1.021546
H     -2.375232     1.063324    -0.179653
C     -0.929439     1.394819     0.048296
H     -1.548958     2.134431     0.267815
H     -0.370988     1.741304    -0.746932
6
Family_2 [H]C([H])=C([H])[H] | RMSD: 0.7142 | 5984.00 to state    1 from traj    1 on state    2
C     -1.734080     0.173762    -0.043961
H     -0.870044     0.224189     0.989774
H     -1.748179    -0.404015    -0.823674
C     -0.970731     1.429302     0.000822
H     -1.130765     2.502016     0.379150
H      0.246934     1.331047    -0.034502
6
Family_2 [H]C([H])=C([H])[H] | RMSD: 0.2482 | 2412.00 to state    1 from traj    1 on state    2
C     -1.690748    -0.037810    -0.109960
H     -1.519463     0.290485     1.202315
H     -2.725088     0.005957    -0.147921
C     -0.871072     1.590837    -0.019796
H     -1.117088     2.433306     0.616815
H      0.155749     1.519715    -0.128352
6
Family_2 [H]C([H])=C([H])[H] | RMSD: 0.2515 | 2464.00 to state    1 from traj    1 on state    2
C     -1.696578    -0.032956    -0.119278
H     -1.530902     0.281803     1.123176
H     -2.757397    -0.090884    -0.019527
C     -0.853888     1.587862    -0.005103
H     -1.173389     2.503242     0.492171
H      0.120508     1.532908    -0.117020
6
Family_2 [H]C([H])=C([H])[H] | RMSD: 0.5750 | 6068.00 to state    1 from traj    1 on state    2
C     -1.667343     0.195876    -0.115487
H     -1.425682     0.416239     1.073347
H     -2.344320    -0.723262    -0.161914
C     -0.958698     1.410587     0.040062
H     -0.943199     2.424540     0.116613
H      0.272551     1.495219    -0.132586
6
Family_2 [H]C([H])=C([H])[H] | RMSD: 0.5561 | 1980.00 to state    1 from traj    1 on state    2
C     -1.551874     0.116332    -0.079372
H     -2.158395    -0.140645     1.180602
H     -2.591716     0.626786    -0.013600
C     -0.947283     1.408627    -0.054055
H     -1.175394     2.161189     0.862466
H     -0.027061     1.936580    -0.442874
6
Family_2 [H]C([H])=C([H])[H] | RMSD: 0.5373 | 2820.00 to state    1 from traj    1 on state    2
C     -1.616240     0.210977    -0.078051
H     -1.231678     0.426984     1.124420
H     -2.443705    -0.250249    -0.581681
C     -1.004042     1.369083     0.029294
H     -0.876141     2.326986     0.369018
H      0.042251     1.423622    -0.334056
6
Family_2 [H]C([H])=C([H])[H] | RMSD: 0.4439 | 3720.00 to state    1 from traj    1 on state    2
C     -1.592371     0.154719    -0.105367
H     -1.594382     0.276539     1.162476
H     -2.627998     0.424381    -0.044338
C     -0.926020     1.367591    -0.004402
H     -1.466834     2.031913     0.559766
H     -0.034162     1.882635    -0.373208
6
Family_2 [H]C([H])=C([H])[H] | RMSD: 0.5556 | 5020.00 to state    1 from traj    1 on state    2
C     -1.567748     0.160025    -0.096461
H     -1.525096     0.445775     1.233029
H     -2.687733    -0.152942    -0.235418
C     -0.970982     1.467019     0.004697
H     -1.083998     2.347906     0.475099
H     -0.184202     0.726759    -0.382556
6
Family_2 [H]C([H])=C([H])[H] | RMSD: 0.5223 | 1148.00 to state    1 from traj    1 on state    2
C     -1.611233     0.033958    -0.090860
H     -1.587430    -0.440436     0.972361
H     -2.185473     0.871197     0.308753
C     -0.954314     1.531781    -0.093520
H     -1.186309     2.433272     0.361270
H     -0.202271     1.233957     0.551351
6
Family_2 [H]C([H])=C([H])[H] | RMSD: 0.7145 | 1768.00 to state    1 from traj    1 on state    2
C     -1.544040     0.207673     0.020866
H     -1.536981    -0.470145     0.940655
H     -2.307739     0.192356    -0.824873
C     -1.058806     1.474681    -0.049966
H     -0.666103     2.272421     0.450676
H     -0.206216     0.713803    -0.222993
6
Family_2 [H]C([H])=C([H])[H] | RMSD: 0.7469 | 984.00 to state    1 from traj    1 on state    2
C     -1.553155     0.086140    -0.038472
H     -2.264573    -0.248419     0.809077
H     -2.596954     0.786354    -0.145720
C     -0.905406     1.425403    -0.023209
H     -1.213791     2.136345     0.859720
H     -0.360969     2.069488    -0.791386
6
Family_2 [H]C([H])=C([H])[H] | RMSD: 0.2504 | 1040.00 to state    1 from traj    1 on state    2
C     -1.669653     0.021160    -0.125464
H     -1.517713     0.304968     1.027764
H     -2.802668     0.058419     0.169725
C     -0.864881     1.522555    -0.011514
H     -1.431169     2.367682     0.441863
H      0.220535     1.629342    -0.010442
6
Family_2 [H]C([H])=C([H])[H] | RMSD: 0.5459 | 1796.00 to state    1 from traj    1 on state    2
C     -1.518086     0.204270    -0.066419
H     -1.742239    -0.037345     1.178518
H     -2.613704     0.664248    -0.328337
C     -1.001394     1.334630    -0.002425
H     -1.350138     2.261693     0.619788
H     -0.004313     1.529187    -0.652928
6
Family_2 [H]C([H])=C([H])[H] | RMSD: 0.5880 | 2256.00 to state    1 from traj    1 on state    2
C     -1.570568     0.057203    -0.063204
H     -1.982242    -0.229938     1.197797
H     -2.513725     0.976303    -0.174731
C     -0.949391     1.466799    -0.057277
H     -1.331220     2.048041     0.825346
H      0.122495     1.800899    -0.416079
6
Family_2 [H]C([H])=C([H])[H] | RMSD: 0.6618 | 2384.00 to state    1 from traj    1 on state    2
C     -1.578034     0.072829    -0.046951
H     -2.037321    -0.224163     0.956342
H     -2.546588     0.870031    -0.272619
C     -0.931595     1.422722    -0.024472
H     -1.378617     2.223999     0.842423
H      0.134745     2.064458    -0.678384
6
Family_2 [H]C([H])=C([H])[H] | RMSD: 0.5623 | 3064.00 to state    1 from traj    1 on state    2
C     -1.589848     0.044423    -0.108130
H     -1.863870     0.070414     1.314328
H     -2.667587     0.484196    -0.198984
C     -0.925075     1.488381     0.050108
H     -1.235553     2.450198     0.422935
H      0.002300     1.485617    -0.850188
6
Family_2 [H]C([H])=C([H])[H] | RMSD: 0.4177 | 2000.00 to state    1 from traj    1 on state    2
C     -1.595781     0.074458    -0.098702
H     -1.690111     0.222703     1.112360
H     -2.809662     0.416205    -0.160779
C     -0.928577     1.445939     0.018238
H     -1.244619     2.264527     0.521809
H      0.092116     1.734834    -0.517884
6
Family_2 [H]C([H])=C([H])[H] | RMSD: 0.5525 | 2896.00 to state    1 from traj    1 on state    2
C     -1.587312     0.071047    -0.086918
H     -2.172423    -0.063150     0.968905
H     -2.910343     0.248793     0.094596
C     -0.873831     1.477076     0.002096
H     -1.258556     2.210960     0.571568
H     -0.064202     1.911287    -0.627640
6
Family_2 [H]C([H])=C([H])[H] | RMSD: 0.4964 | 3604.00 to state    1 from traj    1 on state    2
C     -1.550139     0.163943    -0.066795
H     -1.613988     0.157568     0.997015
H     -2.571887     0.720693    -0.230802
C     -0.965862     1.354029    -0.021544
H     -1.465040     2.166927     0.737100
H     -0.100941     1.621968    -0.453973
6
Family_2 [H]C([H])=C([H])[H] | RMSD: 0.6562 | 5704.00 to state    1 from traj    1 on state    2
C     -1.617220     0.187092    -0.011343
H     -1.491679     0.188768     1.148317
H     -2.308607    -0.414003    -0.673094
C     -1.000092     1.503416    -0.129966
H     -0.616560     1.833624     0.990645
H     -0.127818     1.002882     0.214642
6
Family_2 [H]C([H])=C([H])[H] | RMSD: 0.6282 | 10440.00 to state    1 from traj    1 on state    2
C     -1.625607    -0.026002    -0.057473
H     -1.857786    -0.482298     0.919455
H     -2.236506     1.002217    -0.252069
C     -0.955051     1.541819     0.011058
H     -1.077761     2.437990     0.299121
H      0.190624     1.734922    -0.416724
6
Family_2 [H]C([H])=C([H])[H] | RMSD: 0.5378 | 14480.00 to state    1 from traj    1 on state    2
C     -1.588617     0.215825    -0.117748
H     -1.554395     0.362624     1.081124
H     -2.691328    -0.070706     0.062016
C     -0.929102     1.377851     0.053097
H     -1.675571     2.131591     0.120158
H      0.189914     1.341588    -0.496225
6
Family_2 [H]C([H])=C([H])[H] | RMSD: 0.5009 | 5512.00 to state    1 from traj    1 on state    2
C     -1.574800     0.039395    -0.064048
H     -1.609622     0.323486     0.903261
H     -2.734783     0.698531    -0.295388
C     -0.946676     1.496128    -0.003877
H     -1.375174     2.239229     0.704368
H      0.032964     1.196776    -0.506154
6
Family_2 [H]C([H])=C([H])[H] | RMSD: 0.5651 | 2672.00 to state    1 from traj    1 on state    2
C     -1.666587     0.195044    -0.064704
H     -0.973001     0.437048     1.053421
H     -2.243216    -0.092368    -0.672510
C     -0.960049     1.365798     0.018366
H     -1.281353     2.238585     0.459242
H      0.064017     1.573067    -0.291280
6
Family_2 [H]C([H])=C([H])[H] | RMSD: 0.3852 | 2860.00 to state    1 from traj    1 on state    2
C     -1.536722     0.169715    -0.086996
H     -1.873218     0.061641     1.020459
H     -2.887487     0.320895     0.072268
C     -0.942750     1.376914    -0.043072
H     -1.298553     2.345072     0.743783
H     -0.127863     1.598073    -0.289944
6
Family_2 [H]C([H])=C([H])[H] | RMSD: 0.3338 | 7160.00 to state    1 from traj    1 on state    2
C     -1.609216     0.188156    -0.107963
H     -1.225730     0.456630     1.307850
H     -2.671513     0.057886    -0.181598
C     -0.958972     1.350638    -0.067546
H     -1.162180     2.179252     0.806879
H     -0.070588     1.725279     0.154894
6
Family_2 [H]C([H])=C([H])[H] | RMSD: 0.7028 | 8316.00 to state    1 from traj    1 on state    2
C     -1.530024     0.250033     0.012735
H     -1.601959    -0.414983     0.887099
H     -2.471860    -0.074154    -0.703003
C     -1.031124     1.424660    -0.056686
H     -0.940456     2.696201     0.659497
H     -0.199619     0.592646    -0.323176
6
Family_2 [H]C([H])=C([H])[H] | RMSD: 0.4278 | 1704.00 to state    1 from traj    1 on state    2
C     -1.595295     0.206036    -0.106635
H     -1.527847     0.293671     1.113265
H     -2.698532     0.127911     0.015913
C     -0.918961     1.347674    -0.000747
H     -1.643021     2.080747     0.464958
H      0.096746     1.738993    -0.317878
6
Family_2 [H]C([H])=C([H])[H] | RMSD: 0.6649 | 1440.00 to state    1 from traj    1 on state    2
C     -1.610360     0.161683    -0.017979
H     -1.608392    -0.018096     0.991754
H     -2.371379    -0.534036    -0.473424
C     -0.973592     1.550692    -0.100957
H     -0.684203     2.301373     0.768343
H     -0.278195     0.601468     0.127244
6
Family_2 [H]C([H])=C([H])[H] | RMSD: 0.7563 | 2184.00 to state    1 from traj    1 on state    2
C     -1.762853     0.219119    -0.052130
H     -1.059704     0.072177     0.978392
H     -1.447611    -0.676019    -0.522695
C     -0.935049     1.388399    -0.060936
H     -1.277630     2.640583     0.620068
H      0.200563     1.563409     0.268211
6
Family_2 [H]C([H])=C([H])[H] | RMSD: 0.4382 | 1376.00 to state    1 from traj    1 on state    2
C     -1.655830     0.142980    -0.096237
H     -1.270987     0.501876     1.057204
H     -2.749451    -0.153752    -0.138406
C     -0.884968     1.443517    -0.009542
H     -1.603840     1.956120     0.481704
H      0.167895     1.546382    -0.143349
6
Family_2 [H]C([H])=C([H])[H] | RMSD: 0.3397 | 3716.00 to state    1 from traj    1 on state    2
C     -1.635128     0.103122    -0.087636
H     -1.423221     0.408409     0.993460
H     -2.663694     0.031878    -0.241924
C     -0.931797     1.444662    -0.011517
H     -1.313156     2.362824     0.631742
H      0.255013     1.508818    -0.205081
6
Family_2 [H]C([H])=C([H])[H] | RMSD: 0.6738 | 4992.00 to state    1 from traj    1 on state    2
C     -1.619857     0.189887     0.018973
H     -1.493444    -0.284629     0.984069
H     -1.990384    -0.185494    -0.747786
C     -1.014488     1.494079    -0.139652
H     -0.814322     2.342339     0.982113
H     -0.043552     0.817007     0.216295
6
Family_2 [H]C([H])=C([H])[H] | RMSD: 0.6868 | 904.00 to state    1 from traj    1 on state    2
C     -1.555151     0.133433    -0.065732
H     -1.637377    -0.157126     0.888649
H     -2.203372     0.944931    -0.292034
C     -1.000389     1.391986     0.066108
H     -1.281537     2.376914     0.108555
H     -0.158432     1.413709    -0.712927
6
Family_2 [H]C([H])=C([H])[H] | RMSD: 0.4845 | 1836.00 to state    1 from traj    1 on state    2
C     -1.539751     0.183815    -0.079970
H     -1.944582     0.046474     0.951027
H     -2.876624     0.280326    -0.009980
C     -0.944284     1.368129     0.001646
H     -1.354955     2.217077     0.541518
H      0.043406     1.718480    -0.552560
6
Family_2 [H]C([H])=C([H])[H] | RMSD: 0.5545 | 2552.00 to state    1 from traj    1 on state    2
C     -1.547194     0.157304    -0.078808
H     -1.474340     0.216247     1.246356
H     -2.468831     0.689432    -0.404510
C     -0.995846     1.384193     0.009330
H     -1.310758     2.240535     0.569738
H     -0.175731     1.240617    -0.586988
6
Family_2 [H]C([H])=C([H])[H] | RMSD: 0.5013 | 3820.00 to state    1 from traj    1 on state    2
C     -1.568623     0.142160    -0.060060
H     -1.585784     0.124290     0.916314
H     -2.418106     0.842938    -0.257815
C     -0.977740     1.344063    -0.044536
H     -1.402894     2.254166     0.868385
H      0.016711     1.824070    -0.283835
6
Family_2 [H]C([H])=C([H])[H] | RMSD: 0.3844 | 3984.00 to state    1 from traj    1 on state    2
C     -1.594456     0.056649    -0.098838
H     -1.750872     0.158552     1.130707
H     -2.811585     0.551754     0.019919
C     -0.915963     1.483189    -0.024676
H     -1.351245     2.010500     0.583176
H      0.095341     1.685803    -0.265330
6
Family_2 [H]C([H])=C([H])[H] | RMSD: 0.3530 | 608.00 to state    1 from traj    1 on state    2
C     -1.679462     0.081148    -0.108622
H     -1.234807     0.462167     0.956428
H     -2.858366    -0.059767     0.147628
C     -0.848198     1.484095    -0.062813
H     -1.577560     1.992057     0.609856
H      0.057805     1.709433     0.325570
6
Family_2 [H]C([H])=C([H])[H] | RMSD: 0.4429 | 2644.00 to state    1 from traj    1 on state    2
C     -1.575497     0.144764    -0.089455
H     -1.749626     0.122590     0.946692
H     -2.685638     0.360299    -0.110441
C     -0.948194     1.359311     0.012758
H     -1.339166     2.549103     0.591833
H      0.114213     1.800758    -0.517471
6
Family_2 [H]C([H])=C([H])[H] | RMSD: 0.6804 | 1160.00 to state    1 from traj    1 on state    2
C     -1.608220     0.059952    -0.120823
H     -1.352900    -0.401736     0.888125
H     -2.201393     0.799898     0.590848
C     -0.939095     1.513623    -0.069157
H     -1.240508     2.607486     0.021745
H     -0.583937     0.998960     0.759743
6
Family_2 [H]C([H])=C([H])[H] | RMSD: 0.3881 | 2552.00 to state    1 from traj    1 on state    2
C     -1.656350     0.122549    -0.080028
H     -1.282708     0.433177     0.872651
H     -2.694709     0.053793    -0.215072
C     -0.888593     1.409267    -0.019291
H     -1.461521     2.149883     0.659656
H      0.031945     1.865343    -0.137067
6
Family_2 [H]C([H])=C([H])[H] | RMSD: 0.4973 | 6032.00 to state    1 from traj    1 on state    2
C     -1.593830     0.053160    -0.089799
H     -1.562353     0.002204     1.287434
H     -2.310576     0.884084    -0.333570
C     -0.999860     1.458023    -0.005245
H     -1.153579     2.382377     0.524622
H      0.200362     1.479389    -0.349258
6
Family_2 [H]C([H])=C([H])[H] | RMSD: 0.4782 | 980.00 to state    1 from traj    1 on state    2
C     -1.544690     0.148649    -0.053888
H     -1.589677     0.203858     0.974128
H     -2.525653     0.657082    -0.442984
C     -1.028875     1.366619    -0.030370
H     -1.202625     2.420552     0.842823
H      0.252013     1.417887    -0.373255
6
Family_2 [H]C([H])=C([H])[H] | RMSD: 0.7090 | 2624.00 to state    1 from traj    1 on state    2
C     -1.557828     0.121267    -0.064389
H     -2.337623    -0.231656     0.962475
H     -2.690626     0.417847    -0.068055
C     -0.901367     1.393293    -0.007503
H     -1.383399     2.518381     0.862258
H     -0.017084     2.003241    -0.903323
6
Family_2 [H]C([H])=C([H])[H] | RMSD: 0.4123 | 1196.00 to state    1 from traj    1 on state    2
C     -1.673172     0.128917    -0.144640
H     -1.301222     0.390149     1.199557
H     -2.566014     0.000205     0.373652
C     -0.870936     1.438992    -0.054232
H     -1.652897     1.927505     0.399123
H      0.103193     1.754265     0.394083
6
Family_2 [H]C([H])=C([H])[H] | RMSD: 0.4383 | 1536.00 to state    1 from traj    1 on state    2
C     -1.600633     0.185537    -0.073739
H     -1.379680     0.370050     0.979984
H     -2.570259    -0.025534    -0.365416
C     -0.964750     1.385992     0.009019
H     -1.306161     2.367981     0.523906
H      0.092668     1.316494    -0.370571
6
Family_2 [H]C([H])=C([H])[H] | RMSD: 0.6543 | 5804.00 to state    1 from traj    1 on state    2
C     -1.672217     0.188212    -0.033542
H     -0.831033     0.244235     0.970063
H     -2.272635    -0.022605    -1.006596
C     -0.984618     1.351811     0.024605
H     -1.174687     2.532448     0.511902
H      0.204634     1.650322    -0.372155
6
Family_2 [H]C([H])=C([H])[H] | RMSD: 0.3935 | 6688.00 to state    1 from traj    1 on state    2
C     -1.605756     0.125147    -0.084324
H     -1.359246     0.299661     1.172835
H     -2.740571     0.385084    -0.399162
C     -0.956571     1.384591    -0.014107
H     -1.242498     2.252288     0.705359
H      0.142471     1.828247    -0.309434
6
Family_2 [H]C([H])=C([H])[H] | RMSD: 0.5211 | 1556.00 to state    1 from traj    1 on state    2
C     -1.544548     0.139378    -0.086765
H     -2.059406    -0.127282     1.120050
H     -2.695466     0.358518    -0.015632
C     -0.944087     1.422486     0.003205
H     -1.263027     2.429905     0.527710
H     -0.060037     1.483024    -0.639741
6
Family_2 [H]C([H])=C([H])[H] | RMSD: 0.7663 | 1148.00 to state    1 from traj    1 on state    2
C     -1.531507     0.110753    -0.136117
H     -1.649670    -0.067271     1.025661
H     -2.517098     0.924262     0.237740
C     -0.994004     1.446138     0.128340
H     -1.298631     2.247278    -0.577230
H     -0.173139     1.099136    -0.596783
6
Family_2 [H]C([H])=C([H])[H] | RMSD: 0.7625 | 1340.00 to state    2 from traj    2 on state    1
C     -1.571630     0.061797    -0.119136
H     -1.524693    -0.151354     0.971656
H     -2.490567     1.178751     0.054266
C     -0.959206     1.442953     0.124472
H     -1.465757     2.263609    -0.414988
H     -0.094068     1.533699    -0.677806
6
Family_2 [H]C([H])=C([H])[H] | RMSD: 0.6897 | 2444.00 to state    1 from traj    1 on state    2
C     -1.551076     0.053662    -0.063768
H     -1.879868    -0.269174     0.914204
H     -2.526185     0.852808    -0.251564
C     -0.957463     1.483301     0.058694
H     -1.144102     2.577656     0.246042
H     -0.290608     1.279568    -0.851506
6
Family_2 [H]C([H])=C([H])[H] | RMSD: 0.5146 | 2684.00 to state    1 from traj    3 on state    2
C     -1.692732     0.072428    -0.090961
H     -1.221062     0.572861     1.081271
H     -2.705552    -0.091344    -0.495062
C     -0.875949     1.433955     0.021227
H     -1.265083     2.300641     0.693659
H      0.067563     2.023100    -0.452228
6
Family_2 [H]C([H])=C([H])[H] | RMSD: 0.6261 | 1084.00 to state    1 from traj    1 on state    2
C     -1.671197     0.147633    -0.150882
H     -1.016554     0.172793     0.963896
H     -2.526550     0.362779     0.667031
C     -0.844748     1.403448    -0.051925
H     -1.877342     1.893254     0.061852
H     -0.332068     1.843821     0.720514
6
Family_2 [H]C([H])=C([H])[H] | RMSD: 0.3847 | 5244.00 to state    1 from traj    1 on state    2
C     -1.572748     0.245700    -0.100806
H     -1.560238     0.183237     1.045114
H     -2.854209    -0.155911     0.038430
C     -0.925885     1.326538    -0.010909
H     -1.479233     2.422059     0.501090
H     -0.065125     1.571159    -0.256749
6
Family_2 [H]C([H])=C([H])[H] | RMSD: 0.6814 | 1928.00 to state    1 from traj    1 on state    2
C     -1.731898     0.079560    -0.122509
H     -0.896113     0.005588     0.641725
H     -2.590658     0.209220     0.596322
C     -0.796357     1.487921    -0.046001
H     -1.824384     1.909980    -0.103136
H     -0.294694     1.952438     0.869726
6
Family_2 [H]C([H])=C([H])[H] | RMSD: 0.6901 | 2072.00 to state    1 from traj    1 on state    2
C     -1.733743     0.090404    -0.121924
H     -0.926170     0.094268     0.585847
H     -2.523248     0.117501     0.527589
C     -0.809008     1.485237    -0.005169
H     -1.776375     1.838575    -0.283829
H     -0.207310     1.929651     0.681503
6
Family_2 [H]C([H])=C([H])[H] | RMSD: 0.7731 | 4300.00 to state    1 from traj    1 on state    2
C     -1.534021     0.164586    -0.036415
H     -1.970357    -0.372265     0.830644
H     -2.303586     0.910408    -0.215227
C     -0.946271     1.379290     0.016167
H     -1.306588     2.117827     0.429466
H     -0.596822     1.702513    -0.806904
6
Family_2 [H]C([H])=C([H])[H] | RMSD: 0.6116 | 4712.00 to state    1 from traj    1 on state    2
C     -1.562044     0.056674    -0.054502
H     -2.074643    -0.116127     0.793876
H     -2.704554     0.632810    -0.119057
C     -0.903494     1.469166    -0.000217
H     -1.224165     2.419031     0.709870
H     -0.349792     1.637692    -0.735953
6
Family_2 [H]C([H])=C([H])[H] | RMSD: 0.5373 | 5016.00 to state    1 from traj    1 on state    2
C     -1.546401     0.118077    -0.053483
H     -1.873084    -0.236352     1.089854
H     -2.562718     0.811702    -0.347881
C     -1.005006     1.384131    -0.045698
H     -1.122955     2.480329     0.852485
H      0.228786     1.799321    -0.415935
6
Family_2 [H]C([H])=C([H])[H] | RMSD: 0.6391 | 528.00 to state    1 from traj    1 on state    2
C     -1.595161     0.038658    -0.101615
H     -1.592024    -0.497640     0.736233
H     -2.251076     0.905791     0.559489
C     -0.957783     1.526634    -0.069466
H     -1.194655     2.570158     0.071130
H     -0.273896     1.125006     0.668419
6
Family_2 [H]C([H])=C([H])[H] | RMSD: 0.4240 | 1456.00 to state    1 from traj    1 on state    2
C     -1.641857     0.201987    -0.064400
H     -1.134377     0.331791     0.941901
H     -2.586600    -0.057890    -0.449624
C     -0.939309     1.329127    -0.031483
H     -1.283185     2.314734     0.724391
H      0.028796     1.921923    -0.077430
6
Family_2 [H]C([H])=C([H])[H] | RMSD: 0.7243 | 1180.00 to state    1 from traj    1 on state    2
C     -1.739696     0.195252    -0.075659
H     -1.219110     0.484354     0.889265
H     -1.769859    -0.949706    -0.244765
C     -0.908495     1.453243    -0.043934
H     -1.232378     2.396827     0.543920
H      0.044631     1.180416     0.233332
6
Family_2 [H]C([H])=C([H])[H] | RMSD: 0.6006 | 1444.00 to state    1 from traj    1 on state    2
C     -1.678060     0.237295    -0.042268
H     -0.940564     0.315839     1.023411
H     -2.230996    -0.294476    -0.720946
C     -0.948789     1.365894    -0.012828
H     -1.464657     2.125230     0.524491
H      0.205186     1.505148    -0.173728
6
Family_2 [H]C([H])=C([H])[H] | RMSD: 0.6380 | 2080.00 to state    1 from traj    1 on state    2
C     -1.526582     0.098240    -0.045290
H     -2.338192    -0.367828     0.951011
H     -2.803307     0.428473    -0.104704
C     -0.936134     1.482959    -0.029428
H     -1.060359     2.404127     0.733628
H     -0.184934     1.449000    -0.692901
6
Family_2 [H]C([H])=C([H])[H] | RMSD: 0.4906 | 1584.00 to state    1 from traj    1 on state    2
C     -1.547755     0.089132    -0.073346
H     -2.029107    -0.015960     1.097637
H     -2.745703     0.672188    -0.058210
C     -0.947631     1.445037    -0.051582
H     -1.218319     2.125780     0.848944
H     -0.004365     1.692155    -0.403045
6
Family_2 [H]C([H])=C([H])[H] | RMSD: 0.5947 | 1764.00 to state    1 from traj    1 on state    2
C     -1.541479     0.070877    -0.063492
H     -1.749715     0.079446     1.036320
H     -2.818907     0.714666    -0.377484
C     -0.963393     1.469154     0.027598
H     -1.304484     2.423586     0.576984
H     -0.011353     1.186616    -0.811408
6
Family_2 [H]C([H])=C([H])[H] | RMSD: 0.7030 | 560.00 to state    1 from traj    1 on state    2
C     -1.701003    -0.066469    -0.116708
H     -1.316024    -0.704487     0.738059
H     -2.299342     0.717284     0.615904
C     -0.852974     1.622261    -0.057993
H     -1.230722     2.770668    -0.139939
H     -0.453259     1.433045     0.864371
6
Family_2 [H]C([H])=C([H])[H] | RMSD: 0.5395 | 6640.00 to state    1 from traj    1 on state    2
C     -1.583818     0.237862    -0.099026
H     -1.441535     0.354083     1.080461
H     -2.555637     0.130592    -0.073299
C     -0.933142     1.346111     0.033828
H     -1.683629     1.944581     0.250086
H     -0.059633     1.451456    -0.483656
6
Family_2 [H]C([H])=C([H])[H] | RMSD: 0.6878 | 6808.00 to state    1 from traj    1 on state    2
C     -1.595314     0.188487    -0.088377
H     -1.355682     0.517979     0.995944
H     -2.829622    -0.047985    -0.303764
C     -0.889181     1.389590     0.076016
H     -1.842032     2.329110     0.361755
H     -0.099934     1.151860    -0.909919
6
Family_2 [H]C([H])=C([H])[H] | RMSD: 0.4739 | 4692.00 to state    1 from traj    1 on state    2
C     -1.632738     0.034739    -0.084941
H     -1.442844     0.444722     1.131879
H     -2.631537     0.292481    -0.540742
C     -0.955513     1.475210     0.024258
H     -0.934037     2.401940     0.647477
H      0.117473     1.623617    -0.518821
6
Family_2 [H]C([H])=C([H])[H] | RMSD: 0.6765 | 7056.00 to state    1 from traj    1 on state    2
C     -1.591757     0.174419     0.015840
H     -1.582054    -0.313345     0.938693
H     -2.271102    -0.205103    -0.730189
C     -1.020104     1.532039    -0.091800
H     -0.753910     2.341078     0.698128
H     -0.002546     0.598591    -0.004801
6
Family_2 [H]C([H])=C([H])[H] | RMSD: 0.4975 | 2600.00 to state    1 from traj    1 on state    2
C     -1.591237     0.034303    -0.099603
H     -1.958945     0.060202     1.042927
H     -2.605635     0.326591    -0.109762
C     -0.955002     1.502644     0.039189
H     -0.981516     2.644102     0.391995
H      0.154554     1.410160    -0.608569
6
Family_2 [H]C([H])=C([H])[H] | RMSD: 0.4701 | 4232.00 to state    1 from traj    1 on state    2
C     -1.598956     0.233569    -0.095364
H     -1.385424     0.273808     1.028851
H     -2.700254    -0.169984    -0.216106
C     -0.932959     1.327019     0.039341
H     -1.403601     2.460158     0.336732
H     -0.072953     1.595377    -0.485211
6
Family_2 [H]C([H])=C([H])[H] | RMSD: 0.3332 | 4572.00 to state    1 from traj    1 on state    2
C     -1.629541     0.039845    -0.104233
H     -1.509709     0.352933     1.286255
H     -2.675682     0.235707    -0.181683
C     -0.920812     1.526654    -0.023587
H     -1.259443     2.227171     0.638255
H      0.102308     1.273108    -0.223055
6
Family_2 [H]C([H])=C([H])[H] | RMSD: 0.6811 | 2260.00 to state    1 from traj    1 on state    2
C     -1.623874     0.193646     0.004248
H     -1.208346    -0.195035     1.017351
H     -2.198805    -0.197651    -0.670566
C     -0.970282     1.523482    -0.100922
H     -1.163537     2.205107     0.663734
H     -0.249895     0.481654     0.138141
6
Family_2 [H]C([H])=C([H])[H] | RMSD: 0.4577 | 4880.00 to state    1 from traj    1 on state    2
C     -1.554780     0.211230    -0.092413
H     -1.539335     0.319188     1.140984
H     -2.654011    -0.037220    -0.223566
C     -0.994765     1.386475     0.015442
H     -1.089083     2.318888     0.376223
H     -0.069730     1.116230    -0.379763
6
Family_2 [H]C([H])=C([H])[H] | RMSD: 0.5224 | 3824.00 to state    1 from traj    1 on state    2
C     -1.560510     0.100304    -0.081736
H     -2.028454    -0.085267     1.121742
H     -2.604153     0.734189     0.046723
C     -0.941238     1.417607    -0.065709
H     -1.153765     2.024440     0.831326
H     -0.135308     1.994530    -0.246161
6
Family_2 [H]C([H])=C([H])[H] | RMSD: 0.6005 | 1488.00 to state    1 from traj    1 on state    2
C     -1.527732     0.194839    -0.026707
H     -1.737988     0.055877     1.099239
H     -2.649146    -0.085640    -0.374232
C     -1.022086     1.504323    -0.101325
H     -0.815201     1.985294     0.779907
H     -0.146571     0.552617     0.017387
6
Family_2 [H]C([H])=C([H])[H] | RMSD: 0.4794 | 4484.00 to state    1 from traj    1 on state    2
C     -1.615099     0.202922    -0.108430
H     -1.366856     0.331611     1.218760
H     -2.624357    -0.114417    -0.181167
C     -0.918533     1.371725     0.029805
H     -1.607751     2.368432     0.377311
H      0.057190     1.406216    -0.481326
6
Family_2 [H]C([H])=C([H])[H] | RMSD: 0.2302 | 1036.00 to state    1 from traj    1 on state    2
C     -1.647686     0.035203    -0.136102
H     -1.604719     0.120415     1.284284
H     -2.739650     0.307999     0.298436
C     -0.874364     1.496613    -0.069471
H     -1.427151     2.312209     0.662634
H      0.091745     1.761573     0.200905
6
Family_2 [H]C([H])=C([H])[H] | RMSD: 0.6483 | 2032.00 to state    1 from traj    1 on state    2
C     -1.568568     0.069347    -0.070463
H     -2.324302    -0.240861     0.929592
H     -2.625816     0.384478    -0.058499
C     -0.924880     1.473733     0.019993
H     -1.007649     2.436895     0.523673
H     -0.062826     1.787470    -0.796667
6
Family_2 [H]C([H])=C([H])[H] | RMSD: 0.7858 | 1616.00 to state    1 from traj    1 on state    2
C     -1.665543     0.269545     0.010789
H     -1.245012    -0.502789     0.533832
H     -2.640752    -0.245138    -0.527900
C     -0.833373     1.302995    -0.047195
H     -1.268814     2.199874     0.593877
H     -0.800853     2.564996    -0.169296
6
Family_2 [H]C([H])=C([H])[H] | RMSD: 0.5728 | 2804.00 to state    1 from traj    1 on state    2
C     -1.546776     0.089141    -0.068678
H     -1.692850     0.273341     0.862158
H     -2.881839     0.647398    -0.161731
C     -0.925827     1.463046     0.022368
H     -1.495814     2.123953     0.527180
H     -0.198472     1.214768    -0.679075
6
Family_2 [H]C([H])=C([H])[H] | RMSD: 0.7146 | 8700.00 to state    1 from traj    1 on state    2
C     -1.690739     0.277443    -0.145571
H     -1.423000     0.471371     1.262395
H     -1.608098    -0.753578     0.321243
C     -0.940172     1.341608    -0.072027
H     -1.265824     2.299023     0.487903
H     -0.085696     1.445914     0.518009
6
Family_2 [H]C([H])=C([H])[H] | RMSD: 0.4800 | 3664.00 to state    1 from traj    1 on state    2
C     -1.550739     0.187339    -0.110329
H     -1.782500     0.203071     1.361448
H     -2.476040     0.474319    -0.016468
C     -0.991658     1.371068    -0.017784
H     -1.469049     2.046140     0.550824
H      0.290261     1.461818    -0.372533
6
Family_2 [H]C([H])=C([H])[H] | RMSD: 0.4491 | 4644.00 to state    1 from traj    1 on state    2
C     -1.588423     0.155209    -0.076963
H     -1.515504     0.515716     0.869264
H     -2.625283     0.168111    -0.044473
C     -0.947415     1.433001    -0.042506
H     -1.595419     2.006053     0.685125
H      0.220722     1.140342    -0.089635
6
Family_2 [H]C([H])=C([H])[H] | RMSD: 0.3021 | 808.00 to state    1 from traj    1 on state    2
C     -1.688853     0.015714    -0.087044
H     -1.343900     0.420660     0.750398
H     -2.900808    -0.028368     0.033330
C     -0.856291     1.539869    -0.058098
H     -1.420645     2.156519     0.668023
H      0.260750     1.670192     0.274436
6
Family_2 [H]C([H])=C([H])[H] | RMSD: 0.6937 | 1312.00 to state    1 from traj    1 on state    2
C     -1.570254     0.179488    -0.042945
H     -1.670280     0.016357     1.109754
H     -2.342585    -0.374235    -0.468686
C     -1.026957     1.506825    -0.047620
H     -0.529893     2.485882     0.543969
H     -0.241421     0.533268    -0.109170
6
Family_2 [H]C([H])=C([H])[H] | RMSD: 0.5394 | 3372.00 to state    1 from traj    1 on state    2
C     -1.557180     0.121175    -0.092080
H     -1.866925     0.162331     0.975616
H     -2.749864     0.233184    -0.013242
C     -0.933607     1.450196     0.027890
H     -1.494684     2.563948     0.467849
H      0.059170     1.071416    -0.668632
6
Family_2 [H]C([H])=C([H])[H] | RMSD: 0.7096 | 804.00 to state    1 from traj    1 on state    2
C     -1.553633     0.137614    -0.047210
H     -1.678922    -0.510998     0.999367
H     -2.086158     1.003388    -0.347842
C     -1.014443     1.417433     0.022983
H     -1.229290     2.433036     0.172797
H     -0.136981     1.299951    -0.538925
6
Family_2 [H]C([H])=C([H])[H] | RMSD: 0.4000 | 4564.00 to state    1 from traj    1 on state    2
C     -1.606176     0.124545    -0.085770
H     -1.524035     0.423243     0.877238
H     -2.841274     0.078597    -0.105136
C     -0.920004     1.442055     0.006082
H     -1.446137     2.127006     0.482726
H      0.180876     1.458871    -0.308580
6
Family_2 [H]C([H])=C([H])[H] | RMSD: 0.5207 | 4872.00 to state    1 from traj    1 on state    2
C     -1.635113     0.162402    -0.073249
H     -1.255171     0.702678     1.170915
H     -2.466135    -0.143360    -0.478339
C     -0.960806     1.418124    -0.055624
H     -1.307957     2.070295     0.945903
H      0.229688     1.292175    -0.106147
6
Family_2 [H]C([H])=C([H])[H] | RMSD: 0.4695 | 5792.00 to state    1 from traj    1 on state    2
C     -1.592674     0.117534    -0.087683
H     -1.510489     0.359236     1.027131
H     -2.753279     0.024686    -0.330486
C     -0.953166     1.440485     0.033293
H     -1.162304     2.601475     0.493238
H      0.029764     1.204571    -0.545061
6
Family_2 [H]C([H])=C([H])[H] | RMSD: 0.3501 | 2124.00 to state    1 from traj    1 on state    2
C     -1.643471     0.069554    -0.098688
H     -1.525784     0.370023     1.011303
H     -2.829970     0.150322    -0.100043
C     -0.905117     1.455739    -0.019399
H     -1.451442     2.259417     0.667736
H      0.443635     1.800159    -0.175191
6
Family_2 [H]C([H])=C([H])[H] | RMSD: 0.7229 | 4120.00 to state    1 from traj    1 on state    2
C     -1.566406     0.033521    -0.051212
H     -2.409942    -0.277028     0.840308
H     -2.508179     0.561235    -0.104434
C     -0.914528     1.514581     0.009435
H     -0.993875     2.357009     0.625975
H     -0.257708     1.666927    -0.867332
6
Family_2 [H]C([H])=C([H])[H] | RMSD: 0.6321 | 1192.00 to state    1 from traj    1 on state    2
C     -1.616411     0.248381    -0.089371
H     -1.116415     0.401805     1.190524
H     -2.475109     0.270370    -0.416607
C     -0.922160     1.276713     0.037985
H     -1.786388     2.030176     0.451152
H     -0.105004     1.879943    -0.616044
6
Family_2 [H]C([H])=C([H])[H] | RMSD: 0.5222 | 1324.00 to state    1 from traj    1 on state    2
C     -1.599139     0.246248    -0.104615
H     -1.296100     0.354890     1.342871
H     -2.758285    -0.043937    -0.268677
C     -0.937272     1.334651     0.023570
H     -1.603947     1.969919     0.346386
H      0.149667     1.636463    -0.458164
6
Family_2 [H]C([H])=C([H])[H] | RMSD: 0.4572 | 1088.00 to state    1 from traj    1 on state    2
C     -1.665732     0.046028    -0.124840
H     -1.596408     0.137076     1.022763
H     -2.571917     0.519512     0.453465
C     -0.836122     1.470864    -0.072140
H     -1.788783     1.987218     0.625915
H      0.036693     2.036222     0.241724
6
Family_2 [H]C([H])=C([H])[H] | RMSD: 0.3633 | 4488.00 to state    1 from traj    1 on state    2
C     -1.605661     0.060189    -0.071368
H     -1.551986     0.479727     0.886517
H     -2.747930     0.350197    -0.204975
C     -0.971810     1.470937    -0.071459
H     -1.197284     2.195157     0.947181
H      0.477804     1.485332     0.069873
6
Family_2 [H]C([H])=C([H])[H] | RMSD: 0.5767 | 8444.00 to state    1 from traj    1 on state    2
C     -1.692524     0.256648    -0.047612
H     -1.031210     0.309069     0.871762
H     -2.207125    -0.562912    -0.522909
C     -0.935086     1.346473    -0.034727
H     -1.373558     2.223244     0.565320
H      0.189933     1.683148     0.063663
6
Family_2 [H]C([H])=C([H])[H] | RMSD: 0.5657 | 8460.00 to state    1 from traj    1 on state    2
C     -1.691632     0.253222    -0.054023
H     -1.059636     0.311217     0.892263
H     -2.195481    -0.527984    -0.481949
C     -0.930716     1.344771    -0.027037
H     -1.382688     2.210320     0.528599
H      0.153141     1.720103     0.023695
6
Family_2 [H]C([H])=C([H])[H] | RMSD: 0.4119 | 9112.00 to state    1 from traj    1 on state    2
C     -1.553168     0.097915    -0.075270
H     -1.733858     0.311084     0.965024
H     -2.625609     0.540606    -0.143020
C     -0.983078     1.447275    -0.035845
H     -1.183923     2.258081     0.769675
H      0.032769     1.233070    -0.270951
6
Family_2 [H]C([H])=C([H])[H] | RMSD: 0.5344 | 4492.00 to state    1 from traj    1 on state    2
C     -1.526572     0.156831    -0.057932
H     -1.792778    -0.267491     1.108278
H     -2.690170     0.764512    -0.323919
C     -0.992306     1.354005    -0.026788
H     -1.099833     2.482411     0.722351
H     -0.134791     1.772759    -0.500500
6
Family_2 [H]C([H])=C([H])[H] | RMSD: 0.6963 | 1232.00 to state    1 from traj    1 on state    2
C     -1.556304     0.116564    -0.027484
H     -1.929632    -0.465259     0.897439
H     -2.332515     0.847811    -0.494163
C     -1.003583     1.412193     0.016112
H     -1.123599     2.466781     0.474269
H      0.156817     1.689313    -0.745322
6
Family_2 [H]C([H])=C([H])[H] | RMSD: 0.3390 | 2848.00 to state    1 from traj    1 on state    2
C     -1.592659     0.128958    -0.107202
H     -1.574946     0.218455     1.274335
H     -2.603686     0.271878    -0.140390
C     -0.957081     1.419043    -0.008277
H     -1.192329     2.300836     0.530034
H      0.021132     1.518169    -0.291249
6
Family_2 [H]C([H])=C([H])[H] | RMSD: 0.7274 | 2876.00 to state    1 from traj    1 on state    2
C     -1.790489     0.110957     0.000402
H     -0.483581     0.222817     0.494786
H     -2.194874    -0.326665    -0.918588
C     -0.884581     1.465449    -0.029495
H     -1.310494     2.242400     0.483011
H      0.132511     1.832325     0.284179
6
Family_2 [H]C([H])=C([H])[H] | RMSD: 0.2800 | 3860.00 to state    1 from traj    1 on state    2
C     -1.637329     0.020804    -0.111554
H     -1.638994     0.270738     1.014842
H     -2.701190     0.274324     0.162363
C     -0.884052     1.538809    -0.024086
H     -1.399562     2.227507     0.504401
H      0.052001     1.398409    -0.068642
6
Family_2 [H]C([H])=C([H])[H] | RMSD: 0.4654 | 2940.00 to state    1 from traj    1 on state    2
C     -1.594327     0.218618    -0.143448
H     -1.530397     0.385466     1.179472
H     -2.456152     0.014702     0.486332
C     -0.930187     1.377142    -0.051252
H     -1.758974     2.113941     0.417563
H      0.095107     1.226159     0.233339
6
Family_2 [H]C([H])=C([H])[H] | RMSD: 0.7764 | 1116.00 to state    1 from traj    1 on state    2
C     -1.605065     0.006160    -0.065171
H     -1.860331    -0.219577     0.965065
H     -2.538092     0.995404    -0.237662
C     -0.852269     1.478951     0.040038
H     -1.427885     2.343394     0.556430
H     -0.624598     1.939499    -0.987640
6
Family_2 [H]C([H])=C([H])[H] | RMSD: 0.6402 | 3780.00 to state    1 from traj    1 on state    2
C     -1.499363     0.182113    -0.017918
H     -1.335462    -0.239431     1.010172
H     -2.513445     1.100490    -0.612972
C     -1.076152     1.385384    -0.044044
H     -1.292864     2.287594     0.576685
H      0.099067     0.928378    -0.238848
6
Family_2 [H]C([H])=C([H])[H] | RMSD: 0.4721 | 2016.00 to state    1 from traj    1 on state    2
C     -1.592381     0.124152    -0.101544
H     -1.531194     0.394634     1.035047
H     -2.695543     0.127907    -0.225970
C     -0.942262     1.416807     0.051740
H     -1.203826     2.484945     0.387653
H     -0.099160     1.385762    -0.606566
6
Family_2 [H]C([H])=C([H])[H] | RMSD: 0.7744 | 6964.00 to state    1 from traj    1 on state    2
C     -1.600815     0.286771    -0.071455
H     -1.541282    -0.049080     0.950189
H     -2.697387    -0.043811    -0.035828
C     -0.827206     1.328609     0.050871
H     -1.955162     1.751032     0.108140
H     -0.606371     1.848329    -0.780504
6
Family_2 [H]C([H])=C([H])[H] | RMSD: 0.4431 | 8668.00 to state    1 from traj    1 on state    2
C     -1.710811     0.128210    -0.108103
H     -1.139138     0.433625     1.157371
H     -2.721200    -0.530272    -0.215113
C     -0.854419     1.440273    -0.016020
H     -1.299353     2.287617     0.535559
H     -0.005572     1.874315    -0.002096
6
Family_2 [H]C([H])=C([H])[H] | RMSD: 0.3903 | 1436.00 to state    1 from traj    1 on state    2
C     -1.603701     0.146672    -0.091250
H     -1.476820     0.365337     0.863570
H     -2.760387     0.152528    -0.103799
C     -0.920037     1.386153     0.017440
H     -1.414980     2.307340     0.475544
H     -0.007476     1.664975    -0.359110
6
Family_2 [H]C([H])=C([H])[H] | RMSD: 0.6844 | 808.00 to state    1 from traj    1 on state    2
C     -1.574871     0.104508    -0.081934
H     -1.708023    -0.209206     1.093311
H     -2.258111     0.857367    -0.261182
C     -0.951691     1.404795     0.057203
H     -1.324911     2.573501     0.289713
H     -0.334963     1.548793    -0.830435
6
Family_2 [H]C([H])=C([H])[H] | RMSD: 0.4750 | 1900.00 to state    1 from traj    1 on state    2
C     -1.569773     0.138146    -0.085147
H     -1.675693     0.248404     1.040338
H     -2.572867     0.456828    -0.207020
C     -0.963512     1.401013     0.022186
H     -1.322767     2.208470     0.486462
H      0.025417     1.501000    -0.572849
6
Family_2 [H]C([H])=C([H])[H] | RMSD: 0.5635 | 4460.00 to state    1 from traj    1 on state    2
C     -1.732446     0.040231    -0.131365
H     -1.263285     0.572371     0.809106
H     -2.583064    -0.493063     0.086263
C     -0.846169     1.545711     0.073917
H     -1.526848     2.405984    -0.053496
H      0.367430     1.371958    -0.160623
6
Family_2 [H]C([H])=C([H])[H] | RMSD: 0.5553 | 10424.00 to state    2 from traj    6 on state    1
C     -1.713031     0.220910    -0.083951
H     -1.143424     0.353139     0.975481
H     -2.445339    -0.774241    -0.223613
C     -0.880328     1.394906    -0.022349
H     -1.449231     2.152195     0.411173
H      0.207915     1.770193     0.100313
6
Family_2 [H]C([H])=C([H])[H] | RMSD: 0.6310 | 860.00 to state    1 from traj    1 on state    2
C     -1.584408     0.057002    -0.088567
H     -1.577803     0.086321     0.969233
H     -2.388813     0.882703    -0.349685
C     -0.989005     1.431842     0.088362
H     -1.165479     2.502976     0.153414
H      0.064347     1.542235    -0.773801
6
Family_2 [H]C([H])=C([H])[H] | RMSD: 0.6388 | 7236.00 to state    1 from traj    1 on state    2
C     -1.540426     0.180447    -0.107784
H     -1.791012     0.305069     1.110067
H     -2.621317     0.240640    -0.003472
C     -0.951630     1.409509     0.063562
H     -1.584475     2.294378     0.234851
H     -0.040373     0.969335    -0.817786
6
Family_2 [H]C([H])=C([H])[H] | RMSD: 0.4355 | 1184.00 to state    1 from traj    1 on state    2
C     -1.681352     0.114669    -0.118432
H     -1.271708     0.367821     1.020204
H     -2.601157     0.154875     0.221471
C     -0.859462     1.425067    -0.054663
H     -1.709387     1.864934     0.517873
H      0.126056     2.020196     0.299712
6
Family_2 [H]C([H])=C([H])[H] | RMSD: 0.4527 | 1544.00 to state    1 from traj    1 on state    2
C     -1.600244     0.191355    -0.077626
H     -1.366072     0.346741     1.129136
H     -2.563454    -0.028805    -0.432862
C     -0.974406     1.375374    -0.000505
H     -1.341824     2.458602     0.622825
H      0.218338     1.309645    -0.391406
6
Family_2 [H]C([H])=C([H])[H] | RMSD: 0.5603 | 2244.00 to state    1 from traj    1 on state    2
C     -1.626754     0.184992    -0.080221
H     -1.273988     0.414813     0.987174
H     -2.705518    -0.219973    -0.515387
C     -0.939152     1.364286     0.061879
H     -1.334504     2.546868     0.396119
H      0.156803     1.552415    -0.652634
6
Family_2 [H]C([H])=C([H])[H] | RMSD: 0.4381 | 952.00 to state    1 from traj    1 on state    2
C     -1.673167     0.087597    -0.148881
H     -1.365238     0.224007     1.236192
H     -2.640245     0.258137     0.459586
C     -0.840315     1.467561    -0.047996
H     -1.828646     1.924759     0.350919
H      0.052260     1.817163     0.295938
6
Family_2 [H]C([H])=C([H])[H] | RMSD: 0.5159 | 1608.00 to state    1 from traj    1 on state    2
C     -1.706120     0.098024    -0.096426
H     -1.237391     0.548546     0.805200
H     -2.561096    -0.062202    -0.182101
C     -0.850517     1.403001     0.020932
H     -1.465561     2.156118     0.516837
H     -0.003594     2.226633    -0.243656
6
Family_2 [H]C([H])=C([H])[H] | RMSD: 0.7147 | 888.00 to state    1 from traj    1 on state    2
C     -1.658552    -0.055678    -0.062411
H     -1.864306    -0.298826     1.020767
H     -2.316368     0.869069    -0.273911
C     -0.834014     1.574117     0.033709
H     -1.467762     2.343694     0.492496
H     -0.382665     1.747646    -0.900623
6
Family_2 [H]C([H])=C([H])[H] | RMSD: 0.5164 | 1720.00 to state    1 from traj    1 on state    2
C     -1.649353    -0.019653    -0.112509
H     -1.781378     0.075258     1.267830
H     -2.663588     0.537907    -0.161848
C     -0.866760     1.498536     0.021940
H     -1.354835     2.541748     0.663447
H      0.049281     1.978019    -0.693527
6
Family_2 [H]C([H])=C([H])[H] | RMSD: 0.5189 | 1836.00 to state    1 from traj    1 on state    2
C     -1.681180    -0.086815    -0.090563
H     -1.695859     0.163595     1.118276
H     -2.563852     0.681697    -0.276440
C     -0.858040     1.580286     0.019056
H     -1.455113     2.288049     0.651134
H      0.239638     1.825761    -0.644190
6
Family_2 [H]C([H])=C([H])[H] | RMSD: 0.3940 | 1364.00 to state    1 from traj    1 on state    2
C     -1.649496     0.126161    -0.071524
H     -1.244230     0.513796     0.891849
H     -2.698163    -0.007888    -0.299885
C     -0.907741     1.428310    -0.031113
H     -1.399480     2.080830     0.713139
H      0.081379     1.645512    -0.085393
6
Family_2 [H]C([H])=C([H])[H] | RMSD: 0.5125 | 2128.00 to state    1 from traj    1 on state    2
C     -1.579560     0.039687    -0.085707
H     -2.135610    -0.145208     1.083736
H     -2.903088     0.365665    -0.016179
C     -0.898717     1.497633    -0.012387
H     -1.207974     2.535935     0.708748
H      0.045307     1.680214    -0.610727
6
Family_2 [H]C([H])=C([H])[H] | RMSD: 0.6411 | 1248.00 to state    1 from traj    1 on state    2
C     -1.725054     0.052921    -0.141104
H     -1.054187     0.084864     0.614005
H     -2.519746     0.215358     0.713811
C     -0.809032     1.497813    -0.022169
H     -1.713808     2.093148    -0.166454
H     -0.248615     1.883409     0.780859
6
Family_2 [H]C([H])=C([H])[H] | RMSD: 0.6231 | 1504.00 to state    1 from traj    1 on state    2
C     -1.722839     0.252833    -0.097721
H     -1.144385     0.290437     1.223506
H     -2.124937    -0.906315    -0.222263
C     -0.902350     1.384421    -0.036972
H     -1.430061     2.269955     0.423208
H      0.248583     1.591753     0.177231
6
Family_2 [H]C([H])=C([H])[H] | RMSD: 0.6928 | 1780.00 to state    1 from traj    1 on state    2
C     -1.764495     0.089703    -0.113475
H     -1.249073     0.538048     0.943983
H     -1.930745    -0.811315    -0.179978
C     -0.873131     1.526770     0.054942
H     -1.204733     2.515690     0.092780
H      0.081945     1.251023    -0.162606
6
Family_2 [H]C([H])=C([H])[H] | RMSD: 0.4642 | 2624.00 to state    1 from traj    1 on state    2
C     -1.618797     0.126603    -0.071935
H     -1.344888     0.489275     0.992411
H     -2.745384    -0.064990    -0.482727
C     -0.947640     1.439447     0.017954
H     -1.123295     2.275031     0.555821
H      0.062698     1.394968    -0.425567
6
Family_2 [H]C([H])=C([H])[H] | RMSD: 0.3990 | 3044.00 to state    1 from traj    1 on state    2
C     -1.606076     0.177704    -0.132627
H     -1.511024     0.420940     0.933840
H     -2.574847    -0.257290     0.423233
C     -0.941389     1.413895    -0.050893
H     -1.226424     2.416406     0.415737
H     -0.064647     1.209790     0.410683
6
Family_2 [H]C([H])=C([H])[H] | RMSD: 0.7463 | 2152.00 to state    1 from traj    1 on state    2
C     -1.737422     0.180073    -0.134016
H     -1.476162     0.470219     1.255959
H     -1.416181    -0.755854     0.151358
C     -0.929223     1.439070    -0.070293
H     -1.111316     2.388037     0.566148
H      0.046828     1.359236     0.457730
6
Family_2 [H]C([H])=C([H])[H] | RMSD: 0.6730 | 4636.00 to state    1 from traj    1 on state    2
C     -1.693406     0.274578    -0.004081
H     -0.810036     0.087722     0.830988
H     -2.161335    -0.278550    -0.925703
C     -0.956741     1.302456    -0.046248
H     -1.424270     2.256828     0.706637
H      0.242233     1.897388    -0.015497
6
Family_2 [H]C([H])=C([H])[H] | RMSD: 0.3378 | 1440.00 to state    1 from traj    1 on state    2
C     -1.597165     0.088841    -0.083512
H     -1.603388     0.390624     0.897283
H     -2.685270     0.061403    -0.126728
C     -0.962851     1.477818    -0.030622
H     -1.047200     2.451376     0.670752
H      0.108469     1.183609    -0.084601
6
Family_2 [H]C([H])=C([H])[H] | RMSD: 0.5041 | 2240.00 to state    1 from traj    1 on state    2
C     -1.541637     0.111438    -0.052634
H     -1.816478    -0.062470     1.023319
H     -2.450858     0.817921    -0.308773
C     -1.007406     1.413417    -0.046683
H     -1.107181     2.360721     0.828118
H      0.016377     1.468964    -0.362516
6
Family_2 [H]C([H])=C([H])[H] | RMSD: 0.3513 | 4488.00 to state    1 from traj    1 on state    2
C     -1.570658     0.198392    -0.095487
H     -1.482216     0.391820     1.154346
H     -2.707895     0.007532    -0.144809
C     -0.980832     1.386333    -0.025896
H     -1.198277     2.178703     0.563934
H      0.059407     1.293688    -0.130398
6
Family_2 [H]C([H])=C([H])[H] | RMSD: 0.4662 | 4768.00 to state    1 from traj    1 on state    2
C     -1.619682     0.185800    -0.094708
H     -1.361188     0.398359     1.107026
H     -2.426322    -0.108969    -0.277796
C     -0.947822     1.393728     0.025185
H     -1.242482     2.278620     0.368444
H     -0.108169     1.365666    -0.372542
6
Family_2 [H]C([H])=C([H])[H] | RMSD: 0.5920 | 1120.00 to state    1 from traj    1 on state    2
C     -1.729365    -0.056388    -0.135518
H     -1.533407    -0.487356     0.793296
H     -2.256878     0.441245     0.725323
C     -0.830929     1.604109    -0.051150
H     -1.341114     2.557738    -0.058742
H     -0.092679     1.801056     0.761111
6
Family_2 [H]C([H])=C([H])[H] | RMSD: 0.7830 | 1836.00 to state    1 from traj    1 on state    2
C     -1.764328     0.158789     0.014221
H     -0.703216     0.262834     0.646218
H     -1.973096    -0.585064    -1.082661
C     -0.936734     1.468058    -0.042809
H     -1.136500     2.252310     0.634274
H      0.266086     1.439757     0.139543
6
Family_2 [H]C([H])=C([H])[H] | RMSD: 0.5516 | 2132.00 to state    1 from traj    1 on state    2
C     -1.628229     0.106127    -0.164028
H     -1.512726     0.329932     1.043328
H     -2.708220    -0.012731     0.417711
C     -0.901463     1.475887     0.088712
H     -1.527841     2.316994    -0.318043
H      0.160070     1.269859    -0.248847
6
Family_2 [H]C([H])=C([H])[H] | RMSD: 0.3163 | 3108.00 to state    1 from traj    1 on state    2
C     -1.687159    -0.087041    -0.095940
H     -1.695289     0.209271     0.957261
H     -2.733966     0.248065    -0.096444
C     -0.851619     1.617363    -0.000141
H     -1.252456     2.491977     0.602964
H      0.201259     1.570684    -0.322196
6
Family_2 [H]C([H])=C([H])[H] | RMSD: 0.5369 | 3828.00 to state    1 from traj    1 on state    2
C     -1.641033     0.276241    -0.092688
H     -1.221092     0.295356     1.253943
H     -2.355094    -0.507125    -0.317936
C     -0.945598     1.345929     0.001820
H     -1.454873     2.267821     0.358535
H      0.120805     1.369514    -0.215073
6
Family_2 [H]C([H])=C([H])[H] | RMSD: 0.4963 | 4628.00 to state    1 from traj    1 on state    2
C     -1.528011     0.163292    -0.049862
H     -1.976820     0.057733     0.779716
H     -2.665066     0.540921    -0.120381
C     -0.982748     1.380010    -0.034137
H     -1.173921     2.108078     0.740094
H      0.001494     1.658608    -0.401809
6
Family_2 [H]C([H])=C([H])[H] | RMSD: 0.7306 | 5016.00 to state    1 from traj    1 on state    2
C     -1.738438     0.224669    -0.089990
H     -1.174478     0.409462     1.091249
H     -1.738409    -0.894165    -0.197867
C     -0.906571     1.443157    -0.029471
H     -1.433646     2.191806     0.347514
H      0.131890     1.174445     0.179280
6
Family_2 [H]C([H])=C([H])[H] | RMSD: 0.7381 | 4844.00 to state    1 from traj    1 on state    2
C     -1.730439     0.210703    -0.023298
H     -0.913470     0.289440     0.835942
H     -1.901333    -0.707423    -0.869235
C     -0.960285     1.413571    -0.018745
H     -1.026296     2.405358     0.514720
H      0.171177     1.413121     0.016265
6
Family_2 [H]C([H])=C([H])[H] | RMSD: 0.6871 | 908.00 to state    1 from traj    1 on state    2
C     -1.617659     0.057566    -0.093287
H     -1.539463    -0.147356     1.086971
H     -2.145115     0.968013    -0.240222
C     -0.939102     1.443752     0.076400
H     -1.487504     2.449097     0.094985
H     -0.094082     1.595845    -0.743804
6
Family_2 [H]C([H])=C([H])[H] | RMSD: 0.4644 | 1756.00 to state    1 from traj    1 on state    2
C     -1.554466     0.198308    -0.074560
H     -2.120124    -0.304527     1.040419
H     -2.763809    -0.181902     0.181079
C     -0.950913     1.449842    -0.062158
H     -1.166995     2.284036     0.482375
H      0.172504     1.318387    -0.078070
6
Family_2 [H]C([H])=C([H])[H] | RMSD: 0.5359 | 2116.00 to state    1 from traj    1 on state    2
C     -1.603032     0.135859    -0.115142
H     -1.495182     0.404646     1.181652
H     -2.514372     0.145406    -0.231121
C     -0.943206     1.411379     0.074317
H     -1.199779     2.349158     0.221672
H     -0.182232     1.419231    -0.689031
6
Family_2 [H]C([H])=C([H])[H] | RMSD: 0.6017 | 2200.00 to state    1 from traj    1 on state    2
C     -1.609408     0.136713    -0.093803
H     -1.353112     0.530475     1.039536
H     -2.642517     0.189854    -0.424525
C     -0.924646     1.388321     0.081889
H     -1.295018     2.275456     0.352087
H     -0.246096     1.587217    -0.828416
6
Family_2 [H]C([H])=C([H])[H] | RMSD: 0.4131 | 2328.00 to state    1 from traj    1 on state    2
C     -1.610719     0.092848    -0.066083
H     -1.462246     0.571908     0.872479
H     -2.626032    -0.002601    -0.336029
C     -0.985232     1.478582    -0.048702
H     -0.817570     2.179213     0.781421
H      0.106654     1.281648     0.046586
6
Family_2 [H]C([H])=C([H])[H] | RMSD: 0.5596 | 2908.00 to state    1 from traj    1 on state    2
C     -1.584316     0.203935    -0.121716
H     -1.821514     0.126160     0.948068
H     -2.807933     0.040275     0.352907
C     -0.883045     1.366930     0.041460
H     -1.723503     2.093214     0.119201
H      0.021525     1.777244    -0.467145
6
Family_2 [H]C([H])=C([H])[H] | RMSD: 0.5033 | 1284.00 to state    1 from traj    1 on state    2
C     -1.583617     0.065432    -0.072398
H     -1.585161    -0.353928     0.951650
H     -2.257724     0.810207     0.182312
C     -0.976719     1.521655    -0.108676
H     -1.206913     2.410847     0.520098
H     -0.173772     0.976474     0.500280
6
Family_2 [H]C([H])=C([H])[H] | RMSD: 0.4100 | 952.00 to state    1 from traj    1 on state    2
C     -1.642719     0.142875    -0.137079
H     -1.399333     0.356018     1.029529
H     -2.624335     0.154789     0.474382
C     -0.870356     1.404605    -0.061286
H     -1.679424     1.996783     0.484660
H     -0.083628     1.807950     0.371799
6
Family_2 [H]C([H])=C([H])[H] | RMSD: 0.4955 | 5760.00 to state    1 from traj    1 on state    2
C     -1.636437     0.121563    -0.076571
H     -1.342266     0.492151     1.104026
H     -2.545247    -0.072489    -0.602686
C     -1.000473     1.424964     0.009068
H     -0.846904     2.281677     0.573405
H      0.423273     1.625576    -0.273687
6
Family_2 [H]C([H])=C([H])[H] | RMSD: 0.4241 | 5960.00 to state    1 from traj    1 on state    2
C     -1.637027     0.157366    -0.080092
H     -1.270197     0.473795     1.010584
H     -2.707822    -0.095847    -0.288523
C     -0.894658     1.403404    -0.019146
H     -1.499365     2.241107     0.720385
H     -0.087580     1.538130    -0.263241
6
Family_2 [H]C([H])=C([H])[H] | RMSD: 0.4635 | 6416.00 to state    1 from traj    1 on state    2
C     -1.594285     0.186820    -0.140094
H     -1.622751     0.217056     1.180495
H     -2.638067     0.114015     0.255658
C     -0.900309     1.362902     0.034686
H     -1.627434     2.342085     0.222656
H     -0.118686     1.615679    -0.406080
6
Family_2 [H]C([H])=C([H])[H] | RMSD: 0.7102 | 7780.00 to state    1 from traj    1 on state    2
C     -1.757193     0.177946    -0.051946
H     -1.012136     0.332402     0.987638
H     -1.809854    -0.788934    -0.639388
C     -0.923151     1.447923    -0.035313
H     -1.228769     2.477835     0.594577
H      0.257165     1.360188     0.093633
6
Family_2 [H]C([H])=C([H])[H] | RMSD: 0.7185 | 2328.00 to state    1 from traj    1 on state    2
C     -1.583261     0.236737     0.007284
H     -1.648444    -0.287436     1.069893
H     -1.982313    -0.245833    -0.697378
C     -1.073359     1.479100    -0.106766
H     -0.644929     2.135673     0.666640
H      0.199397     0.707049     0.142958
6
Family_2 [H]C([H])=C([H])[H] | RMSD: 0.5541 | 1288.00 to state    1 from traj    1 on state    2
C     -1.603039     0.045573    -0.091077
H     -2.035591     0.099349     1.021936
H     -2.827553     0.492212     0.081165
C     -0.863873     1.483291    -0.010151
H     -1.441273     1.956489     0.664122
H     -0.032373     1.989323    -0.564300
6
Family_2 [H]C([H])=C([H])[H] | RMSD: 0.6152 | 8368.00 to state    1 from traj    1 on state    2
C     -1.609971     0.117142    -0.096080
H     -1.504965     0.351842     1.391317
H     -2.476918     0.733652    -0.268288
C     -0.907734     1.376072    -0.035518
H     -1.701262     1.933071     0.951922
H     -0.048411     1.943605    -0.510153
6
Family_2 [H]C([H])=C([H])[H] | RMSD: 0.4644 | 8524.00 to state    1 from traj    1 on state    2
C     -1.568687     0.186680    -0.087726
H     -1.464297     0.245188     1.151379
H     -2.556395     0.655316    -0.150413
C     -0.964091     1.320156    -0.044529
H     -1.353225     1.955228     0.739932
H     -0.178021     1.944115    -0.168278
6
Family_2 [H]C([H])=C([H])[H] | RMSD: 0.6446 | 6828.00 to state    1 from traj    1 on state    2
C     -1.561694     0.072139    -0.067067
H     -2.076385    -0.501782     1.190670
H     -2.655217     0.765656    -0.250222
C     -0.951199     1.434897    -0.009421
H     -1.059447     2.579177     0.642225
H      0.002163     1.954421    -0.674553
6
Family_2 [H]C([H])=C([H])[H] | RMSD: 0.3328 | 2192.00 to state    1 from traj    1 on state    2
C     -1.584104     0.088144    -0.076556
H     -1.531366     0.446278     0.922333
H     -2.688897     0.469816    -0.117293
C     -0.973240     1.431523    -0.090018
H     -1.187920     2.253261     1.034005
H      0.148966     1.477612     0.142522
6
Family_2 [H]C([H])=C([H])[H] | RMSD: 0.4321 | 2264.00 to state    1 from traj    1 on state    2
C     -1.574799     0.107255    -0.080957
H     -1.547452     0.389691     0.983510
H     -2.493198     0.380542    -0.346343
C     -1.017771     1.415987    -0.002953
H     -0.743745     2.391499     0.610344
H     -0.055096     1.442627    -0.250952
6
Family_2 [H]C([H])=C([H])[H] | RMSD: 0.4433 | 3056.00 to state    1 from traj    1 on state    2
C     -1.551888     0.199318    -0.091044
H     -1.636956     0.031099     1.212574
H     -2.715725     0.454537    -0.156953
C     -0.951968     1.314302    -0.019610
H     -1.425698     2.445631     0.723820
H     -0.118188     1.787742    -0.464204
6
Family_2 [H]C([H])=C([H])[H] | RMSD: 0.6080 | 2968.00 to state    1 from traj    1 on state    2
C     -1.674581     0.234481    -0.073911
H     -1.087074     0.310670     1.083321
H     -2.229911    -0.538251    -0.532938
C     -0.935304     1.376157     0.028729
H     -1.335824     2.439128     0.310768
H      0.019654     1.351433    -0.326052
6
Family_2 [H]C([H])=C([H])[H] | RMSD: 0.6698 | 892.00 to state    1 from traj    1 on state    2
C     -1.620935     0.084461    -0.095305
H     -1.295031     0.106646     1.230971
H     -2.218036     0.966632    -0.409663
C     -0.940813     1.396587     0.059192
H     -1.483501     2.272102     0.310451
H     -0.210183     1.761754    -0.704737
6
Family_2 [H]C([H])=C([H])[H] | RMSD: 0.5176 | 1464.00 to state    1 from traj    1 on state    2
C     -1.628914    -0.044345    -0.083959
H     -1.637922    -0.360210     0.951203
H     -2.290240     0.925230    -0.018542
C     -0.948084     1.589103    -0.002623
H     -1.154739     2.558108     0.168461
H      0.057871     1.224851    -0.072725
6
Family_2 [H]C([H])=C([H])[H] | RMSD: 0.5447 | 1556.00 to state    1 from traj    1 on state    2
C     -1.629707    -0.049309    -0.077156
H     -1.702316    -0.478443     1.027372
H     -2.299382     0.928305    -0.114107
C     -0.959812     1.596535    -0.005406
H     -1.124995     2.596950     0.196812
H      0.250860     1.271754    -0.129579
6
Family_2 [H]C([H])=C([H])[H] | RMSD: 0.4910 | 640.00 to state    1 from traj    1 on state    2
C     -1.674878     0.144107    -0.087674
H     -1.275461     0.528945     0.883455
H     -2.691531    -0.267675    -0.174887
C     -0.863524     1.428503     0.009194
H     -1.680043     2.104095     0.492075
H      0.162101     1.650747    -0.268784
6
Family_2 [H]C([H])=C([H])[H] | RMSD: 0.3839 | 2184.00 to state    1 from traj    1 on state    2
C     -1.626022     0.090627    -0.101296
H     -1.492914     0.382408     1.057740
H     -2.847725     0.044356    -0.209328
C     -0.909652     1.445055     0.023704
H     -1.274653     2.399086     0.510885
H      0.097849     1.630278    -0.438018
6
Family_2 [H]C([H])=C([H])[H] | RMSD: 0.4773 | 3100.00 to state    1 from traj    1 on state    2
C     -1.551708     0.140769    -0.095410
H     -2.005375    -0.110412     1.125030
H     -2.729143     0.252467     0.003551
C     -0.953888     1.423778     0.012447
H     -1.103222     2.430128     0.397209
H     -0.038098     1.540006    -0.540520
6
Family_2 [H]C([H])=C([H])[H] | RMSD: 0.5661 | 5128.00 to state    1 from traj    1 on state    2
C     -1.562088     0.143366    -0.068641
H     -1.890427     0.042185     1.040035
H     -2.371231     0.699364    -0.172226
C     -0.962101     1.384844    -0.013502
H     -1.411120     2.091330     0.684195
H      0.018489     1.712285    -0.576493
6
Family_2 [H]C([H])=C([H])[H] | RMSD: 0.6966 | 2668.00 to state    1 from traj    1 on state    2
C     -1.699469     0.269871    -0.064183
H     -1.258637     0.343933     0.809073
H     -1.960286    -0.920025    -0.334817
C     -0.939556     1.377823     0.002441
H     -1.203476     2.276838     0.267487
H      0.136465     1.420683    -0.009333
6
Family_2 [H]C([H])=C([H])[H] | RMSD: 0.7016 | 620.00 to state    1 from traj    1 on state    2
C     -1.594407     0.127356    -0.024440
H     -1.597638     0.039849     1.106472
H     -2.383833    -0.275910    -0.652948
C     -1.000725     1.565416    -0.044991
H     -0.546875     2.253319     0.581712
H     -0.280611     0.567034    -0.211199
6
Family_2 [H]C([H])=C([H])[H] | RMSD: 0.6597 | 1260.00 to state    1 from traj    1 on state    2
C     -1.576954     0.128360    -0.107004
H     -1.502481     0.504469     1.067963
H     -2.726099     0.249473    -0.222279
C     -0.903957     1.406609     0.081617
H     -1.320776     2.395537     0.367434
H     -0.620618     1.315150    -0.913900
6
Family_2 [H]C([H])=C([H])[H] | RMSD: 0.7515 | 536.00 to state    1 from traj    1 on state    2
C     -1.631038     0.099751    -0.011552
H     -1.572172     0.139201     1.137942
H     -2.249649    -0.369675    -0.784861
C     -0.984036     1.599117    -0.072585
H     -0.414761     2.020711     0.770076
H     -0.334752     0.721414    -0.123892
6
Family_2 [H]C([H])=C([H])[H] | RMSD: 0.7234 | 1084.00 to state    1 from traj    1 on state    2
C     -1.577599     0.103150    -0.079658
H     -1.442380    -0.263102     0.988324
H     -2.248358     1.155075    -0.238441
C     -0.961961     1.397793     0.067961
H     -1.522513     2.454986     0.054707
H     -0.257884     1.523106    -0.668493
6
Family_2 [H]C([H])=C([H])[H] | RMSD: 0.7451 | 1216.00 to state    1 from traj    1 on state    2
C     -1.563550     0.086705    -0.135547
H     -1.794914    -0.391494     0.860979
H     -2.209547     0.828215     0.610358
C     -1.010387     1.496825     0.043379
H     -1.059665     2.309251    -0.580674
H      0.002615     1.140018     0.204301
6
Family_2 [H]C([H])=C([H])[H] | RMSD: 0.7886 | 1372.00 to state    1 from traj    1 on state    2
C     -1.584629     0.132149     0.001546
H     -1.868445    -0.136179     1.059109
H     -2.309117    -0.321879    -0.748997
C     -1.040238     1.587953    -0.059998
H     -0.211785     1.988714     0.563130
H     -0.065291     0.727989    -0.180020
6
Family_2 [H]C([H])=C([H])[H] | RMSD: 0.7137 | 1532.00 to state    1 from traj    1 on state    2
C     -1.552932     0.077282    -0.017271
H     -2.093728    -0.529395     0.849550
H     -2.461029     0.907143    -0.372808
C     -0.948937     1.460098    -0.020736
H     -1.214721     2.401398     0.717590
H     -0.150768     1.656751    -0.744734
6
Family_2 [H]C([H])=C([H])[H] | RMSD: 0.7954 | 1164.00 to state    1 from traj    1 on state    2
C     -1.632387    -0.019272    -0.057755
H     -1.982315    -0.363010     0.996401
H     -2.401849     0.950529    -0.237157
C     -0.836250     1.522567     0.029027
H     -1.390358     2.200458     0.537009
H     -0.541717     2.054066    -0.957228
6
Family_2 [H]C([H])=C([H])[H] | RMSD: 0.4373 | 1060.00 to state    1 from traj    1 on state    2
C     -1.593030     0.173234    -0.115803
H     -1.642413     0.240346     1.118622
H     -2.725423    -0.072768    -0.022316
C     -0.933712     1.388121     0.038354
H     -1.381417     2.502422     0.315789
H      0.125383     1.480218    -0.492525
6
Family_2 [H]C([H])=C([H])[H] | RMSD: 0.4052 | 600.00 to state    1 from traj    1 on state    2
C     -1.734076    -0.047658    -0.145121
H     -1.358738     0.077387     1.026757
H     -2.770643     0.089229     0.442257
C     -0.782860     1.619238     0.000809
H     -1.818310     2.309736     0.065373
H      0.206974     1.552033     0.181904
6
Family_2 [H]C([H])=C([H])[H] | RMSD: 0.6949 | 2112.00 to state    1 from traj    1 on state    2
C     -1.613881     0.060018    -0.108244
H     -1.636330     0.401375     1.291062
H     -2.651162     0.342959    -0.270969
C     -0.855471     1.462157     0.054420
H     -1.243760     2.232448     0.589936
H     -0.776455     1.640290    -0.971962
6
Family_2 [H]C([H])=C([H])[H] | RMSD: 0.3501 | 2884.00 to state    1 from traj    1 on state    2
C     -1.687690    -0.050933    -0.073512
H     -1.346756     0.423050     1.098646
H     -2.915602    -0.115807    -0.331974
C     -0.870528     1.641902    -0.083472
H     -1.043070     2.318976     0.961270
H      0.056614     1.171127     0.139354
6
Family_2 [H]C([H])=C([H])[H] | RMSD: 0.3647 | 3112.00 to state    1 from traj    1 on state    2
C     -1.705337    -0.012101    -0.108254
H     -1.334749     0.397817     0.765808
H     -2.680971    -0.169043     0.170130
C     -0.850109     1.605191    -0.016773
H     -1.435970     2.392403     0.322278
H      0.169848     1.150895     0.228276
6
Family_2 [H]C([H])=C([H])[H] | RMSD: 0.7526 | 3388.00 to state    1 from traj    1 on state    2
C     -1.776541     0.196615    -0.031819
H     -0.767988     0.092172     1.058285
H     -1.895494    -0.531715    -0.802397
C     -0.877756     1.443631    -0.013881
H     -1.705210     2.087336     0.376404
H      0.264739     1.562394    -0.091030
6
Family_2 [H]C([H])=C([H])[H] | RMSD: 0.3339 | 844.00 to state    1 from traj    1 on state    2
C     -1.689248    -0.034242    -0.089197
H     -1.531151     0.353232     0.956718
H     -2.601059     0.344817    -0.174248
C     -0.882116     1.542758    -0.029655
H     -1.246753     2.181923     0.735030
H      0.286795     1.899867    -0.104576
6
Family_2 [H]C([H])=C([H])[H] | RMSD: 0.6688 | 1688.00 to state    1 from traj    1 on state    2
C     -1.719390     0.195933    -0.130736
H     -1.351275     0.397301     1.301135
H     -2.122122    -0.996783    -0.121544
C     -0.921530     1.440346     0.021083
H     -1.108247     2.420091     0.142884
H      0.318289     1.436844    -0.019171
6
Family_2 [H]C([H])=C([H])[H] | RMSD: 0.6443 | 1388.00 to state    1 from traj    1 on state    2
C     -1.686414     0.220029    -0.018052
H     -0.820924     0.493539     0.716550
H     -2.269769    -0.315406    -0.779218
C     -0.956656     1.380669    -0.035485
H     -1.401233     2.052688     0.651393
H      0.254183     1.450604     0.045926
6
Family_2 [H]C([H])=C([H])[H] | RMSD: 0.4254 | 1060.00 to state    1 from traj    1 on state    2
C     -1.660084     0.114687    -0.132038
H     -1.419865     0.286695     1.049076
H     -2.711702     0.206955     0.371840
C     -0.851018     1.418744    -0.042434
H     -1.785150     1.985405     0.464630
H      0.106491     2.003904     0.190124
6
Family_2 [H]C([H])=C([H])[H] | RMSD: 0.4426 | 1288.00 to state    1 from traj    1 on state    2
C     -1.649248     0.169447    -0.094184
H     -1.253163     0.447909     0.910322
H     -2.724364     0.032898     0.004938
C     -0.876320     1.376591    -0.036530
H     -1.586045     1.870507     0.577050
H     -0.074288     1.981422     0.061958
6
Family_2 [H]C([H])=C([H])[H] | RMSD: 0.5861 | 2508.00 to state    1 from traj    1 on state    2
C     -1.555514     0.160394    -0.090798
H     -1.502832     0.460641     1.199633
H     -2.628913     0.028252    -0.454496
C     -1.021012     1.426754     0.046475
H     -0.760660     2.346327     0.342411
H     -0.138254     1.007653    -0.562702
6
Family_2 [H]C([H])=C([H])[H] | RMSD: 0.4403 | 1108.00 to state    1 from traj    1 on state    2
C     -1.671117     0.174538    -0.113744
H     -1.251577     0.533814     0.973034
H     -2.548743    -0.366498     0.150004
C     -0.887669     1.422467    -0.043417
H     -1.544638     2.022018     0.457513
H      0.102916     1.536094     0.288845
6
Family_2 [H]C([H])=C([H])[H] | RMSD: 0.5538 | 1304.00 to state    1 from traj    1 on state    2
C     -1.672007     0.223278    -0.054553
H     -1.142330     0.486780     0.892435
H     -2.378505    -0.612984    -0.456539
C     -0.939757     1.393457    -0.046007
H     -1.352540     2.270206     0.703748
H      0.262608     1.346326     0.055320
6
Family_2 [H]C([H])=C([H])[H] | RMSD: 0.6004 | 1092.00 to state    1 from traj    1 on state    2
C     -1.539998     0.120296    -0.072573
H     -1.528146     0.174085     0.870304
H     -2.461959     0.781955    -0.366731
C     -1.016382     1.390984     0.058806
H     -1.068784     2.543337     0.312892
H     -0.211816     1.247517    -0.655715
6
Family_2 [H]C([H])=C([H])[H] | RMSD: 0.6706 | 612.00 to state    1 from traj    1 on state    2
C     -1.619276    -0.054101    -0.023059
H     -1.802218    -0.684380     0.823584
H     -2.310878     0.939457    -0.286089
C     -0.918389     1.643127    -0.028402
H     -1.266949     2.589440     0.410401
H     -0.113672     0.975988    -0.337985
6
Family_2 [H]C([H])=C([H])[H] | RMSD: 0.6198 | 2980.00 to state    1 from traj    1 on state    2
C     -1.589922     0.194092    -0.032358
H     -1.356262     0.109832     1.166018
H     -2.463761    -0.224571    -0.444974
C     -0.959830     1.504617    -0.101034
H     -1.096152     2.089355     0.787350
H     -0.433520     0.538935     0.077782
6
Family_2 [H]C([H])=C([H])[H] | RMSD: 0.6123 | 3032.00 to state    1 from traj    1 on state    2
C     -1.589499     0.189491    -0.036919
H     -1.451384    -0.066686     1.290212
H     -2.460809    -0.237059    -0.401110
C     -0.953125     1.514007    -0.115311
H     -1.003550     2.151915     0.810146
H     -0.518891     0.608320     0.111392
6
Family_2 [H]C([H])=C([H])[H] | RMSD: 0.6488 | 3252.00 to state    1 from traj    1 on state    2
C     -1.560813     0.041298    -0.023962
H     -2.035569    -0.457320     0.803310
H     -2.599998     0.952196    -0.354173
C     -0.965238     1.453840    -0.048124
H     -0.971621     2.515541     0.873143
H     -0.024920     1.928822    -0.466609
6
Family_2 [H]C([H])=C([H])[H] | RMSD: 0.6857 | 1116.00 to state    1 from traj    1 on state    2
C     -1.567241     0.125509    -0.047369
H     -1.776394    -0.417033     0.961812
H     -2.111087     0.893769    -0.382167
C     -1.007993     1.416647     0.032563
H     -1.184561     2.400890     0.229801
H      0.025997     1.501361    -0.636310
6
Family_2 [H]C([H])=C([H])[H] | RMSD: 0.3756 | 2168.00 to state    1 from traj    1 on state    2
C     -1.576396     0.169391    -0.119574
H     -1.533194     0.222229     1.359156
H     -2.686422     0.438313     0.010373
C     -0.949202     1.363905    -0.028118
H     -1.343637     2.032991     0.553525
H     -0.074244     1.791036    -0.166490
6
Family_2 [H]C([H])=C([H])[H] | RMSD: 0.4469 | 2848.00 to state    1 from traj    1 on state    2
C     -1.586680     0.215936    -0.119160
H     -1.616693     0.267553     1.215094
H     -2.600972    -0.403211    -0.023428
C     -0.989403     1.386922     0.002351
H     -1.057868     2.587720     0.341268
H      0.239598     1.203621    -0.144357
6
Family_2 [H]C([H])=C([H])[H] | RMSD: 0.7895 | 668.00 to state    1 from traj    1 on state    2
C     -1.656647     0.124084    -0.014017
H     -1.495014     0.093855     1.174676
H     -2.147205    -0.647749    -0.800400
C     -0.974428     1.594900    -0.073503
H     -0.485495     2.187011     0.731859
H     -0.252959     0.638847    -0.066556
6
Family_2 [H]C([H])=C([H])[H] | RMSD: 0.4858 | 692.00 to state    1 from traj    1 on state    2
C     -1.604305     0.009251    -0.088159
H     -1.534729    -0.377993     0.933297
H     -2.373647     0.869712     0.246380
C     -0.951939     1.556272    -0.081393
H     -1.192173     2.535065     0.362012
H     -0.171784     1.073780     0.475357
6
Family_2 [H]C([H])=C([H])[H] | RMSD: 0.4731 | 772.00 to state    1 from traj    1 on state    2
C     -1.612359    -0.002817    -0.096366
H     -1.477292    -0.279787     0.896177
H     -2.435754     0.925789     0.337351
C     -0.942796     1.558633    -0.085960
H     -1.260450     2.390625     0.341872
H     -0.111801     1.179592     0.593853
6
Family_2 [H]C([H])=C([H])[H] | RMSD: 0.7284 | 1300.00 to state    1 from traj    1 on state    2
C     -1.569876     0.045638    -0.026499
H     -1.988563    -0.437799     0.861133
H     -2.513762     0.915997    -0.391089
C     -0.918630     1.488278     0.011080
H     -1.285836     2.393342     0.595985
H     -0.291319     1.605631    -0.885584
6
Family_2 [H]C([H])=C([H])[H] | RMSD: 0.4208 | 1748.00 to state    1 from traj    1 on state    2
C     -1.591205     0.053688    -0.084814
H     -1.673655     0.328759     0.808255
H     -2.793071     0.071352    -0.121716
C     -0.953514     1.515829     0.012580
H     -0.903803     2.549550     0.446586
H     -0.039136     1.103308    -0.275694
6
Family_2 [H]C([H])=C([H])[H] | RMSD: 0.3527 | 1936.00 to state    1 from traj    1 on state    2
C     -1.651253     0.059839    -0.106501
H     -1.413468     0.525816     1.245832
H     -2.635859    -0.176216    -0.192156
C     -0.938281     1.525500    -0.050280
H     -0.991700     2.286862     0.719494
H      0.165369     1.227975     0.091707
6
Family_2 [H]C([H])=C([H])[H] | RMSD: 0.6235 | 2468.00 to state    1 from traj    1 on state    2
C     -1.637923     0.275949    -0.102073
H     -1.203342     0.351623     1.082789
H     -2.538168    -0.333083    -0.273398
C     -0.916359     1.304505     0.077845
H     -1.624897     2.150464     0.045281
H      0.070698     1.753638    -0.569259
6
Family_2 [H]C([H])=C([H])[H] | RMSD: 0.7158 | 1204.00 to state    1 from traj    1 on state    2
C     -1.561562     0.084573    -0.087580
H     -1.704991    -0.169929     0.907335
H     -2.272427     0.900015    -0.127379
C     -0.977733     1.450560     0.093178
H     -1.182028     2.467629    -0.104866
H     -0.314848     1.264959    -0.745077
6
Family_2 [H]C([H])=C([H])[H] | RMSD: 0.5141 | 2172.00 to state    1 from traj    1 on state    2
C     -1.528380     0.170619    -0.067357
H     -1.792177     0.019911     1.113273
H     -2.604098     0.641873    -0.240656
C     -0.985614     1.376154    -0.013877
H     -1.374248     2.245164     0.667816
H     -0.005237     1.417037    -0.575753
6
Family_2 [H]C([H])=C([H])[H] | RMSD: 0.8084 | 2464.00 to state    1 from traj    1 on state    2
C     -1.605444     0.081996    -0.063390
H     -1.722844    -0.379417     1.079236
H     -2.356111     1.143815    -0.240742
C     -0.876789     1.406764     0.025806
H     -1.747360     2.131240     0.460612
H     -0.327903     2.119596    -0.854552
6
Family_2 [H]C([H])=C([H])[H] | RMSD: 0.7865 | 1308.00 to state    1 from traj    1 on state    2
C     -1.576488     0.083750    -0.075890
H     -2.117741    -0.255698     1.040641
H     -2.482923     0.848268    -0.045634
C     -0.877253     1.401442     0.005746
H     -1.256449     2.200582     0.674992
H     -0.636616     2.264604    -0.837463
6
Family_2 [H]C([H])=C([H])[H] | RMSD: 0.5016 | 1044.00 to state    1 from traj    1 on state    2
C     -1.616570     0.153050    -0.063243
H     -1.276964     0.439721     0.981018
H     -2.657262     0.334454    -0.495147
C     -0.939003     1.357709    -0.008919
H     -1.504326     2.159413     0.795903
H      0.158231     1.819510    -0.425187
6
Family_2 [H]C([H])=C([H])[H] | RMSD: 0.4052 | 2056.00 to state    1 from traj    1 on state    2
C     -1.563101     0.149557    -0.098859
H     -1.857279     0.122277     1.005480
H     -2.913593     0.025146     0.066710
C     -0.937345     1.418361    -0.003236
H     -1.340929     2.535594     0.526917
H      0.174601     1.389002    -0.385866
6
Family_2 [H]C([H])=C([H])[H] | RMSD: 0.6790 | 2636.00 to state    1 from traj    1 on state    2
C     -1.592025     0.091327    -0.033022
H     -1.620657    -0.347790     0.879490
H     -2.339533     1.151488    -0.316192
C     -0.920386     1.408626    -0.036673
H     -1.701005     2.238517     0.739028
H     -0.133436     1.839648    -0.475142
6
Family_2 [H]C([H])=C([H])[H] | RMSD: 0.7454 | 2808.00 to state    1 from traj    1 on state    2
C     -1.559285     0.079563    -0.023227
H     -2.118900    -0.581177     0.906391
H     -2.416128     0.895457    -0.383944
C     -0.951319     1.460389     0.000933
H     -1.216889     2.370555     0.575431
H     -0.064238     1.720414    -0.835511
6
Family_2 [H]C([H])=C([H])[H] | RMSD: 0.3946 | 4316.00 to state    1 from traj    1 on state    2
C     -1.572029     0.137334    -0.088739
H     -1.575847     0.323185     1.082016
H     -2.717770     0.298819    -0.229977
C     -0.981408     1.419453     0.009193
H     -1.110550     2.123767     0.448643
H      0.098382     1.458879    -0.356118
6
Family_2 [H]C([H])=C([H])[H] | RMSD: 0.7784 | 3152.00 to state    1 from traj    1 on state    2
C     -1.589569     0.137385    -0.167167
H     -1.746091    -0.167758     0.944951
H     -2.474124     0.394252     0.642105
C     -0.960248     1.444961     0.124893
H     -1.195783     2.089889    -0.925463
H      0.067079     1.583713    -0.161145
6
Family_2 [H]C([H])=C([H])[H] | RMSD: 0.6842 | 5148.00 to state    1 from traj    1 on state    2
C     -1.544252     0.205719     0.041811
H     -1.434510    -0.353779     0.796351
H     -2.407841     0.276752    -0.868592
C     -1.039829     1.470820    -0.085166
H     -0.965356     2.214620     0.733209
H     -0.132930     0.640128    -0.147653
6
Family_2 [H]C([H])=C([H])[H] | RMSD: 0.4546 | 2796.00 to state    1 from traj    1 on state    2
C     -1.629284    -0.006729    -0.072173
H     -1.594532     0.479662     1.070067
H     -2.589516     0.124094    -0.428535
C     -0.961631     1.574882    -0.036556
H     -0.762035     2.367643     0.846772
H      0.086878     1.097812    -0.196011
6
Family_2 [H]C([H])=C([H])[H] | RMSD: 0.3617 | 2524.00 to state    1 from traj    1 on state    2
C     -1.634812     0.089688    -0.111906
H     -1.614520     0.299943     0.983531
H     -2.606425    -0.160399    -0.002122
C     -0.928663     1.461206    -0.000143
H     -1.181223     2.765498     0.516028
H      0.216003     1.369826    -0.165584
6
Family_2 [H]C([H])=C([H])[H] | RMSD: 0.7957 | 576.00 to state    1 from traj    1 on state    2
C     -1.553823     0.085848    -0.100828
H     -1.717405    -0.438388     0.848846
H     -2.321234     0.873263     0.244010
C     -0.991081     1.522684     0.086052
H     -1.167236     2.231288    -0.629196
H     -0.201579     0.921912    -0.290885
6
Family_2 [H]C([H])=C([H])[H] | RMSD: 0.6074 | 4660.00 to state    1 from traj    1 on state    2
C     -1.560276     0.180744    -0.083575
H     -1.810568     0.170659     0.951446
H     -2.471985     0.646962     0.016823
C     -0.922223     1.339791     0.002724
H     -1.586789     1.944014     0.578693
H     -0.281713     1.874982    -0.586847
6
Family_2 [H]C([H])=C([H])[H] | RMSD: 0.7096 | 4764.00 to state    1 from traj    1 on state    2
C     -1.557375     0.195563    -0.084920
H     -2.009235    -0.014590     1.046462
H     -2.481829     0.678142     0.075311
C     -0.912355     1.320840    -0.003558
H     -1.569470     1.794157     0.580144
H     -0.242668     2.228147    -0.650932
6
Family_2 [H]C([H])=C([H])[H] | RMSD: 0.7180 | 5404.00 to state    1 from traj    1 on state    2
C     -1.541947     0.075711    -0.038571
H     -2.052027    -0.569081     0.929195
H     -2.337156     0.869278    -0.342699
C     -1.006475     1.481223     0.020277
H     -0.973386     2.588902     0.327205
H     -0.002968     1.313803    -0.698991
6
Family_2 [H]C([H])=C([H])[H] | RMSD: 0.3907 | 6020.00 to state    1 from traj    1 on state    2
C     -1.592251     0.198735    -0.104808
H     -1.497487     0.462260     1.085738
H     -2.734490    -0.373409     0.048015
C     -0.951215     1.392712    -0.076644
H     -1.213457     2.526365     0.838385
H      0.020837     1.176445     0.186705
6
Family_2 [H]C([H])=C([H])[H] | RMSD: 0.4517 | 1344.00 to state    1 from traj    1 on state    2
C     -1.600249     0.023262    -0.063462
H     -1.572226    -0.289623     0.924209
H     -2.409179     0.654086     0.076531
C     -0.950983     1.572022    -0.110815
H     -1.054360     2.436072     0.613940
H     -0.296289     0.945401     0.458663
6
Family_2 [H]C([H])=C([H])[H] | RMSD: 0.8523 | 1240.00 to state    1 from traj    1 on state    2
C     -1.553736     0.103371    -0.119539
H     -1.882406    -0.598676     0.789638
H     -2.146069     0.881311     0.536470
C     -1.038740     1.493512     0.062296
H     -0.928790     2.220835    -0.789348
H      0.116660     1.223420     0.142054
6
Family_2 [H]C([H])=C([H])[H] | RMSD: 0.6358 | 1416.00 to state    1 from traj    1 on state    2
C     -1.568182     0.229085    -0.016394
H     -1.573123    -0.166777     1.141384
H     -2.276948    -0.233171    -0.550125
C     -1.035986     1.480565    -0.091795
H     -0.877198     2.230968     0.648879
H      0.025975     0.552161     0.045728
6
Family_2 [H]C([H])=C([H])[H] | RMSD: 0.3411 | 4364.00 to state    1 from traj    1 on state    2
C     -1.638095     0.065776    -0.134188
H     -1.685822     0.187796     1.126686
H     -2.913652     0.007655     0.151391
C     -0.885889     1.458645     0.013431
H     -1.173687     2.447812     0.368896
H      0.116430     1.947057    -0.211349
6
Family_2 [H]C([H])=C([H])[H] | RMSD: 0.6113 | 5660.00 to state    1 from traj    1 on state    2
C     -1.557084     0.094879    -0.064665
H     -1.994047    -0.266076     1.309475
H     -2.501452     0.865769    -0.236287
C     -0.947418     1.438441    -0.047848
H     -1.347867     2.180901     0.851570
H     -0.045512     1.703688    -0.587375
6
Family_2 [H]C([H])=C([H])[H] | RMSD: 0.8186 | 2100.00 to state    1 from traj    1 on state    2
C     -1.570506     0.125448     0.028235
H     -1.896024    -0.281797     0.772145
H     -2.078349     0.048360    -0.788482
C     -1.074404     1.562161    -0.064932
H     -0.118321     2.035666     0.563194
H     -0.123123     0.843586    -0.112861
6
Family_2 [H]C([H])=C([H])[H] | RMSD: 0.4921 | 1236.00 to state    1 from traj    1 on state    2
C     -1.608580     0.094887    -0.090525
H     -1.506432     0.387899     0.965697
H     -2.538150     0.434943    -0.321525
C     -0.947934     1.402980     0.047716
H     -1.255249     2.385493     0.483258
H      0.030715     1.698386    -0.620609
6
Family_2 [H]C([H])=C([H])[H] | RMSD: 0.6777 | 3120.00 to state    1 from traj    1 on state    2
C     -1.574934     0.084078    -0.044910
H     -1.649753    -0.105954     0.934202
H     -2.320124     0.953007    -0.356669
C     -0.941446     1.458918     0.009387
H     -1.671219     2.328605     0.566827
H     -0.106237     1.193319    -0.724370
6
Family_2 [H]C([H])=C([H])[H] | RMSD: 0.4663 | 3352.00 to state    1 from traj    1 on state    2
C     -1.667636     0.062112    -0.088761
H     -1.402064     0.553363     0.747949
H     -2.725555    -0.108525    -0.184840
C     -0.864148     1.482532     0.039625
H     -1.437048     2.375554     0.465983
H      0.000883     1.528955    -0.446886
6
Family_2 [H]C([H])=C([H])[H] | RMSD: 0.5610 | 1020.00 to state    1 from traj    1 on state    2
C     -1.620573     0.139385    -0.128442
H     -1.470267     0.413745     1.108780
H     -2.706535     0.042572     0.047524
C     -0.881280     1.432759     0.076878
H     -1.714888     2.200944     0.083762
H     -0.028742     1.364404    -0.628934
6
Family_2 [H]C([H])=C([H])[H] | RMSD: 0.5736 | 632.00 to state    1 from traj    1 on state    2
C     -1.725956    -0.078316    -0.116659
H     -1.043186    -0.322314     0.908965
H     -2.547473     0.767028     0.492357
C     -0.798288     1.634380    -0.083849
H     -1.679619     2.243839     0.147830
H     -0.383351     1.524725     0.836756
6
Family_2 [H]C([H])=C([H])[H] | RMSD: 0.3521 | 896.00 to state    1 from traj    1 on state    2
C     -1.602060     0.173048    -0.143366
H     -1.683854     0.152427     1.147730
H     -2.617830     0.119113     0.494965
C     -0.921912     1.382246    -0.047104
H     -1.526835     2.238027     0.406278
H      0.171643     1.712869     0.217323
6
Family_2 [H]C([H])=C([H])[H] | RMSD: 0.6932 | 16592.00 to state    1 from traj    1 on state    2
C     -1.582717     0.109535    -0.019961
H     -1.595988    -0.532931     0.912549
H     -2.208731     1.041894    -0.518277
C     -0.967846     1.419657    -0.010871
H     -1.426917     2.451944     0.528178
H     -0.108387     1.572557    -0.558354
6
Family_2 [H]C([H])=C([H])[H] | RMSD: 0.5743 | 3120.00 to state    1 from traj    1 on state    2
C     -1.542564     0.107162    -0.078594
H     -1.986629    -0.080693     1.242934
H     -2.832012     0.681319    -0.138465
C     -0.929380     1.432682    -0.017073
H     -1.441674     2.169801     0.737021
H     -0.016498     1.636115    -0.704834
6
Family_2 [H]C([H])=C([H])[H] | RMSD: 0.4648 | 7320.00 to state    1 from traj    1 on state    2
C     -1.562296     0.157293    -0.076024
H     -1.881727     0.059074     0.944087
H     -2.625170     0.413418    -0.133123
C     -0.973980     1.365743    -0.003059
H     -1.208063     2.269440     0.589041
H      0.204694     1.864878    -0.460970
6
Family_2 [H]C([H])=C([H])[H] | RMSD: 0.4280 | 8412.00 to state    1 from traj    1 on state    2
C     -1.579369     0.135667    -0.094042
H     -1.611634     0.353678     0.984700
H     -2.732602     0.123749    -0.081818
C     -0.938840     1.438694     0.016394
H     -1.359466     2.327346     0.448936
H     -0.021852     1.190479    -0.429871
6
Family_2 [H]C([H])=C([H])[H] | RMSD: 0.3741 | 1916.00 to state    1 from traj    1 on state    2
C     -1.628672     0.156786    -0.132315
H     -1.524411     0.310134     1.321103
H     -2.586213     0.168212     0.195496
C     -0.899061     1.381874    -0.053622
H     -1.641692     2.089822     0.670008
H      0.140257     1.852475     0.025670
6
Family_2 [H]C([H])=C([H])[H] | RMSD: 0.7319 | 2700.00 to state    1 from traj    1 on state    2
C     -1.639243     0.197309    -0.041336
H     -1.431938    -0.392184     0.681632
H     -2.656783     0.124757    -0.280716
C     -0.838726     1.335080     0.025408
H     -1.276028     2.334209     0.288696
H     -0.840272     2.428589    -0.503098
6
Family_2 [H]C([H])=C([H])[H] | RMSD: 0.7187 | 1640.00 to state    1 from traj    1 on state    2
C     -1.537129     0.136595    -0.010158
H     -1.747391    -0.488924     0.858515
H     -2.419929     0.949280    -0.565844
C     -0.991131     1.417344     0.009538
H     -1.307122     2.413443     0.479540
H     -0.131330     1.364786    -0.768105
6
Family_2 [H]C([H])=C([H])[H] | RMSD: 0.6732 | 4948.00 to state    1 from traj    1 on state    2
C     -1.749473     0.195086    -0.084047
H     -1.246920     0.402790     0.864052
H     -1.964332    -0.972870    -0.196130
C     -0.883101     1.437175    -0.011100
H     -1.291922     2.329153     0.353382
H      0.140367     1.546253     0.109150
6
Family_2 [H]C([H])=C([H])[H] | RMSD: 0.6938 | 5436.00 to state    1 from traj    1 on state    2
C     -1.569607     0.169549     0.023089
H     -1.661101    -0.489472     1.021059
H     -2.290537     0.167580    -0.845196
C     -1.059830     1.491823    -0.098893
H     -0.294235     2.063127     0.691858
H     -0.154315     1.217212     0.032249
6
Family_2 [H]C([H])=C([H])[H] | RMSD: 0.3716 | 1752.00 to state    1 from traj    1 on state    2
C     -1.539451     0.206283    -0.125898
H     -1.646497     0.319322     1.354245
H     -2.652134     0.108455     0.075646
C     -1.004179     1.380455    -0.025418
H     -1.113852     2.257247     0.469267
H     -0.010151     1.162736    -0.099406
6
Family_2 [H]C([H])=C([H])[H] | RMSD: 0.3501 | 4964.00 to state    1 from traj    1 on state    2
C     -1.601062     0.174488    -0.098133
H     -1.505746     0.338600     1.147697
H     -2.646114     0.028056    -0.145150
C     -0.958294     1.392485    -0.015051
H     -1.345161     2.199284     0.542122
H      0.261770     1.517334    -0.199291
6
Family_2 [H]C([H])=C([H])[H] | RMSD: 0.7221 | 1536.00 to state    1 from traj    1 on state    2
C     -1.729518     0.246095    -0.039653
H     -1.018267     0.176507     0.942477
H     -1.838540    -0.717888    -0.686194
C     -0.941242     1.386452    -0.013564
H     -1.407882     2.418807     0.440436
H      0.356888     1.424493    -0.065888
6
Family_2 [H]C([H])=C([H])[H] | RMSD: 0.5333 | 980.00 to state    1 from traj    1 on state    2
C     -1.599348     0.168699    -0.071170
H     -1.304492     0.456089     0.971062
H     -2.533037     0.099634    -0.505254
C     -0.965894     1.386372     0.042033
H     -1.220417     2.347432     0.458455
H     -0.107167     1.321938    -0.580351
6
Family_2 [H]C([H])=C([H])[H] | RMSD: 0.4375 | 1768.00 to state    1 from traj    1 on state    2
C     -1.555714     0.139886    -0.105763
H     -1.843089     0.093826     1.154011
H     -3.051425    -0.088984     0.019054
C     -0.941132     1.455942     0.008944
H     -1.065076     2.456606     0.382070
H     -0.020507     1.278010    -0.404749
6
Family_2 [H]C([H])=C([H])[H] | RMSD: 0.4860 | 2568.00 to state    1 from traj    1 on state    2
C     -1.605763     0.133934    -0.120800
H     -1.712459     0.210496     0.982764
H     -2.510399     0.279484     0.088608
C     -0.912211     1.371380     0.051030
H     -1.424646     2.506485     0.317427
H     -0.080842     1.821533    -0.560725
6
Family_2 [H]C([H])=C([H])[H] | RMSD: 0.5634 | 1388.00 to state    1 from traj    1 on state    2
C     -1.653038     0.238988     0.010772
H     -1.199517    -0.427879     0.800330
H     -2.390957    -0.166665    -0.675832
C     -0.972631     1.361975    -0.126219
H     -0.888358     2.245158     0.811567
H      0.033742     2.027654     0.436275
6
Family_2 [H]C([H])=C([H])[H] | RMSD: 0.7403 | 564.00 to state    1 from traj    1 on state    2
C     -1.595976     0.043610    -0.020268
H     -1.860191     0.365468     0.973450
H     -2.439937    -0.141308    -0.590845
C     -0.981203     1.629675    -0.061044
H     -0.433090     1.922178     0.864200
H     -0.289667     0.670159    -0.281202
6
Family_2 [H]C([H])=C([H])[H] | RMSD: 0.3209 | 584.00 to state    1 from traj    1 on state    2
C     -1.731648    -0.027131    -0.120009
H     -1.214601     0.276733     0.933156
H     -2.776808     0.009337     0.242706
C     -0.823899     1.597966    -0.047070
H     -1.614551     2.180686     0.359361
H      0.325320     1.570506     0.452353
6
Family_2 [H]C([H])=C([H])[H] | RMSD: 0.5215 | 2896.00 to state    1 from traj    1 on state    2
C     -1.488522     0.233918    -0.068802
H     -1.984853    -0.098684     1.135344
H     -2.601192     0.462261    -0.168653
C     -1.034870     1.340331    -0.015355
H     -1.151252     2.317937     0.569634
H      0.073503     1.315068    -0.536818
6
Family_2 [H]C([H])=C([H])[H] | RMSD: 0.6759 | 4292.00 to state    1 from traj    1 on state    2
C     -1.569406     0.238046     0.004799
H     -1.260544     0.006201     1.025605
H     -2.161307     0.116904    -0.793097
C     -1.045403     1.440411    -0.077733
H     -1.015095     1.993256     0.677319
H     -0.137540     0.638507    -0.044058
6
Family_2 [H]C([H])=C([H])[H] | RMSD: 0.6475 | 3424.00 to state    1 from traj    1 on state    2
C     -1.565121     0.218796     0.013544
H     -1.515525    -0.216573     1.012903
H     -2.265052     0.047917    -0.710543
C     -1.026518     1.476917    -0.096809
H     -0.814856     1.925668     0.705152
H     -0.255138     0.792246    -0.018632
6
Family_2 [H]C([H])=C([H])[H] | RMSD: 0.6018 | 2240.00 to state    1 from traj    1 on state    2
C     -1.486733     0.251437    -0.079645
H     -1.998798     0.032809     0.927918
H     -2.916716     0.131607    -0.021037
C     -0.979629     1.337512     0.042485
H     -1.207201     2.340245     0.301843
H     -0.220615     1.316763    -0.769217
6
Family_2 [H]C([H])=C([H])[H] | RMSD: 0.4131 | 6476.00 to state    1 from traj    1 on state    2
C     -1.692113     0.043235    -0.134515
H     -1.295333     0.257125     0.847193
H     -2.458298     0.236628     0.518981
C     -0.852035     1.509738    -0.049355
H     -1.623090     2.154867     0.266968
H     -0.039744     1.601468     0.554510
6
Family_2 [H]C([H])=C([H])[H] | RMSD: 0.4809 | 6576.00 to state    1 from traj    1 on state    2
C     -1.685741     0.053212    -0.143758
H     -1.183121     0.276671     0.884170
H     -2.638935     0.286105     0.609697
C     -0.844559     1.500980    -0.058292
H     -1.852067     2.119334     0.246597
H      0.092653     1.553467     0.663810
6
Family_2 [H]C([H])=C([H])[H] | RMSD: 0.7318 | 1868.00 to state    1 from traj    1 on state    2
C     -1.608604     0.138787     0.011344
H     -1.412053    -0.136755     1.046289
H     -2.121955    -0.053246    -0.919475
C     -1.028992     1.534758    -0.083956
H     -0.490449     2.277739     0.772724
H     -0.278507     0.725664    -0.037600
6
Family_2 [H]C([H])=C([H])[H] | RMSD: 0.7347 | 2016.00 to state    1 from traj    1 on state    2
C     -1.569678     0.167257    -0.005255
H     -1.491273    -0.399487     1.106225
H     -2.267982     0.033594    -0.815715
C     -1.048140     1.500297    -0.041471
H     -0.611094     2.665607     0.501352
H     -0.168282     0.585077    -0.238370
6
Family_2 [H]C([H])=C([H])[H] | RMSD: 0.6321 | 2136.00 to state    1 from traj    1 on state    2
C     -1.695689     0.240809    -0.078847
H     -1.014619     0.261902     1.131600
H     -2.298178    -0.558943    -0.551377
C     -0.911872     1.360852     0.044510
H     -1.454036     2.326710     0.204749
H      0.105979     1.640278    -0.379098
6
Family_2 [H]C([H])=C([H])[H] | RMSD: 0.6565 | 1412.00 to state    1 from traj    1 on state    2
C     -1.533121     0.171138    -0.040554
H     -1.868164    -0.318843     1.104479
H     -2.276887     0.859903    -0.348656
C     -0.990517     1.390137    -0.021256
H     -1.420424     2.228085     0.630889
H     -0.095375     1.382027    -0.653489
6
Family_2 [H]C([H])=C([H])[H] | RMSD: 0.6968 | 2464.00 to state    1 from traj    1 on state    2
C     -1.601041     0.085421    -0.027623
H     -1.597761    -0.495549     1.001700
H     -2.329518     1.094299    -0.530203
C     -0.947713     1.422395    -0.011651
H     -1.440692     2.253507     0.565174
H      0.006388     1.935924    -0.571979
6
Family_2 [H]C([H])=C([H])[H] | RMSD: 0.7942 | 2596.00 to state    1 from traj    1 on state    2
C     -1.558044     0.115420    -0.033695
H     -1.924966    -0.433984     0.934522
H     -2.488067     1.072647    -0.314891
C     -0.911876     1.393406     0.001116
H     -1.479936     2.107678     0.625995
H     -0.407968     2.029806    -0.860696
6
Family_2 [H]C([H])=C([H])[H] | RMSD: 0.7207 | 2824.00 to state    1 from traj    1 on state    2
C     -1.601517     0.226365    -0.054681
H     -1.016594    -0.456064     0.524103
H     -2.629515     0.341641     0.321928
C     -0.884159     1.362091    -0.118252
H     -1.337602     2.342713     0.330548
H     -1.129483     1.598995     0.880747
6
Family_2 [H]C([H])=C([H])[H] | RMSD: 0.4571 | 3216.00 to state    1 from traj    1 on state    2
C     -1.656417     0.022181    -0.102998
H     -1.512328     0.378637     1.127766
H     -2.664300     0.389277    -0.095238
C     -0.857890     1.525580     0.011486
H     -1.581928     1.931069     0.489087
H     -0.013484     1.613224    -0.434471
6
Family_2 [H]C([H])=C([H])[H] | RMSD: 0.6390 | 5392.00 to state    1 from traj    1 on state    2
C     -1.499021     0.116303    -0.058518
H     -2.223337    -0.348111     1.123314
H     -2.866546     0.451188    -0.211495
C     -1.005613     1.483858     0.002463
H     -0.915647     2.446751     0.455739
H      0.118228     1.137990    -0.702900
6
Family_2 [H]C([H])=C([H])[H] | RMSD: 0.6822 | 3628.00 to state    1 from traj    1 on state    2
C     -1.692151     0.255853    -0.090652
H     -1.049880     0.343540     1.171054
H     -2.392488    -0.722352    -0.416217
C     -0.887790     1.381329     0.055655
H     -1.554339     2.139931     0.073567
H      0.006746     1.485574    -0.414680
6
Family_2 [H]C([H])=C([H])[H] | RMSD: 0.5045 | 824.00 to state    1 from traj    1 on state    2
C     -1.580582     0.123445    -0.062817
H     -1.425049     0.469285     0.814314
H     -2.677531     0.497220    -0.323145
C     -0.944266     1.410600     0.008618
H     -1.381717     2.060887     0.619646
H     -0.162133     1.448252    -0.468282
6
Family_2 [H]C([H])=C([H])[H] | RMSD: 0.6006 | 968.00 to state    1 from traj    1 on state    2
C     -1.566574     0.127177    -0.039274
H     -1.376539    -0.266971     1.015361
H     -2.232278     1.111532    -0.494901
C     -1.023632     1.398723    -0.024902
H     -1.296739     2.286225     0.492056
H      0.037900     1.441915    -0.251094
6
Family_2 [H]C([H])=C([H])[H] | RMSD: 0.5545 | 5052.00 to state    1 from traj    1 on state    2
C     -1.587970     0.087216    -0.069304
H     -1.551111     0.227098     0.916314
H     -2.580292     0.792400    -0.344080
C     -0.943545     1.398645     0.021583
H     -1.487408     2.300411     0.641974
H      0.051809     1.729865    -0.648855
6
Family_2 [H]C([H])=C([H])[H] | RMSD: 0.6797 | 7956.00 to state    1 from traj    1 on state    2
C     -1.705206     0.289661    -0.070439
H     -1.023825     0.180683     0.978859
H     -2.067557    -0.566939    -0.409224
C     -0.891726     1.319020     0.029694
H     -1.716923     2.244774     0.196604
H      0.020796     1.727779    -0.284006
6
Family_2 [H]C([H])=C([H])[H] | RMSD: 0.6409 | 8164.00 to state    1 from traj    1 on state    2
C     -1.713838     0.244487    -0.051029
H     -1.055421     0.390395     0.822500
H     -2.265566    -0.693635    -0.405642
C     -0.891365     1.392561    -0.022013
H     -1.608148     1.940353     0.426834
H      0.240178     1.611179     0.023372
6
Family_2 [H]C([H])=C([H])[H] | RMSD: 0.5248 | 2612.00 to state    1 from traj    1 on state    2
C     -1.599571     0.132361    -0.088523
H     -1.333471     0.377323     1.303952
H     -2.746048     0.319321    -0.540154
C     -0.954734     1.399633     0.034682
H     -1.247952     2.179048     0.526047
H      0.032037     1.624377    -0.651578
6
Family_2 [H]C([H])=C([H])[H] | RMSD: 0.5525 | 2752.00 to state    1 from traj    1 on state    2
C     -1.641688     0.126436    -0.086153
H     -1.278515     0.537403     0.929859
H     -2.633449     0.094002    -0.410710
C     -0.891720     1.373664     0.045002
H     -1.488209     2.505114     0.637664
H     -0.144263     1.743587    -0.669753
6
Family_2 [H]C([H])=C([H])[H] | RMSD: 0.2204 | 740.00 to state    1 from traj    1 on state    2
C     -1.692368    -0.038009    -0.105362
H     -1.380229     0.296467     0.850724
H     -2.874604    -0.061145     0.155688
C     -0.862375     1.609101    -0.063672
H     -1.180066     2.438847     0.562500
H      0.144682     1.360028     0.441950
6
Family_2 [H]C([H])=C([H])[H] | RMSD: 0.3952 | 960.00 to state    1 from traj    1 on state    2
C     -1.715569     0.014529    -0.148830
H     -1.324288     0.102519     1.068134
H     -2.570548     0.221724     0.526967
C     -0.822392     1.532088    -0.048422
H     -1.739225     2.205444     0.256812
H      0.143880     1.796154     0.495201
6
Family_2 [H]C([H])=C([H])[H] | RMSD: 0.4475 | 2616.00 to state    1 from traj    1 on state    2
C     -1.619475     0.129660    -0.123648
H     -1.548162     0.391630     0.877572
H     -2.641608    -0.037079     0.059038
C     -0.925473     1.407106     0.068815
H     -1.244202     2.498047     0.119611
H      0.027040     1.590617    -0.406141
6
Family_2 [H]C([H])=C([H])[H] | RMSD: 0.3330 | 2952.00 to state    1 from traj    1 on state    2
C     -1.682937     0.051434    -0.135713
H     -1.441200     0.367755     1.235286
H     -2.601264    -0.241263     0.115717
C     -0.874298     1.540399    -0.008577
H     -1.334214     2.348193     0.350466
H      0.116160     1.312368     0.014561
6
Family_2 [H]C([H])=C([H])[H] | RMSD: 0.6601 | 2400.00 to state    1 from traj    1 on state    2
C     -1.586460     0.168763     0.009063
H     -1.686279    -0.089815     1.111030
H     -2.362270    -0.220833    -0.764261
C     -1.040854     1.521169    -0.134273
H     -0.484509     1.993479     0.999991
H      0.107578     0.935299     0.141927
6
Family_2 [H]C([H])=C([H])[H] | RMSD: 0.6924 | 2588.00 to state    1 from traj    1 on state    2
C     -1.526015     0.106885    -0.024640
H     -2.145011    -0.276655     0.599472
H     -2.620570     0.652062    -0.259597
C     -0.959515     1.426066     0.006895
H     -1.043683     2.571253     0.659258
H     -0.305667     1.542016    -0.790968
6
Family_2 [H]C([H])=C([H])[H] | RMSD: 0.5926 | 2580.00 to state    1 from traj    1 on state    2
C     -1.652923     0.238695    -0.050775
H     -0.995646     0.271337     1.015732
H     -2.389583    -0.308632    -0.740889
C     -0.952435     1.339323     0.020899
H     -1.318063     2.483366     0.478444
H      0.016176     1.505595    -0.400576
6
Family_2 [H]C([H])=C([H])[H] | RMSD: 0.7517 | 1136.00 to state    1 from traj    1 on state    2
C     -1.730998     0.213202    -0.124890
H     -1.516636     0.269878     1.104880
H     -1.463888    -0.811561     0.197926
C     -0.930849     1.431806    -0.033577
H     -1.187029     2.312179     0.208195
H      0.153544     1.382947     0.373954
6
Family_2 [H]C([H])=C([H])[H] | RMSD: 0.6975 | 4040.00 to state    1 from traj    1 on state    2
C     -1.528192     0.236834     0.039237
H     -1.478545    -0.515048     0.835290
H     -2.441359     0.279268    -0.815425
C     -1.029981     1.437475    -0.081716
H     -0.953483     2.319491     0.695550
H     -0.375959     0.720583    -0.212538
6
Family_2 [H]C([H])=C([H])[H] | RMSD: 0.8008 | 1036.00 to state    1 from traj    1 on state    2
C     -1.590410     0.042356    -0.062044
H     -2.073018    -0.142803     0.869410
H     -2.383101     0.854620    -0.119383
C     -0.863565     1.462009     0.030206
H     -1.307580     2.182879     0.591183
H     -0.727241     1.934596    -0.965123
6
Family_2 [H]C([H])=C([H])[H] | RMSD: 0.7169 | 1288.00 to state    1 from traj    1 on state    2
C     -1.628220     0.012049    -0.109217
H     -1.653543     0.408320     1.071049
H     -2.726352     0.369603    -0.187861
C     -0.828417     1.475780     0.064229
H     -1.126877     2.435587     0.593584
H     -0.952437     1.812832    -0.943992
6
Family_2 [H]C([H])=C([H])[H] | RMSD: 0.5186 | 2288.00 to state    1 from traj    1 on state    2
C     -1.673709     0.143226    -0.166745
H     -1.381470     0.346444     0.968005
H     -2.444008    -0.137939     0.576959
C     -0.877286     1.421193     0.029674
H     -1.645772     2.241788    -0.122169
H      0.136369     1.663416     0.207216
6
Family_2 [H]C([H])=C([H])[H] | RMSD: 0.3789 | 2200.00 to state    1 from traj    1 on state    2
C     -1.529050     0.144657    -0.090953
H     -1.780328     0.266050     1.058595
H     -2.774685     0.282791    -0.042209
C     -1.014566     1.425215    -0.037372
H     -0.762196     2.198675     0.588324
H     -0.105593     1.301224    -0.078918
6
Family_2 [H]C([H])=C([H])[H] | RMSD: 0.5259 | 2716.00 to state    1 from traj    1 on state    2
C     -1.692452     0.172349    -0.080476
H     -1.147658     0.488219     0.883668
H     -2.572581    -0.504760    -0.297788
C     -0.877939     1.424492     0.016760
H     -1.484873     2.131893     0.358863
H      0.101350     1.612030    -0.188799
6
Family_2 [H]C([H])=C([H])[H] | RMSD: 0.6238 | 1132.00 to state    1 from traj    1 on state    2
C     -1.601905     0.043386    -0.116053
H     -1.451940    -0.316740     0.812772
H     -2.300394     0.740149     0.599212
C     -0.947448     1.516539    -0.093969
H     -1.062353     2.658176     0.229679
H     -0.539750     1.085664     0.857603
6
Family_2 [H]C([H])=C([H])[H] | RMSD: 0.3880 | 2628.00 to state    1 from traj    1 on state    2
C     -1.601993     0.052752    -0.074103
H     -1.562138     0.430161     0.958085
H     -2.562337     0.599576    -0.174722
C     -0.950646     1.465024    -0.070717
H     -1.284669     2.148099     0.988576
H      0.093860     1.491649    -0.049583
6
Family_2 [H]C([H])=C([H])[H] | RMSD: 0.7250 | 572.00 to state    1 from traj    1 on state    2
C     -1.652021    -0.032931    -0.097862
H     -1.427995    -0.708852     0.638636
H     -2.301789     0.856159     0.605038
C     -0.896075     1.594053    -0.084088
H     -1.136285     2.724903     0.009104
H     -0.503357     1.280779     0.911994
6
Family_2 [H]C([H])=C([H])[H] | RMSD: 0.5041 | 2080.00 to state    1 from traj    1 on state    2
C     -1.636876    -0.007819    -0.102487
H     -1.646576     0.128261     1.100166
H     -2.753805     0.710888    -0.098768
C     -0.855233     1.476029     0.004237
H     -1.390081     2.353239     0.697391
H     -0.246084     2.067725    -0.531359
6
Family_2 [H]C([H])=C([H])[H] | RMSD: 0.5869 | 2096.00 to state    1 from traj    1 on state    2
C     -1.546359     0.118231    -0.081417
H     -1.612243     0.210646     1.030251
H     -2.785598     0.738963    -0.262167
C     -0.939816     1.390255     0.037802
H     -1.428231     2.307496     0.541759
H     -0.281178     1.523092    -0.793422
6
Family_3 [H][C]C([H])([H])[H] | RMSD: 0.0000 | 3788.00 to state    1 from traj    1 on state    2
C     -1.729257     0.267109     0.118812
H     -0.213398     1.039763    -1.236597
H     -2.243014    -0.698997     0.170931
C     -0.994796     1.346527    -0.068554
H     -0.623461     2.204617    -0.217152
H     -0.192903     0.981878     0.680677
6
Family_3 [H][C]C([H])([H])[H] | RMSD: 0.3421 | 2976.00 to state    1 from traj    1 on state    2
C     -1.853067     0.209745     0.081805
H     -0.258136     1.459499    -1.282179
H     -1.941862    -0.700757     0.673375
C     -0.870674     1.347025    -0.077952
H     -0.755269     2.475302    -0.294391
H     -0.321223     0.970816     0.854006
6
Family_3 [H][C]C([H])([H])[H] | RMSD: 0.5292 | 7152.00 to state    1 from traj    1 on state    2
C     -1.831567     0.295558     0.077142
H     -0.166203     1.438161    -1.350249
H     -1.737924    -0.598499     0.857668
C     -0.868990     1.288220    -0.133357
H     -1.214123     2.140975     0.322386
H     -0.434493     0.902396     0.836757
6
Family_3 [H][C]C([H])([H])[H] | RMSD: 0.4181 | 20396.00 to state    1 from traj    1 on state    2
C     -1.805279     0.265708     0.132759
H     -0.543247     0.996104    -1.061399
H     -1.979667    -0.456516    -0.204725
C     -0.859671     1.297073    -0.045660
H     -1.290761     2.309214    -0.466745
H     -0.163342     1.284426     0.691736
6
Family_3 [H][C]C([H])([H])[H] | RMSD: 0.3557 | 44572.00 to state    1 from traj    1 on state    2
C     -1.839000     0.218766     0.084111
H     -0.132173     1.390116    -1.238467
H     -2.412116    -0.886405     0.518173
C     -0.849938     1.342282    -0.053432
H     -1.107914     2.301961    -0.282180
H     -0.038992     1.348210     0.633630
6
Family_3 [H][C]C([H])([H])[H] | RMSD: 0.3035 | 8356.00 to state    1 from traj    1 on state    2
C     -1.684515     0.241610     0.065925
H     -0.449847     1.080045    -0.983564
H     -2.613951    -0.557233     0.460440
C     -1.015564     1.321349    -0.074701
H     -0.438153     2.322625    -0.063161
H     -0.056484     1.285663     0.687575
6
Family_3 [H][C]C([H])([H])[H] | RMSD: 0.3583 | 8712.00 to state    2 from traj    2 on state    1
C     -1.771761     0.201992     0.164511
H     -0.042563     1.344608    -1.034634
H     -2.683888    -0.630507     0.075090
C     -0.920112     1.358201    -0.131351
H     -1.089179     2.357573    -0.164562
H      0.159410     1.092391     0.725709
6
Family_3 [H][C]C([H])([H])[H] | RMSD: 0.2688 | 9692.00 to state    1 from traj    3 on state    2
C     -1.780770     0.289945     0.129022
H     -0.425483     1.136665    -0.964745
H     -2.129103    -0.935606     0.075498
C     -0.948094     1.302004    -0.101767
H     -0.580505     2.204648    -0.025359
H     -0.080360     1.379963     0.586557
6
Family_3 [H][C]C([H])([H])[H] | RMSD: 0.4211 | 10316.00 to state    1 from traj    1 on state    2
C     -1.875658     0.143642     0.145617
H     -0.157528     1.207380    -1.290620
H     -2.360745    -0.626239     0.099173
C     -0.766573     1.414105    -0.061998
H     -1.502104     2.429080    -0.425183
H     -0.227363     1.182989     0.616972
6
Family_3 [H][C]C([H])([H])[H] | RMSD: 0.4968 | 19548.00 to state    1 from traj    1 on state    2
C     -1.925141     0.069262     0.144979
H     -0.513014     1.041566    -0.977390
H     -2.598366    -1.149246    -0.049526
C     -0.748360     1.504249    -0.080854
H     -0.952594     2.486240    -0.396708
H      0.188838     1.626809     0.656247
6
Family_3 [H][C]C([H])([H])[H] | RMSD: 0.3049 | 29060.00 to state    1 from traj    1 on state    2
C     -1.696513     0.297031     0.152608
H     -0.323264     0.662333    -1.023133
H     -2.126385    -0.518369    -0.211254
C     -1.004571     1.332438    -0.082353
H     -0.893974     2.387598    -0.147018
H     -0.202839     0.807032     0.540990
6
Family_3 [H][C]C([H])([H])[H] | RMSD: 0.4625 | 1716.00 to state    1 from traj    1 on state    2
C     -1.746006     0.234234     0.208127
H     -0.092967     1.378224    -0.932922
H     -2.551552    -0.412676    -0.157591
C     -0.902377     1.309686    -0.153676
H     -1.350884     2.621648    -0.265845
H     -0.179035     0.770767     0.704249
6
Family_3 [H][C]C([H])([H])[H] | RMSD: 0.4034 | 2340.00 to state    1 from traj    1 on state    2
C     -1.819182     0.197167     0.090968
H     -0.564389     1.063880    -1.147950
H     -2.393684    -0.661423     0.332563
C     -0.831528     1.350793    -0.100639
H     -1.116442     2.336190     0.122629
H     -0.072180     1.571176     0.804708
6
Family_3 [H][C]C([H])([H])[H] | RMSD: 0.4237 | 2524.00 to state    1 from traj    1 on state    2
C     -1.805748     0.221510     0.062750
H     -0.104978     1.231781    -1.070488
H     -2.423945    -0.476903     0.542278
C     -0.884228     1.312624    -0.041896
H     -1.301524     2.404950    -0.243323
H      0.151622     1.314755     0.519756
6
Family_3 [H][C]C([H])([H])[H] | RMSD: 0.3325 | 4960.00 to state    1 from traj    1 on state    2
C     -1.732761     0.214412     0.147445
H     -0.417107     1.143597    -1.162842
H     -2.683651    -0.715951     0.133653
C     -0.874410     1.361501    -0.118333
H     -1.049575     2.421726    -0.031513
H     -0.515172     1.127381     0.710533
6
Family_3 [H][C]C([H])([H])[H] | RMSD: 0.3854 | 7820.00 to state    1 from traj    1 on state    2
C     -1.772470     0.188902     0.136765
H     -0.200712     1.363495    -1.229227
H     -2.658460    -0.415856     0.153586
C     -0.890182     1.299379    -0.082141
H     -0.935314     2.564059    -0.185147
H     -0.209915     1.509242     0.606633
6
Family_3 [H][C]C([H])([H])[H] | RMSD: 0.4269 | 5024.00 to state    1 from traj    1 on state    2
C     -1.785227     0.254820     0.146218
H     -0.670053     0.804281    -1.277390
H     -2.044586    -0.587079    -0.281092
C     -0.859604     1.341765    -0.068308
H     -1.230580     2.399836    -0.365294
H     -0.271542     1.113397     0.992142
6
Family_3 [H][C]C([H])([H])[H] | RMSD: 0.8210 | 980.00 to state    1 from traj    1 on state    2
C     -1.598921     0.106977     0.031131
H     -1.261531     0.767509    -0.926688
H     -2.595913     0.721249     0.172213
C     -0.984385     1.392380     0.002019
H     -0.485424     2.090353    -0.630870
H     -0.607008     1.309856     0.987057
6
Family_3 [H][C]C([H])([H])[H] | RMSD: 0.3314 | 6516.00 to state    1 from traj    1 on state    2
C     -1.740196     0.243191     0.056177
H     -0.413789     1.092803    -0.937022
H     -2.382725    -0.412981     0.492648
C     -0.935961     1.290872    -0.043949
H     -0.918255     2.600822    -0.268809
H     -0.128719     1.194775     0.564193
6
Family_3 [H][C]C([H])([H])[H] | RMSD: 0.4299 | 14328.00 to state    1 from traj    1 on state    2
C     -1.814573     0.275913     0.059740
H     -0.041925     1.390879    -0.920691
H     -1.904115    -0.546371     0.803526
C     -0.934295     1.298805    -0.086160
H     -1.047214     2.351060    -0.132886
H      0.016165     0.795419     0.561589
6
Family_3 [H][C]C([H])([H])[H] | RMSD: 0.4109 | 928.00 to state    1 from traj    1 on state    2
C     -1.647308     0.199469     0.200590
H     -0.538352     1.024518    -1.199493
H     -2.576088    -0.217359    -0.242499
C     -1.003504     1.368010    -0.169616
H     -0.460194     2.299816     0.108213
H     -0.570857     0.970267     0.961432
6
Family_3 [H][C]C([H])([H])[H] | RMSD: 0.7063 | 4532.00 to state    1 from traj    1 on state    2
C     -1.736590     0.291112     0.235371
H     -0.383917     0.868391    -0.937541
H     -2.049878    -0.354344    -0.666582
C     -0.879551     1.336531    -0.128964
H     -1.772338     2.504459    -0.509641
H     -0.352489     0.341846     0.842568
6
Family_3 [H][C]C([H])([H])[H] | RMSD: 0.4440 | 8732.00 to state    1 from traj    1 on state    2
C     -1.846319     0.198183     0.162430
H     -0.628672     0.847531    -0.943090
H     -2.123858    -0.706172    -0.253831
C     -0.837905     1.353377    -0.115090
H     -0.950531     2.577436     0.012267
H     -0.044305     1.548130     0.617290
6
Family_3 [H][C]C([H])([H])[H] | RMSD: 0.3956 | 3484.00 to state    1 from traj    1 on state    2
C     -1.745779     0.157727     0.202595
H     -0.215301     1.555339    -1.280289
H     -2.585603    -0.330346     0.056510
C     -0.907239     1.375481    -0.173665
H     -0.824946     2.457504    -0.175569
H     -0.493352     0.803121     1.051343
6
Family_3 [H][C]C([H])([H])[H] | RMSD: 0.4231 | 9908.00 to state    1 from traj    1 on state    2
C     -1.834455     0.216130     0.093930
H     -0.543013     0.948078    -1.176941
H     -2.099170    -0.912311     0.529580
C     -0.844763     1.383067    -0.148311
H     -0.906694     2.396507     0.487285
H     -0.258141     1.267031     0.804779
6
Family_3 [H][C]C([H])([H])[H] | RMSD: 0.3162 | 2248.00 to state    1 from traj    1 on state    2
C     -1.821014     0.225734     0.073597
H     -0.322234     1.075753    -0.925649
H     -1.956023    -0.705418     0.570737
C     -0.901757     1.371631    -0.075682
H     -0.881180     2.548485    -0.234883
H     -0.128611     0.802317     0.611359
6
Family_3 [H][C]C([H])([H])[H] | RMSD: 0.3870 | 8784.00 to state    1 from traj    1 on state    2
C     -1.877642     0.166877     0.099246
H     -0.197500     1.350485    -1.100080
H     -2.140529    -0.684375     0.689432
C     -0.816443     1.391039    -0.133138
H     -1.115908     2.455419     0.128716
H     -0.175929     1.069669     0.682485
6
Family_3 [H][C]C([H])([H])[H] | RMSD: 0.6093 | 1216.00 to state    1 from traj    1 on state    2
C     -1.835150     0.226032     0.055991
H     -1.023050     0.577351    -0.844787
H     -1.537344    -0.830864    -0.076461
C     -0.900774     1.440132     0.035550
H     -0.470600     1.909810    -0.845315
H     -0.100331     1.245049     0.672511
6
Family_3 [H][C]C([H])([H])[H] | RMSD: 0.4015 | 2996.00 to state    1 from traj    1 on state    2
C     -1.803324     0.248103     0.117079
H     -0.481329     1.083710    -1.059978
H     -2.377290    -0.799558     0.218752
C     -0.830705     1.301009    -0.105229
H     -1.236026     2.629931     0.055602
H     -0.250821     1.382021     0.641145
6
Family_3 [H][C]C([H])([H])[H] | RMSD: 0.5189 | 3992.00 to state    1 from traj    1 on state    2
C     -1.817719     0.234466     0.111034
H     -0.835969     0.735065    -0.926028
H     -1.928947    -0.747896    -0.289002
C     -0.843054     1.406109    -0.008584
H     -1.162268     2.076307    -0.795325
H     -0.099619     1.142775     0.786317
6
Family_3 [H][C]C([H])([H])[H] | RMSD: 0.2414 | 10000.00 to state    1 from traj    1 on state    2
C     -1.797948     0.211340     0.142222
H     -0.014696     1.214720    -1.114145
H     -2.241314    -0.672213     0.089594
C     -0.965513     1.351885    -0.062632
H     -0.501419     2.300090    -0.282108
H     -0.045775     1.285346     0.355000
6
Family_3 [H][C]C([H])([H])[H] | RMSD: 0.4529 | 2332.00 to state    1 from traj    1 on state    2
C     -1.812487     0.229867     0.069074
H     -0.170237     1.156808    -1.000115
H     -2.235511    -0.460054     0.648097
C     -0.893532     1.286569    -0.093264
H     -1.065905     2.587039     0.246706
H     -0.016017     1.401668     0.390273
6
Family_3 [H][C]C([H])([H])[H] | RMSD: 0.4220 | 3068.00 to state    1 from traj    1 on state    2
C     -1.857624     0.178041     0.153389
H     -0.336094     1.062984    -1.299339
H     -2.420550    -0.762793    -0.025168
C     -0.810543     1.359858    -0.109398
H     -1.210203     2.589454     0.000185
H      0.028148     1.540061     0.796860
6
Family_3 [H][C]C([H])([H])[H] | RMSD: 0.5112 | 6160.00 to state    1 from traj    1 on state    2
C     -1.840255     0.228134     0.063324
H     -0.324678     1.171525    -1.064541
H     -1.695786    -0.486530     0.806664
C     -0.836062     1.369876    -0.084930
H     -1.228864     2.398687    -0.074427
H     -0.592248     0.629776     0.586476
6
Family_3 [H][C]C([H])([H])[H] | RMSD: 0.4532 | 6108.00 to state    1 from traj    1 on state    2
C     -1.645245     0.225552     0.192927
H     -0.252514     1.376407    -1.068842
H     -2.780585    -0.152578     0.064029
C     -0.998127     1.294249    -0.202874
H     -0.715948     2.378613     0.347316
H     -0.485103     1.042915     0.772740
6
Family_3 [H][C]C([H])([H])[H] | RMSD: 0.3868 | 8348.00 to state    1 from traj    1 on state    2
C     -1.915776     0.046343     0.180790
H     -0.331615     1.073259    -0.785843
H     -2.389926    -0.875343    -0.001046
C     -0.785529     1.520947    -0.134723
H     -0.817198     2.749654    -0.251989
H     -0.005095     1.131936     0.486677
6
Family_3 [H][C]C([H])([H])[H] | RMSD: 0.4573 | 15876.00 to state    1 from traj    1 on state    2
C     -1.861834     0.142931     0.072439
H     -0.074807     0.970814    -0.896408
H     -2.409590    -0.841530     0.677419
C     -0.836028     1.449537    -0.076732
H     -1.167753     2.532436     0.023694
H      0.067285     1.117777     0.243172
6
Family_3 [H][C]C([H])([H])[H] | RMSD: 0.3656 | 16984.00 to state    1 from traj    1 on state    2
C     -1.891537     0.143701     0.106857
H     -0.226119     1.540454    -1.388634
H     -2.288565    -0.727054     0.494385
C     -0.800957     1.383517    -0.081016
H     -0.952395     2.332337    -0.265842
H     -0.181741     1.411243     0.848889
6
Family_3 [H][C]C([H])([H])[H] | RMSD: 0.5118 | 2704.00 to state    1 from traj    1 on state    2
C     -1.716644     0.221972     0.144829
H     -0.452848     1.194670    -1.412775
H     -2.658873    -0.243158     0.101912
C     -0.897352     1.313960    -0.155709
H     -1.240523     2.095847     0.319102
H     -0.231930     1.405797     1.118122
6
Family_3 [H][C]C([H])([H])[H] | RMSD: 0.4087 | 8592.00 to state    1 from traj    1 on state    2
C     -1.838230     0.238903     0.133624
H     -0.445535     1.168936    -1.024931
H     -2.214102    -0.884726    -0.134126
C     -0.823007     1.342797    -0.026351
H     -1.204836     2.270706    -0.685303
H     -0.156801     1.352874     0.562848
6
Family_3 [H][C]C([H])([H])[H] | RMSD: 0.3767 | 10236.00 to state    1 from traj    1 on state    2
C     -1.755371     0.261601     0.091373
H     -0.191029     1.435972    -0.902162
H     -2.515750    -0.889191     0.658557
C     -0.951517     1.325765    -0.139848
H     -0.842796     2.388127     0.004595
H      0.072263     0.905377     0.813338
6
Family_3 [H][C]C([H])([H])[H] | RMSD: 0.4391 | 14856.00 to state    1 from traj    1 on state    2
C     -1.777753     0.321253     0.100214
H     -0.312315     1.278891    -1.079737
H     -1.737228    -0.630235     0.634971
C     -0.958972     1.272510    -0.168548
H     -0.726436     2.165744     0.507994
H     -0.345794     0.949656     0.747725
6
Family_3 [H][C]C([H])([H])[H] | RMSD: 0.4810 | 16484.00 to state    1 from traj    1 on state    2
C     -1.713129     0.287911     0.020055
H     -0.124643     0.915459    -1.250557
H     -2.544104    -0.454656     0.753926
C     -0.983425     1.266728    -0.049660
H     -1.119240     2.358405     0.278770
H      0.187539     1.411040     0.567343
6
Family_3 [H][C]C([H])([H])[H] | RMSD: 0.4249 | 2296.00 to state    1 from traj    1 on state    2
C     -1.794305     0.131157     0.192045
H      0.133167     1.340608    -1.027424
H     -2.692711    -0.569685     0.262542
C     -0.900892     1.421505    -0.192750
H     -0.890858     2.413882     0.367972
H     -0.166201     1.068989     0.402022
6
Family_3 [H][C]C([H])([H])[H] | RMSD: 0.3393 | 5044.00 to state    1 from traj    1 on state    2
C     -1.772694     0.268640     0.123426
H     -0.477966     0.842064    -0.965718
H     -2.159080    -0.673776    -0.159568
C     -0.953224     1.318525    -0.064966
H     -0.860830     2.408834    -0.319326
H      0.247320     1.265552     0.744742
6
Family_3 [H][C]C([H])([H])[H] | RMSD: 0.3630 | 9452.00 to state    1 from traj    1 on state    2
C     -1.770532     0.176622     0.023025
H     -0.616803     0.907397    -1.024888
H     -2.299786    -0.515290     0.583247
C     -0.938455     1.376864    -0.013785
H     -0.508895     2.632509    -0.431468
H     -0.026814     1.219369     0.759728
6
Family_3 [H][C]C([H])([H])[H] | RMSD: 0.4136 | 4956.00 to state    1 from traj    1 on state    2
C     -1.820118     0.282326     0.078416
H     -0.271349     1.413005    -1.276103
H     -2.062136    -0.637324     0.654290
C     -0.859654     1.265277    -0.105962
H     -1.249554     2.380119     0.070819
H     -0.217380     1.158290     0.875950
6
Family_3 [H][C]C([H])([H])[H] | RMSD: 0.3627 | 6384.00 to state    1 from traj    1 on state    2
C     -1.784757     0.317560     0.058355
H     -0.198985     1.054626    -1.362287
H     -2.072819    -0.630699     0.503197
C     -0.928087     1.258262    -0.056098
H     -1.210885     2.252016     0.061805
H      0.076351     1.301888     0.767109
6
Family_3 [H][C]C([H])([H])[H] | RMSD: 0.3004 | 6488.00 to state    1 from traj    1 on state    2
C     -1.749449     0.312181     0.044908
H     -0.329523     1.014228    -1.314080
H     -2.215780    -0.639560     0.448248
C     -0.936653     1.247493    -0.002257
H     -1.059810     2.579122    -0.366069
H     -0.119875     1.216455     0.720404
6
Family_3 [H][C]C([H])([H])[H] | RMSD: 0.3067 | 6536.00 to state    2 from traj    4 on state    1
C     -1.734600     0.296174     0.047076
H     -0.344582     1.010556    -1.322003
H     -2.281790    -0.590509     0.394173
C     -0.942256     1.259525     0.019778
H     -0.978800     2.623884    -0.550991
H     -0.229985     1.173688     0.678917
6
Family_3 [H][C]C([H])([H])[H] | RMSD: 0.4644 | 2032.00 to state    1 from traj    1 on state    2
C     -1.911002     0.139459     0.121175
H     -0.144447     1.558413    -1.003238
H     -2.317182    -0.786223     0.572229
C     -0.817764     1.355130    -0.144412
H     -0.810547     2.682600     0.117739
H      0.055566     1.490991     0.586873
6
Family_3 [H][C]C([H])([H])[H] | RMSD: 0.3226 | 2936.00 to state    1 from traj    1 on state    2
C     -1.768353     0.185847     0.141860
H     -0.359266     0.905307    -0.863433
H     -2.229990    -0.678174    -0.012912
C     -0.953600     1.408149    -0.066095
H     -0.485653     2.689434    -0.494564
H     -0.222889     0.844714     0.464838
6
Family_3 [H][C]C([H])([H])[H] | RMSD: 0.2574 | 5396.00 to state    1 from traj    1 on state    2
C     -1.731147     0.269478     0.128839
H     -0.484331     1.074597    -1.409101
H     -2.224694    -0.553501     0.030168
C     -0.923941     1.307260    -0.066037
H     -0.859232     2.305940    -0.257539
H     -0.526278     1.139888     0.884857
6
Family_3 [H][C]C([H])([H])[H] | RMSD: 0.2847 | 6608.00 to state    1 from traj    1 on state    2
C     -1.687577     0.220423     0.169603
H     -0.060649     1.173024    -1.075594
H     -2.553584    -0.236665    -0.043478
C     -1.024344     1.328995    -0.110970
H     -0.638060     2.302085    -0.104646
H     -0.165039     1.054009     0.521792
6
Family_3 [H][C]C([H])([H])[H] | RMSD: 0.3966 | 2084.00 to state    1 from traj    1 on state    2
C     -1.839879     0.255925     0.128757
H     -0.342165     1.388634    -1.345689
H     -2.145661    -0.686767    -0.039990
C     -0.853112     1.280505    -0.037666
H     -1.108264     2.226558    -0.567386
H     -0.046801     1.518796     0.864376
6
Family_3 [H][C]C([H])([H])[H] | RMSD: 0.4905 | 4520.00 to state    1 from traj    1 on state    2
C     -1.823239     0.262457     0.130525
H     -0.269574     1.466334    -0.943153
H     -1.818942    -0.610075     0.643147
C     -0.914339     1.285100    -0.213744
H     -0.694281     2.515093     0.555673
H     -0.328828     0.943279     0.732670
6
Family_3 [H][C]C([H])([H])[H] | RMSD: 0.4731 | 4548.00 to state    1 from traj    1 on state    2
C     -1.853295     0.250620     0.101349
H     -0.295326     1.764282    -1.082260
H     -1.946347    -0.720831     0.754056
C     -0.884322     1.277222    -0.170584
H     -0.738399     2.440286     0.114377
H     -0.131075     1.065809     1.035525
6
Family_3 [H][C]C([H])([H])[H] | RMSD: 0.5358 | 6008.00 to state    1 from traj    1 on state    2
C     -1.822986     0.250031     0.119089
H     -0.755317     0.588306    -1.060788
H     -1.940652    -0.771809    -0.404313
C     -0.873620     1.376772    -0.021521
H     -1.131906     2.247928    -0.602337
H      0.228050     1.305935     0.901565
6
Family_3 [H][C]C([H])([H])[H] | RMSD: 0.3657 | 9032.00 to state    1 from traj    1 on state    2
C     -1.788188     0.261749     0.109036
H     -0.532546     0.947533    -1.307783
H     -2.195395    -0.608417    -0.054425
C     -0.861632     1.294754    -0.022670
H     -1.164814     2.411175    -0.392175
H     -0.264560     1.457748     0.721999
6
Family_3 [H][C]C([H])([H])[H] | RMSD: 0.4114 | 11428.00 to state    1 from traj    1 on state    2
C     -1.784886     0.266852     0.077283
H     -0.608391     1.073530    -1.065130
H     -2.202435    -0.711984     0.498895
C     -0.851670     1.314474    -0.116426
H     -1.177914     2.228399     0.276862
H     -0.326615     1.322308     0.752503
6
Family_3 [H][C]C([H])([H])[H] | RMSD: 0.4376 | 12520.00 to state    1 from traj    1 on state    2
C     -1.796816     0.224271     0.113922
H     -0.767506     1.041143    -1.197634
H     -2.202428    -0.634094     0.007647
C     -0.803085     1.356636    -0.050718
H     -1.295812     2.363813    -0.526276
H     -0.486388     1.146375     0.959853
6
Family_3 [H][C]C([H])([H])[H] | RMSD: 0.3169 | 2588.00 to state    1 from traj    1 on state    2
C     -1.687155     0.238635     0.170532
H     -0.231215     1.147458    -1.126930
H     -2.532016    -0.255169    -0.025363
C     -0.984598     1.291679    -0.131658
H     -0.778577     2.558609     0.034853
H     -0.354157     1.069195     0.650957
6
Family_3 [H][C]C([H])([H])[H] | RMSD: 0.3616 | 5180.00 to state    1 from traj    1 on state    2
C     -1.797202     0.208568     0.087833
H     -0.366344     1.004212    -0.915216
H     -2.312090    -0.733143     0.473365
C     -0.908384     1.343538    -0.099456
H     -0.757277     2.839128     0.023836
H     -0.057117     1.150230     0.553230
6
Family_3 [H][C]C([H])([H])[H] | RMSD: 0.3255 | 5532.00 to state    1 from traj    1 on state    2
C     -1.770843     0.165766     0.162411
H     -0.022766     1.357602    -1.173097
H     -2.609998    -0.526227     0.064424
C     -0.914002     1.391099    -0.077729
H     -0.933404     2.470529    -0.566480
H     -0.173797     0.901818     0.662826
6
Family_3 [H][C]C([H])([H])[H] | RMSD: 0.4317 | 11292.00 to state    1 from traj    1 on state    2
C     -1.822326     0.239729     0.060123
H     -0.246273     1.162503    -0.803403
H     -2.132666    -0.732527     0.758627
C     -0.869882     1.341011    -0.094680
H     -1.157039     2.493906     0.053569
H     -0.116254     0.995362     0.399692
6
Family_3 [H][C]C([H])([H])[H] | RMSD: 0.4847 | 9056.00 to state    1 from traj    1 on state    2
C     -1.810183     0.147856     0.082611
H     -0.411458     0.706730    -0.962251
H     -2.472712    -0.568617     0.463842
C     -0.846590     1.447232    -0.122499
H     -1.327093     2.466900     0.304994
H      0.136793     1.143257     0.665425
6
Family_3 [H][C]C([H])([H])[H] | RMSD: 0.2808 | 15744.00 to state    1 from traj    1 on state    2
C     -1.741075     0.282970     0.124153
H     -0.342391     1.043172    -1.123716
H     -2.410824    -0.745490    -0.020126
C     -0.942465     1.284528    -0.052124
H     -0.938714     2.622964    -0.433640
H     -0.063589     1.156379     0.715934
6
Family_3 [H][C]C([H])([H])[H] | RMSD: 0.2465 | 19104.00 to state    1 from traj    1 on state    2
C     -1.872920     0.136978     0.093832
H     -0.225101     1.119169    -1.339347
H     -2.170470    -0.705841     0.468940
C     -0.842204     1.430106    -0.062954
H     -0.862217     2.492660    -0.227396
H     -0.121376     1.175974     0.726596
6
Family_3 [H][C]C([H])([H])[H] | RMSD: 0.3615 | 5012.00 to state    1 from traj    1 on state    2
C     -1.780499     0.264213     0.122875
H     -0.555159     0.910537    -1.092339
H     -2.120650    -0.633980    -0.137166
C     -0.894762     1.299367    -0.036942
H     -1.007366     2.661670    -0.531443
H     -0.170988     1.185486     0.733714
6
Family_3 [H][C]C([H])([H])[H] | RMSD: 0.3698 | 5412.00 to state    1 from traj    1 on state    2
C     -1.795270     0.283871     0.067721
H     -0.075499     1.011377    -1.243676
H     -2.215847    -0.657196     0.430882
C     -0.914975     1.298838    -0.039206
H     -1.312173     2.284604    -0.094869
H      0.166215     1.256990     0.564611
6
Family_3 [H][C]C([H])([H])[H] | RMSD: 0.4920 | 3864.00 to state    1 from traj    1 on state    2
C     -1.829245     0.233007     0.144161
H     -0.754370     0.775536    -1.112236
H     -1.771127    -0.640344    -0.451103
C     -0.900923     1.355953    -0.037996
H     -0.705339     2.400940    -0.646553
H      0.030927     1.285159     0.941574
6
Family_3 [H][C]C([H])([H])[H] | RMSD: 0.2391 | 7324.00 to state    1 from traj    1 on state    2
C     -1.816940     0.120428     0.082441
H     -0.227527     1.112634    -1.272076
H     -2.372546    -0.503253     0.464703
C     -0.887007     1.433876    -0.030472
H     -0.690143     2.430618    -0.396732
H     -0.222129     1.194247     0.581572
6
Family_3 [H][C]C([H])([H])[H] | RMSD: 0.4317 | 1196.00 to state    1 from traj    1 on state    2
C     -1.823280     0.250876     0.086566
H     -0.305982     1.070590    -1.390925
H     -2.303710    -0.710669     0.273177
C     -0.833921     1.324482    -0.050599
H     -1.503046     2.228171    -0.168632
H      0.043380     1.395278     0.854536
6
Family_3 [H][C]C([H])([H])[H] | RMSD: 0.4000 | 3464.00 to state    1 from traj    1 on state    2
C     -1.825194     0.133449     0.163246
H     -0.222567     1.554783    -1.020878
H     -2.626835    -0.632966     0.279546
C     -0.803023     1.395546    -0.133118
H     -1.102053     2.489754    -0.209638
H     -0.463265     1.124239     0.588700
6
Family_3 [H][C]C([H])([H])[H] | RMSD: 0.2878 | 2068.00 to state    1 from traj    1 on state    2
C     -1.815146     0.241570     0.090452
H     -0.374163     1.168337    -1.036416
H     -2.086448    -0.727543     0.482345
C     -0.888707     1.342132    -0.109375
H     -0.915669     2.210883     0.126601
H     -0.137199     1.232261     0.649662
6
Family_3 [H][C]C([H])([H])[H] | RMSD: 0.3338 | 6280.00 to state    1 from traj    1 on state    2
C     -1.777182     0.253661     0.164770
H     -0.364209     0.856513    -0.983898
H     -2.217240    -0.668162    -0.155875
C     -0.909917     1.337461    -0.126478
H     -1.098870     2.505886     0.040674
H     -0.032794     1.101283     0.639539
6
Family_3 [H][C]C([H])([H])[H] | RMSD: 0.3767 | 4084.00 to state    1 from traj    1 on state    2
C     -1.846388     0.162738     0.081617
H     -0.376774     1.069408    -0.956380
H     -2.290065    -0.589846     0.469874
C     -0.825938     1.406958    -0.085491
H     -1.281835     2.467014    -0.172772
H      0.059541     1.104261     0.702149
6
Family_3 [H][C]C([H])([H])[H] | RMSD: 0.3804 | 6740.00 to state    1 from traj    1 on state    2
C     -1.844884     0.220301     0.090860
H     -0.322924     1.154245    -1.436031
H     -2.094784    -0.726641     0.523424
C     -0.828750     1.362438    -0.100666
H     -1.174847     2.164209     0.198063
H     -0.281001     1.303594     0.828108
6
Family_3 [H][C]C([H])([H])[H] | RMSD: 0.2941 | 16976.00 to state    1 from traj    1 on state    2
C     -1.802916     0.163351     0.184477
H     -0.228781     1.385083    -1.201858
H     -2.434770    -0.515226     0.085937
C     -0.871720     1.364322    -0.158266
H     -0.835282     2.485754     0.054220
H     -0.362769     1.195955     0.746101
6
Family_3 [H][C]C([H])([H])[H] | RMSD: 0.4936 | 4676.00 to state    1 from traj    1 on state    2
C     -1.814685     0.235527     0.052654
H     -0.305255     1.093026    -1.036136
H     -2.175485    -0.470075     0.607855
C     -0.826480     1.331809    -0.043770
H     -1.627120     2.519280    -0.304528
H     -0.152576     0.936716     0.623671
6
Family_3 [H][C]C([H])([H])[H] | RMSD: 0.4879 | 2784.00 to state    1 from traj    1 on state    2
C     -1.808806     0.182303     0.093668
H     -0.709305     1.091942    -1.343879
H     -2.471954    -0.650156     0.385211
C     -0.769899     1.368588    -0.102807
H     -1.332607     2.429421     0.065095
H     -0.490820     1.403696     0.999196
6
Family_3 [H][C]C([H])([H])[H] | RMSD: 0.4342 | 5016.00 to state    1 from traj    1 on state    2
C     -1.711320     0.250958     0.160160
H     -0.466122     1.011486    -0.912661
H     -2.467567    -0.447317     0.050619
C     -0.901867     1.339800    -0.169538
H     -1.225173     2.126720     0.383146
H     -0.434953     1.108983     0.587362
6
Family_3 [H][C]C([H])([H])[H] | RMSD: 0.3983 | 9764.00 to state    1 from traj    1 on state    2
C     -1.849757     0.186822     0.127531
H     -0.360458     1.212903    -1.513815
H     -2.231855    -0.685968     0.295849
C     -0.842213     1.345775    -0.126757
H     -0.860343     2.377279     0.276640
H     -0.202412     1.588671     0.928814
6
Family_3 [H][C]C([H])([H])[H] | RMSD: 0.3818 | 15052.00 to state    1 from traj    1 on state    2
C     -1.814603     0.223317     0.126334
H     -0.243070     1.082087    -1.016106
H     -2.393721    -0.794478    -0.065983
C     -0.908856     1.339374    -0.043291
H     -0.865706     2.225966    -0.340884
H      0.222641     1.620721     0.430174
6
Family_3 [H][C]C([H])([H])[H] | RMSD: 0.3477 | 1484.00 to state    1 from traj    1 on state    2
C     -1.807070     0.205434     0.113954
H     -0.208924     1.214922    -1.147828
H     -2.442873    -0.633349     0.147708
C     -0.862918     1.350024    -0.034613
H     -1.216043     2.460316    -0.585343
H     -0.049148     1.178601     0.636779
6
Family_3 [H][C]C([H])([H])[H] | RMSD: 0.4149 | 1784.00 to state    1 from traj    1 on state    2
C     -1.795970     0.183824     0.158610
H     -0.222513     0.805542    -0.744606
H     -2.313187    -0.727070    -0.231064
C     -0.908459     1.453837    -0.056549
H     -1.059435     2.283550    -0.564988
H      0.088528     0.878960     0.321251
6
Family_3 [H][C]C([H])([H])[H] | RMSD: 0.6368 | 2864.00 to state    1 from traj    1 on state    2
C     -1.648159     0.164552     0.195505
H     -0.415370     1.419907    -1.131988
H     -2.989240    -0.085768     0.187110
C     -0.889000     1.369180    -0.219674
H     -1.141177     2.245194     0.385974
H     -0.953963     0.900031     0.843614
6
Family_3 [H][C]C([H])([H])[H] | RMSD: 0.4157 | 4608.00 to state    1 from traj    1 on state    2
C     -1.842538     0.291691     0.090668
H     -0.107230     1.241990    -1.245253
H     -1.725629    -0.926317     0.691149
C     -0.936709     1.312515    -0.132470
H     -0.656999     2.260777     0.379653
H     -0.125242     1.063176     0.669271
6
Family_3 [H][C]C([H])([H])[H] | RMSD: 0.4177 | 5312.00 to state    1 from traj    1 on state    2
C     -1.797751     0.176276     0.138488
H     -0.220415     1.237436    -1.107225
H     -2.596510    -0.446057     0.185296
C     -0.881484     1.343050    -0.131884
H     -1.064791     2.305891     0.191536
H      0.074906     1.553752     0.648414
6
Family_3 [H][C]C([H])([H])[H] | RMSD: 0.4927 | 6732.00 to state    1 from traj    1 on state    2
C     -1.831145     0.218493     0.071389
H     -0.121697     1.492971    -0.837094
H     -2.225936    -0.641270     0.603086
C     -0.873661     1.369420    -0.053753
H     -1.309656     2.232321    -0.680914
H      0.155173     0.749741     0.701499
6
Family_3 [H][C]C([H])([H])[H] | RMSD: 0.4843 | 14288.00 to state    1 from traj    1 on state    2
C     -1.724342     0.267999     0.008724
H     -0.596077     0.707241    -0.995019
H     -2.291161    -0.331564     0.681139
C     -0.929876     1.292915    -0.053192
H     -1.171151     2.483745     0.201208
H     -0.046511     1.296055     0.639251
6
Family_3 [H][C]C([H])([H])[H] | RMSD: 0.4212 | 18136.00 to state    1 from traj    1 on state    2
C     -1.794246     0.300426     0.073120
H     -0.460889     1.169459    -1.391662
H     -2.268412    -0.826187     0.464367
C     -0.858021     1.250856    -0.082441
H     -1.204826     2.429875     0.125004
H     -0.194026     1.497094     0.910082
6
Family_3 [H][C]C([H])([H])[H] | RMSD: 0.4637 | 20484.00 to state    1 from traj    1 on state    2
C     -1.730134     0.214156     0.198864
H     -0.101088     1.004447    -1.091247
H     -2.462552    -0.308837    -0.027738
C     -0.974318     1.329000    -0.209694
H     -0.825047     2.465275     0.681244
H     -0.117651     1.206189     0.563503
6
Family_3 [H][C]C([H])([H])[H] | RMSD: 0.3616 | 4588.00 to state    1 from traj    1 on state    2
C     -1.718790     0.228214     0.171496
H     -0.353462     1.341070    -0.930229
H     -2.545236    -0.401801     0.002053
C     -0.930684     1.304287    -0.138718
H     -0.941317     2.668016    -0.262753
H     -0.321420     0.886752     0.797080
6
Family_3 [H][C]C([H])([H])[H] | RMSD: 0.4614 | 2092.00 to state    1 from traj    1 on state    2
C     -1.835045     0.232324     0.150348
H     -0.662661     0.806288    -1.003507
H     -1.932031    -0.657850    -0.422501
C     -0.871137     1.344858    -0.053725
H     -0.967005     2.445395    -0.502212
H      0.075970     1.367800     0.773612
6
Family_3 [H][C]C([H])([H])[H] | RMSD: 0.3782 | 4496.00 to state    1 from traj    1 on state    2
C     -1.784494     0.231406     0.134021
H     -0.309892     0.757514    -1.083252
H     -2.357817    -0.661719    -0.037610
C     -0.898076     1.358834    -0.093752
H     -1.175625     2.349567     0.110616
H      0.076264     1.360667     0.527135
6
Family_3 [H][C]C([H])([H])[H] | RMSD: 0.4229 | 16352.00 to state    2 from traj    5 on state    1
C     -1.813094     0.141937     0.094005
H     -0.416754     1.508898    -0.990680
H     -2.687493    -0.560654     0.454932
C     -0.842305     1.369124    -0.088832
H     -0.919487     2.279725    -0.267174
H     -0.067098     1.521541     0.737996
6
Family_3 [H][C]C([H])([H])[H] | RMSD: 0.4132 | 16348.00 to state    1 from traj    1 on state    2
C     -1.809542     0.144353     0.100571
H     -0.414994     1.488025    -0.987615
H     -2.697481    -0.567883     0.403271
C     -0.843146     1.367676    -0.089047
H     -0.930081     2.314128    -0.284009
H     -0.080577     1.503707     0.727760
6
Family_3 [H][C]C([H])([H])[H] | RMSD: 0.4075 | 19636.00 to state    1 from traj    6 on state    2
C     -1.800192     0.252746     0.127287
H     -0.677956     0.831905    -0.905155
H     -1.727627    -0.896787    -0.171434
C     -0.939659     1.399619    -0.040110
H     -0.420240     2.126523    -0.588801
H     -0.258709     1.004142     0.623339
6
Family_3 [H][C]C([H])([H])[H] | RMSD: 0.2891 | 1236.00 to state    1 from traj    1 on state    2
C     -1.765142     0.149434     0.183924
H     -0.190760     0.865719    -1.257356
H     -2.471880    -0.685874     0.013288
C     -0.952057     1.471912    -0.175763
H     -0.605054     2.281197     0.341671
H     -0.086753     0.974343     0.801881
6
Family_3 [H][C]C([H])([H])[H] | RMSD: 0.5141 | 9412.00 to state    1 from traj    1 on state    2
C     -1.886005     0.204153     0.114750
H     -0.012604     1.477176    -1.187220
H     -1.696516    -0.655036     0.846532
C     -0.860510     1.386389    -0.175001
H     -0.921678     2.264186     0.364943
H     -0.374327     0.716113     0.690389
6
Family_3 [H][C]C([H])([H])[H] | RMSD: 0.4089 | 13400.00 to state    1 from traj    1 on state    2
C     -1.867055     0.141341     0.128483
H     -0.268676     1.138790    -1.048681
H     -2.459265    -0.738053     0.048450
C     -0.803047     1.418579    -0.045532
H     -1.273561     2.482857    -0.589609
H      0.085861     1.283731     0.598139
6
Family_3 [H][C]C([H])([H])[H] | RMSD: 0.5270 | 2632.00 to state    1 from traj    1 on state    2
C     -1.669959     0.240847     0.251446
H      0.060576     1.397199    -1.130091
H     -2.646051    -0.139969    -0.188632
C     -0.966828     1.298452    -0.213706
H     -1.155846     2.501670     0.206350
H     -0.571282     0.654135     0.659391
6
Family_3 [H][C]C([H])([H])[H] | RMSD: 0.2968 | 3848.00 to state    1 from traj    1 on state    2
C     -1.728222     0.194462     0.033397
H     -0.361736     0.763899    -1.075946
H     -2.413709    -0.503198     0.585427
C     -0.967765     1.411098    -0.014856
H     -0.774900     2.472595    -0.360254
H     -0.056853     0.890190     0.626559
6
Family_3 [H][C]C([H])([H])[H] | RMSD: 0.2819 | 3532.00 to state    1 from traj    1 on state    2
C     -1.752200     0.254765     0.161139
H     -0.081890     1.219207    -1.237212
H     -2.468585    -0.618376     0.005904
C     -0.942780     1.315163    -0.111105
H     -1.080089     2.452791    -0.198569
H      0.011359     0.994453     0.830401
6
Family_3 [H][C]C([H])([H])[H] | RMSD: 0.4597 | 3552.00 to state    1 from traj    1 on state    2
C     -1.863342     0.207308     0.128868
H     -0.577868     1.183288    -1.078693
H     -2.067588    -0.810633    -0.187392
C     -0.823466     1.379166    -0.021079
H     -1.086002     2.213707    -0.911921
H      0.014882     1.264556     0.890344
6
Family_3 [H][C]C([H])([H])[H] | RMSD: 0.5028 | 8980.00 to state    1 from traj    1 on state    2
C     -1.861600     0.168846     0.134538
H     -0.067383     1.462099    -0.902555
H     -1.863649    -0.642024     0.776662
C     -0.865691     1.426840    -0.192122
H     -0.806329     2.368789     0.293473
H     -0.496832     0.552281     0.515283
6
Family_3 [H][C]C([H])([H])[H] | RMSD: 0.3231 | 12696.00 to state    1 from traj    1 on state    2
C     -1.765552     0.318775     0.146754
H     -0.424459     1.069982    -1.040109
H     -2.061052    -0.657245    -0.259384
C     -0.944860     1.243867    -0.059939
H     -0.863107     2.283284    -0.309881
H     -0.086703     1.438869     0.571632
6
Family_3 [H][C]C([H])([H])[H] | RMSD: 0.4527 | 14252.00 to state    1 from traj    1 on state    2
C     -1.669430     0.268970     0.012321
H     -0.700653     0.607684    -0.866349
H     -2.300942    -0.323485     0.640762
C     -0.966799     1.343056    -0.048859
H     -1.054745     2.400120    -0.008004
H     -0.262913     0.862122     0.665681
6
Family_3 [H][C]C([H])([H])[H] | RMSD: 0.3917 | 2956.00 to state    1 from traj    1 on state    2
C     -1.762382     0.246205     0.156068
H     -0.666098     1.253960    -1.280576
H     -2.387667    -0.613981    -0.086838
C     -0.859406     1.302789    -0.122905
H     -1.046989     2.326374    -0.143689
H     -0.390572     1.331148     1.112651
6
Family_3 [H][C]C([H])([H])[H] | RMSD: 0.4305 | 3876.00 to state    1 from traj    1 on state    2
C     -1.792166     0.237469     0.111910
H     -0.583783     1.521255    -1.188508
H     -2.357178    -0.630875     0.434128
C     -0.853463     1.297040    -0.155515
H     -1.004446     2.231151     0.124065
H     -0.261840     1.348577     1.146621
6
Family_3 [H][C]C([H])([H])[H] | RMSD: 0.4287 | 2020.00 to state    1 from traj    1 on state    2
C     -1.829727     0.235991     0.081345
H     -0.312734     1.141115    -0.840978
H     -1.789622    -0.587112     0.697743
C     -0.892541     1.378194    -0.138660
H     -1.032803     2.213874     0.203278
H     -0.158882     0.752840     0.619623
6
Family_3 [H][C]C([H])([H])[H] | RMSD: 0.4558 | 3908.00 to state    1 from traj    1 on state    2
C     -1.803638     0.243319     0.038441
H      0.077147     1.157429    -0.959877
H     -2.242443    -0.582417     0.716450
C     -0.945593     1.341145    -0.025743
H     -1.185927     2.367474    -0.375421
H      0.378456     0.932376     0.464264
6
Family_3 [H][C]C([H])([H])[H] | RMSD: 0.5206 | 4872.00 to state    1 from traj    1 on state    2
C     -1.793624     0.289561     0.151794
H     -0.054121     0.929592    -0.990660
H     -1.982171    -0.554698    -0.441436
C     -0.972887     1.313388     0.003253
H     -1.113517     2.197792    -0.859409
H      0.382948     1.081912     0.440726
6
Family_3 [H][C]C([H])([H])[H] | RMSD: 0.4546 | 3672.00 to state    1 from traj    1 on state    2
C     -1.836942     0.147775     0.082622
H     -0.161062     0.886447    -0.743722
H     -2.326773    -0.757884     0.644989
C     -0.861517     1.472119    -0.111651
H     -1.116783     2.370845     0.191570
H      0.026870     0.953287     0.249778
6
Family_3 [H][C]C([H])([H])[H] | RMSD: 0.4228 | 1100.00 to state    1 from traj    1 on state    2
C     -1.825766     0.234946     0.151045
H     -0.718368     0.752385    -0.896688
H     -1.787004    -0.773435    -0.347926
C     -0.886408     1.386843    -0.066790
H     -0.771254     2.310498    -0.442615
H     -0.137696     1.140662     0.679994
6
Family_3 [H][C]C([H])([H])[H] | RMSD: 0.4079 | 1696.00 to state    1 from traj    1 on state    2
C     -1.855588     0.197852     0.080388
H     -0.308138     1.063514    -1.034222
H     -1.670618    -0.652494     0.711199
C     -0.871663     1.425342    -0.106065
H     -0.851164     2.330036     0.036650
H     -0.404748     0.672306     0.589054
6
Family_3 [H][C]C([H])([H])[H] | RMSD: 0.3965 | 14404.00 to state    1 from traj    1 on state    2
C     -1.830745     0.193974     0.168903
H     -0.249095     0.678794    -1.195509
H     -2.188823    -0.690062    -0.278299
C     -0.857477     1.403668    -0.073518
H     -1.174966     2.409971    -0.075363
H     -0.086839     1.319136     0.409310
6
Family_3 [H][C]C([H])([H])[H] | RMSD: 0.4387 | 17764.00 to state    1 from traj    1 on state    2
C     -1.808992     0.216661     0.097591
H     -0.512273     1.284105    -0.966671
H     -2.285689    -0.536826     0.378040
C     -0.806161     1.336225    -0.085343
H     -1.441948     2.511478    -0.357995
H     -0.330480     0.992378     0.797393
6
Family_3 [H][C]C([H])([H])[H] | RMSD: 0.3255 | 18008.00 to state    1 from traj    1 on state    2
C     -1.743152     0.260231     0.160794
H     -0.360694     1.000257    -1.129013
H     -2.371403    -0.719988    -0.023707
C     -0.970437     1.305154    -0.153570
H     -0.701166     2.735605     0.125262
H      0.035804     1.086329     0.938094
6
Family_3 [H][C]C([H])([H])[H] | RMSD: 0.3953 | 992.00 to state    1 from traj    1 on state    2
C     -1.720655     0.232444     0.014360
H     -0.765176     1.022346    -0.955877
H     -2.487686    -0.504018     0.588429
C     -0.904109     1.336102    -0.012793
H     -0.960457     2.313295    -0.450075
H     -0.242550     1.232914     0.795573
6
Family_3 [H][C]C([H])([H])[H] | RMSD: 0.3232 | 5888.00 to state    1 from traj    1 on state    2
C     -1.866908     0.160739     0.113440
H     -0.104220     1.222382    -1.074029
H     -2.106152    -0.593090     0.459470
C     -0.876707     1.385707    -0.106181
H     -0.763140     2.346502     0.129757
H     -0.066167     1.352072     0.395028
6
Family_3 [H][C]C([H])([H])[H] | RMSD: 0.3590 | 6268.00 to state    1 from traj    1 on state    2
C     -1.779543     0.201361     0.166515
H     -0.381616     1.424304    -1.070350
H     -2.579809    -0.619633     0.063755
C     -0.860124     1.355183    -0.152113
H     -1.158635     2.285650    -0.141912
H     -0.158230     1.117225     0.973624
6
Family_3 [H][C]C([H])([H])[H] | RMSD: 0.3850 | 11476.00 to state    1 from traj    1 on state    2
C     -1.876271     0.129219     0.092671
H     -0.297698     1.181587    -1.309597
H     -2.398353    -0.691377     0.456627
C     -0.808419     1.436263    -0.093066
H     -1.199939     2.286046    -0.101475
H      0.154185     1.324786     0.955871
6
Family_3 [H][C]C([H])([H])[H] | RMSD: 0.6328 | 2232.00 to state    1 from traj    1 on state    2
C     -1.880648     0.195294     0.138970
H     -0.796610     0.654308    -0.805935
H     -1.599943    -0.593022    -0.562823
C     -0.865999     1.391216    -0.000793
H     -0.701242     2.295362    -0.786087
H      0.094242     1.493829     0.505090
6
Family_3 [H][C]C([H])([H])[H] | RMSD: 0.3039 | 3780.00 to state    1 from traj    1 on state    2
C     -1.806940     0.165457     0.087531
H     -0.296905     1.248937    -1.160954
H     -2.542510    -0.725618     0.499014
C     -0.883277     1.396009    -0.085601
H     -0.885275     2.468796    -0.242607
H      0.048741     1.156775     0.878258
6
Family_3 [H][C]C([H])([H])[H] | RMSD: 0.3392 | 5600.00 to state    1 from traj    1 on state    2
C     -1.754726     0.210062     0.180016
H     -0.439883     1.015405    -1.093615
H     -2.553565    -0.741323    -0.058025
C     -0.886464     1.376412    -0.170353
H     -1.007195     2.480400     0.196895
H     -0.259501     1.096431     0.836316
6
Family_3 [H][C]C([H])([H])[H] | RMSD: 0.5000 | 14556.00 to state    1 from traj    1 on state    2
C     -1.744383     0.285397     0.034786
H     -0.050058     0.843744    -1.071716
H     -2.388694    -0.609666     0.735726
C     -0.929075     1.330712    -0.050850
H     -1.470338     2.213901     0.181900
H      0.033443     1.049815     0.342216
6
Family_3 [H][C]C([H])([H])[H] | RMSD: 0.3068 | 7260.00 to state    1 from traj    1 on state    2
C     -1.803252     0.198746     0.155377
H     -0.262376     1.464306    -1.045962
H     -2.499803    -0.659641     0.141018
C     -0.879576     1.330922    -0.129682
H     -0.912362     2.448046    -0.167980
H     -0.089458     1.275075     0.763465
6
Family_3 [H][C]C([H])([H])[H] | RMSD: 0.5031 | 2492.00 to state    1 from traj    1 on state    2
C     -1.827405     0.202832     0.187010
H     -0.455174     0.456605    -0.883263
H     -2.020695    -0.767832    -0.507586
C     -0.890842     1.434077    -0.108513
H     -0.997773     2.323018     0.019273
H      0.131688     1.238157     0.432950
6
Family_3 [H][C]C([H])([H])[H] | RMSD: 0.3958 | 7152.00 to state    1 from traj    1 on state    2
C     -1.836546     0.206581     0.155025
H     -0.579510     0.943421    -0.981681
H     -2.125732    -0.675277    -0.264294
C     -0.872949     1.361167    -0.102769
H     -0.930040     2.370714    -0.209945
H      0.189041     1.435195     0.829963
6
Family_3 [H][C]C([H])([H])[H] | RMSD: 0.5539 | 9964.00 to state    1 from traj    1 on state    2
C     -1.815619     0.228724     0.087200
H     -0.225226     1.060342    -0.917104
H     -1.911469    -0.756831     0.877340
C     -0.865354     1.409373    -0.160777
H     -1.122307     2.414346     0.435496
H     -0.527102     0.517934     0.477703
6
Family_3 [H][C]C([H])([H])[H] | RMSD: 0.5094 | 1360.00 to state    1 from traj    1 on state    2
C     -1.686132     0.187437     0.230876
H     -0.142784     1.401268    -0.976576
H     -2.685554    -0.153012     0.032680
C     -0.954762     1.361692    -0.259773
H     -0.974775     2.348255     0.466147
H     -0.460551     0.699389     0.818788
6
Family_3 [H][C]C([H])([H])[H] | RMSD: 0.3579 | 2580.00 to state    1 from traj    1 on state    2
C     -1.858852     0.195022     0.096077
H     -0.319737     1.350288    -1.096666
H     -2.067965    -0.705265     0.645620
C     -0.858075     1.351465    -0.138876
H     -0.839560     2.543174     0.146059
H     -0.130424     1.139178     0.811685
6
Family_3 [H][C]C([H])([H])[H] | RMSD: 0.3041 | 3708.00 to state    1 from traj    1 on state    2
C     -1.840659     0.133799     0.142425
H     -0.233680     1.329160    -0.866469
H     -2.494776    -0.856926     0.157549
C     -0.870322     1.440996    -0.088616
H     -0.706519     2.310384    -0.442723
H      0.006444     1.207463     0.507182
6
Family_3 [H][C]C([H])([H])[H] | RMSD: 0.5405 | 11212.00 to state    1 from traj    1 on state    2
C     -1.825023     0.235794     0.180870
H     -0.793355     0.633470    -0.803523
H     -1.984457    -0.840716    -0.542838
C     -0.827276     1.388575    -0.099432
H     -1.196058     2.425611    -0.278532
H     -0.153899     1.181003     0.651233
6
Family_3 [H][C]C([H])([H])[H] | RMSD: 0.4590 | 6716.00 to state    1 from traj    1 on state    2
C     -1.768273     0.273718     0.044905
H     -0.557620     0.952205    -0.980247
H     -2.271366    -0.754348     0.724381
C     -0.868305     1.315460    -0.105843
H     -1.246036     2.536114     0.256833
H     -0.240079     1.084716     0.721877
6
Family_3 [H][C]C([H])([H])[H] | RMSD: 0.3079 | 7728.00 to state    1 from traj    1 on state    2
C     -1.783681     0.207350     0.170484
H     -0.198786     0.929249    -1.259711
H     -2.374786    -0.731390    -0.039771
C     -0.868953     1.391120    -0.102157
H     -1.149070     2.545095    -0.087974
H     -0.401150     0.965019     0.570005
6
Family_3 [H][C]C([H])([H])[H] | RMSD: 0.3371 | 3552.00 to state    1 from traj    1 on state    2
C     -1.733969     0.309527     0.018795
H     -0.334254     0.827423    -1.264522
H     -2.115342    -0.499274     0.600457
C     -0.966222     1.274586    -0.006430
H     -1.092530     2.521918    -0.233088
H     -0.014980     1.028973     0.746525
6
Family_3 [H][C]C([H])([H])[H] | RMSD: 0.3026 | 3660.00 to state    1 from traj    1 on state    2
C     -1.798767     0.237234     0.066267
H     -0.475109     1.219972    -1.056489
H     -2.179558    -0.613299     0.551527
C     -0.882625     1.311581    -0.074879
H     -0.934328     2.492492    -0.156951
H     -0.192115     1.200478     0.761249
6
Family_3 [H][C]C([H])([H])[H] | RMSD: 0.5208 | 9532.00 to state    1 from traj    1 on state    2
C     -1.721551     0.268990     0.160532
H     -0.387908     0.998711    -1.400271
H     -2.493271    -0.446501    -0.075207
C     -0.848111     1.316500    -0.109337
H     -1.689237     2.335981    -0.040655
H     -0.542028     0.974444     0.902830
6
Family_3 [H][C]C([H])([H])[H] | RMSD: 0.3744 | 6644.00 to state    1 from traj    1 on state    2
C     -1.796934     0.232349     0.060548
H     -0.383072     0.843021    -0.805121
H     -1.969893    -0.673224     0.611206
C     -0.915131     1.383534    -0.081638
H     -0.903846     2.490564     0.016228
H     -0.158809     0.840130     0.425710
6
Family_3 [H][C]C([H])([H])[H] | RMSD: 0.3727 | 12740.00 to state    1 from traj    1 on state    2
C     -1.845949     0.189323     0.157678
H     -0.487796     0.938923    -1.061701
H     -2.269742    -0.801267    -0.190645
C     -0.828685     1.393480    -0.098765
H     -1.156385     2.423036    -0.220947
H      0.052297     1.333956     0.768023
6
Family_3 [H][C]C([H])([H])[H] | RMSD: 0.3203 | 14396.00 to state    1 from traj    1 on state    2
C     -1.830930     0.244235     0.102574
H     -0.335493     1.438503    -0.950387
H     -1.980403    -0.703806     0.462423
C     -0.921042     1.304262    -0.118612
H     -0.571012     2.256190     0.007515
H     -0.053198     1.312537     0.668270
6
Family_3 [H][C]C([H])([H])[H] | RMSD: 0.4453 | 14852.00 to state    1 from traj    1 on state    2
C     -1.785864     0.168964     0.123783
H     -0.558507     1.090654    -1.146527
H     -2.506850    -0.489243     0.173351
C     -0.796133     1.422859    -0.101561
H     -1.504777     2.077051    -0.159689
H     -0.395335     1.108704     0.864790
6
Family_3 [H][C]C([H])([H])[H] | RMSD: 0.3948 | 16304.00 to state    2 from traj    3 on state    1
C     -1.741479     0.186122     0.212882
H      0.011963     1.548157    -0.968727
H     -2.588929    -0.297002     0.048309
C     -0.953858     1.334410    -0.197803
H     -0.824779     2.514720     0.055580
H     -0.213202     0.870773     0.681880
6
Family_3 [H][C]C([H])([H])[H] | RMSD: 0.4463 | 19696.00 to state    1 from traj    4 on state    2
C     -1.834616     0.198856     0.172268
H     -0.560582     0.726882    -0.779810
H     -2.115681    -0.810741    -0.305463
C     -0.845427     1.400433    -0.109308
H     -1.065018     2.663513    -0.196140
H     -0.055894     1.118559     0.527922
6
Family_3 [H][C]C([H])([H])[H] | RMSD: 0.4166 | 23008.00 to state    1 from traj    4 on state    2
C     -1.771350     0.277180     0.147483
H     -0.378950     0.812123    -1.050501
H     -2.034059    -0.514374    -0.301454
C     -0.922080     1.320852    -0.049106
H     -1.237968     2.494589    -0.545371
H      0.013308     0.920854     0.721816
6
Family_3 [H][C]C([H])([H])[H] | RMSD: 0.4225 | 3032.00 to state    1 from traj    1 on state    2
C     -1.808015     0.112796     0.056134
H     -0.817094     0.708730    -0.871236
H     -2.519233    -0.753305     0.389020
C     -0.823891     1.482198    -0.050489
H     -0.871866     2.454838    -0.223104
H     -0.162576     1.339123     0.634780
6
Family_3 [H][C]C([H])([H])[H] | RMSD: 0.4262 | 5292.00 to state    1 from traj    1 on state    2
C     -1.838631     0.290930     0.093359
H     -0.500185     1.440779    -1.190397
H     -2.078533    -0.877446     0.405060
C     -0.854411     1.241988    -0.105423
H     -0.908250     2.251529     0.100228
H     -0.155320     1.674215     0.825575
6
Family_3 [H][C]C([H])([H])[H] | RMSD: 0.4211 | 1456.00 to state    1 from traj    1 on state    2
C     -1.769076     0.288082     0.089782
H     -0.486355     0.979084    -1.127553
H     -2.448540    -0.924707     0.303424
C     -0.869994     1.310200    -0.097704
H     -1.256570     2.181811     0.217582
H     -0.093939     1.474021     0.697654
6
Family_3 [H][C]C([H])([H])[H] | RMSD: 0.2798 | 1616.00 to state    1 from traj    1 on state    2
C     -1.785071     0.178298     0.142810
H     -0.462732     0.954054    -0.865989
H     -2.482119    -0.849758     0.070162
C     -0.888620     1.429704    -0.123069
H     -0.855327     2.439715    -0.108753
H     -0.072688     1.050380     0.666060
6
Family_3 [H][C]C([H])([H])[H] | RMSD: 0.2665 | 2300.00 to state    1 from traj    1 on state    2
C     -1.759148     0.253563     0.157478
H     -0.167881     0.773716    -1.156405
H     -2.201911    -0.684622    -0.135050
C     -0.976023     1.359558    -0.097555
H     -0.776585     2.244047     0.092057
H      0.006086     1.200255     0.482098
6
Family_3 [H][C]C([H])([H])[H] | RMSD: 0.4166 | 1696.00 to state    1 from traj    1 on state    2
C     -1.845892     0.090305     0.083530
H     -0.311460     1.295528    -0.904164
H     -2.631449    -0.671346     0.395572
C     -0.850055     1.443431    -0.026967
H     -0.751558     2.520340    -0.701469
H      0.086787     1.334794     0.532795
6
Family_3 [H][C]C([H])([H])[H] | RMSD: 0.4621 | 4732.00 to state    1 from traj    1 on state    2
C     -1.851454     0.102909     0.088016
H     -0.136172     1.481033    -1.031167
H     -2.626672    -0.493360     0.398644
C     -0.855948     1.394644    -0.019102
H     -0.832066     2.384011    -0.665705
H      0.123736     1.538788     0.473787
6
Family_3 [H][C]C([H])([H])[H] | RMSD: 0.3598 | 6496.00 to state    1 from traj    1 on state    2
C     -1.806775     0.243149     0.117929
H     -0.471620     1.373087    -1.122443
H     -2.278168    -0.584210     0.226422
C     -0.837429     1.287122    -0.094808
H     -1.212816     2.428938    -0.229433
H     -0.261626     1.302793     0.846674
6
Family_3 [H][C]C([H])([H])[H] | RMSD: 0.3343 | 13848.00 to state    1 from traj    1 on state    2
C     -1.837934     0.142159     0.070843
H     -0.293453     1.084232    -1.027436
H     -2.365010    -0.544060     0.497759
C     -0.838324     1.411040    -0.037991
H     -1.067175     2.411528    -0.293631
H     -0.116649     1.295709     0.428569
6
Family_3 [H][C]C([H])([H])[H] | RMSD: 0.3449 | 2172.00 to state    1 from traj    1 on state    2
C     -1.750887     0.201094     0.058222
H     -0.652971     0.713625    -1.064707
H     -2.250732    -0.642582     0.448492
C     -0.960962     1.390618    -0.080393
H     -0.441751     2.523485     0.069568
H     -0.072736     1.193972     0.807553
6
Family_3 [H][C]C([H])([H])[H] | RMSD: 0.3850 | 5668.00 to state    1 from traj    1 on state    2
C     -1.810297     0.238787     0.148929
H     -0.437882     0.753510    -0.960199
H     -1.880514    -0.619335    -0.351393
C     -0.942380     1.358700    -0.046973
H     -0.723952     2.371701    -0.456021
H      0.110643     1.213813     0.549455
6
Family_3 [H][C]C([H])([H])[H] | RMSD: 0.3785 | 4724.00 to state    1 from traj    1 on state    2
C     -1.770100     0.227964     0.078946
H     -0.327252     1.277314    -1.336782
H     -2.596873    -0.779280     0.564341
C     -0.892452     1.330487    -0.093852
H     -1.028546     2.539418    -0.112789
H     -0.052927     1.147374     1.059563
6
Family_3 [H][C]C([H])([H])[H] | RMSD: 0.4977 | 5620.00 to state    1 from traj    1 on state    2
C     -1.809263     0.223585     0.139887
H     -0.679972     0.414488    -0.956088
H     -1.968349    -0.796962    -0.421405
C     -0.889357     1.397872    -0.032430
H     -0.856027     2.560721    -0.403051
H     -0.071474     1.255814     0.496845
6
Family_3 [H][C]C([H])([H])[H] | RMSD: 0.5515 | 7000.00 to state    1 from traj    1 on state    2
C     -1.828419     0.233553     0.167563
H     -0.583722     0.689902    -0.713040
H     -1.781104    -0.595627    -0.564962
C     -0.910356     1.346677    -0.041068
H     -0.719608     2.464878    -0.514634
H     -0.012918     1.366153     0.282085
6
Family_3 [H][C]C([H])([H])[H] | RMSD: 0.5157 | 11436.00 to state    1 from traj    1 on state    2
C     -1.851114     0.209847     0.128204
H     -0.692043     0.721705    -0.901917
H     -1.740434    -0.745384    -0.399867
C     -0.880161     1.417071     0.003711
H     -0.731815     2.076552    -0.798477
H     -0.022423     1.316122     0.525132
6
Family_3 [H][C]C([H])([H])[H] | RMSD: 0.3837 | 12092.00 to state    1 from traj    1 on state    2
C     -1.810977     0.222290     0.072858
H     -0.388175     0.806767    -1.016551
H     -1.845246    -0.839476     0.642098
C     -0.918884     1.415688    -0.101072
H     -0.656608     2.543285     0.131263
H     -0.313534     0.726634     0.576088
6
Family_3 [H][C]C([H])([H])[H] | RMSD: 0.4246 | 3112.00 to state    1 from traj    1 on state    2
C     -1.780436     0.208629     0.150859
H     -0.260073     0.860682    -1.005047
H     -2.451998    -0.573949     0.041870
C     -0.883784     1.357255    -0.130476
H     -1.277389     2.780900     0.085117
H      0.003730     1.028615     0.631903
6
Family_3 [H][C]C([H])([H])[H] | RMSD: 0.3693 | 6720.00 to state    1 from traj    1 on state    2
C     -1.781308     0.265339     0.147447
H     -0.213368     0.838909    -0.999244
H     -2.053682    -0.659304    -0.284854
C     -0.937639     1.348919    -0.018290
H     -1.026380     2.324293    -0.631358
H     -0.040187     1.015955     0.373175
6
Family_3 [H][C]C([H])([H])[H] | RMSD: 0.4898 | 9696.00 to state    1 from traj    1 on state    2
C     -1.849039     0.236592     0.134745
H     -0.111698     1.687793    -1.250609
H     -1.800628    -0.587155     0.685255
C     -0.878790     1.333232    -0.187232
H     -0.849981     2.050354     0.337939
H     -0.465478     0.898320     0.849552
6
Family_3 [H][C]C([H])([H])[H] | RMSD: 0.2971 | 8584.00 to state    1 from traj    1 on state    2
C     -1.799204     0.248507     0.129775
H     -0.447810     1.364792    -1.098912
H     -2.205104    -0.638594     0.124514
C     -0.862140     1.317025    -0.090244
H     -1.098927     2.154614    -0.314899
H     -0.268157     1.219645     0.814984
6
Family_3 [H][C]C([H])([H])[H] | RMSD: 0.3547 | 13348.00 to state    1 from traj    1 on state    2
C     -1.775454     0.240335     0.048147
H     -0.499700     1.090045    -1.263631
H     -2.267801    -0.478248     0.543434
C     -0.868086     1.314172    -0.039546
H     -1.197964     2.388234    -0.221962
H     -0.266684     1.231791     0.836396
6
Family_3 [H][C]C([H])([H])[H] | RMSD: 0.3291 | 2616.00 to state    1 from traj    1 on state    2
C     -1.707722     0.190855     0.103438
H     -0.223228     1.230522    -1.088224
H     -2.552477    -0.240482     0.161317
C     -1.015939     1.353943    -0.032805
H     -0.451539     2.034199    -0.473276
H     -0.050208     1.323258     0.555267
6
Family_3 [H][C]C([H])([H])[H] | RMSD: 0.5499 | 5980.00 to state    1 from traj    1 on state    2
C     -1.711583     0.129674     0.277780
H     -0.111717     1.495980    -0.961094
H     -2.701261    -0.083853    -0.186898
C     -0.936384     1.425254    -0.290614
H     -0.927254     2.170469     0.405262
H     -0.439159     0.644203     0.892375
6
Family_3 [H][C]C([H])([H])[H] | RMSD: 0.3526 | 6476.00 to state    1 from traj    1 on state    2
C     -1.726661     0.229827     0.161527
H     -0.231366     0.793757    -0.936750
H     -2.395096    -0.544050    -0.069601
C     -0.973967     1.343239    -0.113696
H     -0.763719     2.784824     0.019197
H     -0.161716     0.976148     0.413926
6
Family_3 [H][C]C([H])([H])[H] | RMSD: 0.3414 | 4580.00 to state    1 from traj    1 on state    2
C     -1.876887     0.096500     0.121245
H     -0.196977     1.173251    -1.033162
H     -2.337843    -0.663551     0.463971
C     -0.835085     1.439539    -0.116396
H     -0.787355     2.780323    -0.028764
H     -0.094553     1.161856     0.536896
6
Family_3 [H][C]C([H])([H])[H] | RMSD: 0.2249 | 4900.00 to state    1 from traj    1 on state    2
C     -1.728671     0.214885     0.160455
H     -0.500366     0.944454    -0.987770
H     -2.395040    -0.716989    -0.039165
C     -0.941255     1.403998    -0.131270
H     -0.667630     2.281647    -0.038101
H     -0.354694     0.955621     0.713990
6
Family_3 [H][C]C([H])([H])[H] | RMSD: 0.4312 | 3708.00 to state    1 from traj    1 on state    2
C     -1.719993     0.191744     0.186217
H     -0.242373     1.153923    -1.031183
H     -2.721443    -0.412079     0.056783
C     -0.914338     1.389305    -0.202760
H     -1.235600     2.333884     0.269403
H     -0.142456     0.839827     0.898838
6
Family_3 [H][C]C([H])([H])[H] | RMSD: 0.3239 | 4984.00 to state    1 from traj    1 on state    2
C     -1.823973     0.213490     0.102460
H     -0.485662     1.308815    -1.118826
H     -1.877510    -0.718929     0.536119
C     -0.887624     1.369239    -0.117229
H     -0.554345     2.374579    -0.072247
H     -0.503680     0.931079     0.827660
6
Family_3 [H][C]C([H])([H])[H] | RMSD: 0.3991 | 8064.00 to state    1 from traj    1 on state    2
C     -1.782791     0.280476     0.151905
H     -0.293206     1.072154    -0.882613
H     -2.409999    -0.887276    -0.181495
C     -0.895149     1.314090    -0.079508
H     -1.207393     2.203618    -0.256878
H      0.088352     1.365989     0.455042
6
Family_3 [H][C]C([H])([H])[H] | RMSD: 0.3831 | 4984.00 to state    1 from traj    1 on state    2
C     -1.673711     0.257406     0.102569
H     -0.370922     1.032964    -1.347322
H     -2.682725    -0.327222    -0.071148
C     -0.976584     1.277806     0.009137
H     -0.871354     2.295882    -0.590366
H     -0.226650     1.460113     0.674497
6
Family_3 [H][C]C([H])([H])[H] | RMSD: 0.6179 | 20248.00 to state    1 from traj    1 on state    2
C     -1.866828     0.219095     0.178799
H     -0.247607     1.512992    -1.151972
H     -1.527673    -0.891595     0.564826
C     -0.878401     1.420279    -0.247320
H     -0.459666     1.940025     0.630361
H     -0.785505     0.659150     0.769971
6
Family_3 [H][C]C([H])([H])[H] | RMSD: 0.3105 | 7016.00 to state    1 from traj    1 on state    2
C     -1.759941     0.186557     0.148047
H     -0.105980     0.914205    -1.280183
H     -2.585565    -0.559994     0.051198
C     -0.942489     1.376005    -0.104468
H     -0.855909     2.493013     0.104560
H      0.017030     1.288611     0.601875
6
Family_3 [H][C]C([H])([H])[H] | RMSD: 0.4189 | 13240.00 to state    1 from traj    1 on state    2
C     -1.854501     0.176347     0.113093
H     -0.758388     1.028046    -0.993844
H     -1.947708    -0.707584    -0.108016
C     -0.849616     1.390036    -0.018157
H     -0.582985     2.308116    -0.705793
H     -0.221247     1.461721     0.673136
6
Family_3 [H][C]C([H])([H])[H] | RMSD: 0.3012 | 1248.00 to state    1 from traj    1 on state    2
C     -1.828283     0.208646     0.159946
H     -0.161488     1.201069    -1.011485
H     -2.289708    -0.764808    -0.094906
C     -0.886717     1.354907    -0.069936
H     -0.938472     2.465838    -0.460197
H      0.009027     1.221934     0.490775
6
Family_3 [H][C]C([H])([H])[H] | RMSD: 0.5878 | 1776.00 to state    1 from traj    1 on state    2
C     -1.845572     0.242195     0.084394
H     -0.347732     1.079941    -0.945010
H     -1.411614    -0.479872     0.793525
C     -0.883502     1.355329    -0.143706
H     -0.864344     2.547181     0.318492
H     -0.589249     0.571994     0.536450
6
Family_3 [H][C]C([H])([H])[H] | RMSD: 0.3076 | 3344.00 to state    1 from traj    1 on state    2
C     -1.806587     0.231175     0.116312
H     -0.308283     1.439267    -1.052090
H     -2.295765    -0.827846     0.462142
C     -0.912523     1.327299    -0.144320
H     -0.723266     2.483970    -0.014434
H     -0.004360     1.089162     0.934835
6
Family_3 [H][C]C([H])([H])[H] | RMSD: 0.3253 | 5364.00 to state    1 from traj    1 on state    2
C     -1.788510     0.235753     0.062435
H     -0.290789     1.217015    -0.946258
H     -2.328022    -0.646985     0.568009
C     -0.913043     1.305741    -0.054348
H     -0.832663     2.462335    -0.147597
H     -0.089402     1.354502     0.426200
6
Family_3 [H][C]C([H])([H])[H] | RMSD: 0.3824 | 6724.00 to state    1 from traj    1 on state    2
C     -1.735108     0.259745     0.149424
H     -0.255195     1.091069    -1.272788
H     -2.520541    -0.520201     0.091049
C     -0.912300     1.314977    -0.143990
H     -1.298602     2.255319     0.234501
H     -0.111722     1.164755     0.879210
6
Family_3 [H][C]C([H])([H])[H] | RMSD: 0.4923 | 13420.00 to state    1 from traj    1 on state    2
C     -1.758069     0.197820     0.131633
H     -0.296419     0.885396    -1.272349
H     -2.651049    -0.540559     0.228758
C     -0.837949     1.389687    -0.128051
H     -1.577176     2.419674     0.247115
H     -0.273758     1.074098     0.750505
6
Family_3 [H][C]C([H])([H])[H] | RMSD: 0.4066 | 15396.00 to state    1 from traj    1 on state    2
C     -1.808191     0.238314     0.064618
H     -0.525727     1.036401    -1.155656
H     -2.059417    -0.663688     0.612629
C     -0.859182     1.366971    -0.109771
H     -1.239334     2.385025     0.021664
H     -0.123683     0.869027     1.056109
6
Family_3 [H][C]C([H])([H])[H] | RMSD: 0.3632 | 16564.00 to state    1 from traj    1 on state    2
C     -1.784428     0.187633     0.135627
H     -0.074542     1.179467    -1.192694
H     -2.677372    -0.590405     0.107464
C     -0.882095     1.357639    -0.064743
H     -1.164541     2.407018    -0.261809
H     -0.041831     1.345783     0.499131
6
Family_3 [H][C]C([H])([H])[H] | RMSD: 0.3895 | 17632.00 to state    1 from traj    7 on state    2
C     -1.827121     0.154692     0.095651
H     -0.164957     1.379596    -1.014358
H     -2.532522    -0.483915     0.443711
C     -0.881564     1.354032    -0.081357
H     -0.940865     2.463634    -0.220502
H      0.182451     1.418042     0.617540
6
Family_3 [H][C]C([H])([H])[H] | RMSD: 0.4281 | 18720.00 to state    1 from traj    1 on state    2
C     -1.850573     0.206666     0.151338
H     -0.077370     1.584427    -1.071858
H     -2.450696    -0.693787     0.136102
C     -0.831994     1.302234    -0.087362
H     -1.166249     2.376443    -0.307474
H     -0.072786     1.508173     0.477623
6
Family_3 [H][C]C([H])([H])[H] | RMSD: 0.4752 | 6504.00 to state    1 from traj    1 on state    2
C     -1.843712     0.186587     0.111296
H     -0.442298     1.228791    -1.251603
H     -2.298459    -0.734554     0.538464
C     -0.762870     1.387474    -0.141108
H     -1.462615     2.472755     0.157731
H     -0.469153     1.031838     0.907360
6
Family_3 [H][C]C([H])([H])[H] | RMSD: 0.3198 | 10516.00 to state    1 from traj    1 on state    2
C     -1.771213     0.251605     0.074780
H     -0.143329     0.933746    -1.073257
H     -2.101839    -0.517173     0.555745
C     -0.938144     1.341407    -0.073368
H     -1.029452     2.409722     0.076612
H     -0.173256     0.946706     0.420795
6
Family_3 [H][C]C([H])([H])[H] | RMSD: 0.4207 | 13428.00 to state    1 from traj    1 on state    2
C     -1.763586     0.164489     0.181209
H     -0.306518     1.012298    -0.791601
H     -2.515907    -0.493105     0.083546
C     -0.869564     1.429324    -0.186854
H     -1.201069     2.395997     0.270731
H     -0.332450     0.848279     0.501303
6
Family_3 [H][C]C([H])([H])[H] | RMSD: 0.4452 | 14668.00 to state    1 from traj    1 on state    2
C     -1.788511     0.222117     0.149246
H     -0.284965     1.021834    -0.964769
H     -2.412286    -0.523020    -0.000944
C     -0.866849     1.367421    -0.128904
H     -1.537759     2.298818    -0.060476
H      0.143713     1.016767     0.780512
6
Family_3 [H][C]C([H])([H])[H] | RMSD: 0.3732 | 9216.00 to state    1 from traj    1 on state    2
C     -1.806103     0.230040     0.151986
H     -0.278791     0.887181    -1.030066
H     -2.237339    -0.640753    -0.144780
C     -0.885714     1.372044    -0.096032
H     -1.314870     2.317934    -0.183792
H      0.174109     1.100550     0.688622
6
Family_3 [H][C]C([H])([H])[H] | RMSD: 0.3370 | 11496.00 to state    1 from traj    1 on state    2
C     -1.901080     0.134318     0.121829
H     -0.145630     1.499260    -0.996634
H     -2.185050    -0.785772     0.562883
C     -0.827848     1.423460    -0.136643
H     -0.860137     2.340317    -0.045327
H     -0.023872     1.139037     0.652318
6
Family_3 [H][C]C([H])([H])[H] | RMSD: 0.3554 | 16572.00 to state    1 from traj    1 on state    2
C     -1.846207     0.174975     0.084720
H     -0.452494     1.297585    -0.953257
H     -2.248873    -0.578945     0.500188
C     -0.849511     1.356623    -0.104653
H     -0.964772     2.513003    -0.137133
H      0.055735     1.273152     0.824439
6
Family_3 [H][C]C([H])([H])[H] | RMSD: 0.2993 | 17100.00 to state    2 from traj    5 on state    1
C     -1.834245     0.156183     0.069784
H     -0.484574     0.920033    -1.210922
H     -2.194075    -0.754384     0.548103
C     -0.834444     1.440890    -0.063060
H     -0.945573     2.543579    -0.180570
H     -0.308244     1.015398     0.759979
6
Family_3 [H][C]C([H])([H])[H] | RMSD: 0.4241 | 2320.00 to state    1 from traj    1 on state    2
C     -1.814722     0.257518     0.063741
H     -0.176739     1.189021    -0.946465
H     -1.600765    -0.610313     0.728482
C     -0.959389     1.360238    -0.066103
H     -0.623894     2.334421    -0.270656
H     -0.274907     0.565036     0.513510
6
Family_3 [H][C]C([H])([H])[H] | RMSD: 0.5007 | 6664.00 to state    1 from traj    1 on state    2
C     -1.861703     0.225117     0.095652
H     -0.360382     1.658211    -1.104091
H     -1.916830    -0.540944     0.775640
C     -0.849399     1.277572    -0.163334
H     -0.883919     2.683902     0.129167
H     -0.265966     1.048098     1.002473
6
Family_3 [H][C]C([H])([H])[H] | RMSD: 0.4536 | 3852.00 to state    1 from traj    1 on state    2
C     -1.825677     0.239868     0.154576
H     -0.610457     0.784213    -0.995351
H     -1.965671    -0.639260    -0.412020
C     -0.850051     1.352788    -0.052460
H     -1.162497     2.250489    -0.392467
H     -0.109974     1.381798     0.579785
6
Family_3 [H][C]C([H])([H])[H] | RMSD: 0.3670 | 2832.00 to state    1 from traj    1 on state    2
C     -1.776717     0.180694     0.152642
H     -0.287081     1.450591    -1.077438
H     -2.644589    -0.486039     0.221670
C     -0.867661     1.348052    -0.148013
H     -1.108159     2.408282    -0.057424
H     -0.182328     1.165949     0.854762
6
Family_3 [H][C]C([H])([H])[H] | RMSD: 0.3674 | 5428.00 to state    1 from traj    1 on state    2
C     -1.840958     0.205435     0.152969
H     -0.232190     0.942698    -1.190979
H     -2.175206    -0.657901    -0.224717
C     -0.859545     1.377847    -0.046883
H     -1.225589     2.343488    -0.460183
H      0.079602     1.260656     0.608505
6
Family_3 [H][C]C([H])([H])[H] | RMSD: 0.4926 | 5608.00 to state    1 from traj    1 on state    2
C     -1.895686     0.238547     0.136096
H     -0.358968     1.586972    -1.060536
H     -2.118056    -0.892583    -0.028917
C     -0.826151     1.274258    -0.052163
H     -0.902706     2.224878    -0.546234
H      0.080549     1.809456     0.632286
6
Family_3 [H][C]C([H])([H])[H] | RMSD: 0.4039 | 11960.00 to state    1 from traj    1 on state    2
C     -1.795113     0.294345     0.110353
H     -0.252457     1.248716    -1.074622
H     -2.050131    -0.685295     0.525544
C     -0.923498     1.261367    -0.166946
H     -0.936949     2.487581     0.484900
H     -0.098078     1.166461     0.735241
6
Family_3 [H][C]C([H])([H])[H] | RMSD: 0.6779 | 1248.00 to state    1 from traj    1 on state    2
C     -1.811796     0.223634     0.193082
H     -0.535056     1.267533    -1.182617
H     -1.456051    -0.831781     0.171296
C     -0.937920     1.451898    -0.212623
H     -0.019367     1.529293     0.472853
H     -0.956513     0.824675     0.768028
6
Family_3 [H][C]C([H])([H])[H] | RMSD: 0.4102 | 3752.00 to state    1 from traj    1 on state    2
C     -1.696012     0.240709     0.163676
H     -0.168923     1.106056    -1.215070
H     -2.686376    -0.360613     0.020342
C     -0.917472     1.330338    -0.121302
H     -1.374417     2.345094    -0.010650
H     -0.360560     0.944205     0.697182
6
Family_3 [H][C]C([H])([H])[H] | RMSD: 0.3765 | 2120.00 to state    1 from traj    1 on state    2
C     -1.811245     0.255314     0.081681
H     -0.552596     1.315983    -1.145620
H     -2.198388    -0.674806     0.478020
C     -0.851595     1.275475    -0.101236
H     -1.017334     2.425987     0.035793
H     -0.233851     1.447272     0.861533
6
Family_3 [H][C]C([H])([H])[H] | RMSD: 0.4591 | 6156.00 to state    1 from traj    1 on state    2
C     -1.749340     0.216197     0.167991
H     -0.139820     0.896139    -0.950163
H     -2.541870    -0.474650     0.000690
C     -0.951767     1.363478    -0.179214
H     -1.120441     2.334997     0.461990
H      0.255945     1.175442     0.617924
6
Family_3 [H][C]C([H])([H])[H] | RMSD: 0.3735 | 4564.00 to state    1 from traj    1 on state    2
C     -1.847539     0.197545     0.111535
H     -0.305481     1.530665    -0.958724
H     -2.073953    -0.779360     0.673607
C     -0.852954     1.367580    -0.149368
H     -0.790130     2.428937     0.023420
H     -0.383950     0.925056     0.709227
6
Family_3 [H][C]C([H])([H])[H] | RMSD: 0.3466 | 8824.00 to state    1 from traj    1 on state    2
C     -1.838968     0.165561     0.165363
H     -0.427010     1.146626    -0.976491
H     -2.276949    -0.708166    -0.114592
C     -0.877499     1.366165    -0.107500
H     -0.660913     2.773659    -0.328267
H      0.001704     1.291146     0.726599
6
Family_3 [H][C]C([H])([H])[H] | RMSD: 0.4848 | 10680.00 to state    1 from traj    1 on state    2
C     -1.805045     0.299798     0.034908
H     -0.146239     1.139487    -1.069901
H     -1.617696    -0.580376     0.869678
C     -0.934946     1.317205    -0.046158
H     -1.042214     2.414087    -0.253041
H     -0.276716     0.513933     0.584031
6
Family_3 [H][C]C([H])([H])[H] | RMSD: 0.3327 | 2112.00 to state    1 from traj    1 on state    2
C     -1.772590     0.180920     0.056002
H     -0.384177     0.972936    -1.040055
H     -2.469381    -0.555378     0.489806
C     -0.919662     1.365284    -0.031305
H     -0.777271     2.732917    -0.366009
H     -0.020876     1.180281     0.618697
6
Family_3 [H][C]C([H])([H])[H] | RMSD: 0.3492 | 3092.00 to state    1 from traj    1 on state    2
C     -1.774510     0.156313     0.175403
H     -0.201546     1.340085    -1.068518
H     -2.744188    -0.698206     0.152460
C     -0.871057     1.405688    -0.154359
H     -1.010045     2.580290    -0.123799
H     -0.252203     0.920349     0.785825
6
Family_3 [H][C]C([H])([H])[H] | RMSD: 0.3258 | 5328.00 to state    1 from traj    1 on state    2
C     -1.790005     0.257103     0.144647
H     -0.254909     1.159644    -0.889466
H     -2.341216    -0.915666     0.159061
C     -0.938595     1.325503    -0.152498
H     -0.770618     2.393843     0.200042
H      0.148154     1.259176     0.620637
6
Family_3 [H][C]C([H])([H])[H] | RMSD: 0.4260 | 5676.00 to state    1 from traj    1 on state    2
C     -1.868291     0.158360     0.127913
H     -0.285421     1.336442    -1.083207
H     -1.985673    -0.683160     0.638084
C     -0.805306     1.417354    -0.158466
H     -0.983569     2.541564     0.159771
H     -0.619327     0.784280     0.646134
6
Family_3 [H][C]C([H])([H])[H] | RMSD: 0.4242 | 8264.00 to state    1 from traj    1 on state    2
C     -1.871437     0.155709     0.144054
H     -0.282942     0.773491    -1.024948
H     -2.067560    -0.587717    -0.250678
C     -0.866789     1.410033    -0.029849
H     -0.906582     2.408674    -0.400893
H      0.153192     1.503499     0.312407
6
Family_3 [H][C]C([H])([H])[H] | RMSD: 0.4364 | 13840.00 to state    1 from traj    1 on state    2
C     -1.823940     0.213669     0.155929
H     -0.321429     0.826903    -0.866999
H     -2.107153    -0.514758    -0.274773
C     -0.875610     1.371909    -0.070030
H     -1.276655     2.370552    -0.341169
H      0.140486     1.178892     0.456113
6
Family_3 [H][C]C([H])([H])[H] | RMSD: 0.4459 | 6976.00 to state    1 from traj    1 on state    2
C     -1.835216     0.250685     0.146545
H     -0.516426     0.943217    -1.260145
H     -2.072754    -0.827949    -0.373817
C     -0.850091     1.336971    -0.023494
H     -1.141968     2.355228    -0.677583
H     -0.003311     1.366335     0.842022
6
Family_3 [H][C]C([H])([H])[H] | RMSD: 0.4851 | 3368.00 to state    1 from traj    1 on state    2
C     -1.842610     0.228359     0.155980
H     -0.643877     0.757237    -0.971338
H     -1.842363    -0.659463    -0.439744
C     -0.908536     1.348578    -0.078159
H     -0.741883     2.477401    -0.352747
H      0.278181     1.389378     0.833249
6
Family_3 [H][C]C([H])([H])[H] | RMSD: 0.4065 | 2456.00 to state    1 from traj    1 on state    2
C     -1.750626     0.289396     0.132313
H     -0.480914     0.727103    -0.938432
H     -2.212240    -0.593740    -0.160380
C     -0.916207     1.313027    -0.087160
H     -1.249171     2.231399     0.022718
H     -0.012263     1.296107     0.534778
6
Family_3 [H][C]C([H])([H])[H] | RMSD: 0.3074 | 6376.00 to state    1 from traj    1 on state    2
C     -1.720652     0.228769     0.173970
H     -0.464457     0.934772    -1.319695
H     -2.402769    -0.585430    -0.161731
C     -0.953249     1.339366    -0.126242
H     -0.627948     2.631662    -0.015404
H     -0.375193     1.088426     0.924835
6
Family_3 [H][C]C([H])([H])[H] | RMSD: 0.4298 | 348.00 to state    1 from traj    1 on state    2
C     -1.662739     0.153894     0.137310
H     -0.802497     0.817497    -1.010826
H     -2.564819    -0.496045     0.116293
C     -0.974467     1.473662    -0.142154
H     -0.281332     2.203041     0.044148
H     -0.658967     0.836899     0.904824
6
Family_3 [H][C]C([H])([H])[H] | RMSD: 0.4020 | 10748.00 to state    1 from traj    1 on state    2
C     -1.815615     0.147407     0.042778
H     -0.416596     1.042165    -1.035920
H     -2.583216    -0.764883     0.507435
C     -0.871558     1.401032     0.000002
H     -0.800503     2.648192    -0.581842
H      0.088092     1.378655     0.597288
6
Family_3 [H][C]C([H])([H])[H] | RMSD: 0.2835 | 3400.00 to state    1 from traj    1 on state    2
C     -1.720390     0.279105     0.077018
H     -0.486976     0.867603    -0.983956
H     -2.390983    -0.739897     0.278043
C     -0.980318     1.319317    -0.075116
H     -0.706243     2.224829     0.055478
H      0.033255     1.356008     0.624485
6
Family_3 [H][C]C([H])([H])[H] | RMSD: 0.4044 | 3624.00 to state    1 from traj    1 on state    2
C     -1.783476     0.188405     0.184865
H     -0.031795     1.081857    -0.790275
H     -2.426838    -0.469987    -0.008342
C     -0.922934     1.367825    -0.154478
H     -1.044751     2.642527     0.073111
H      0.020379     0.956892     0.360143
6
Family_3 [H][C]C([H])([H])[H] | RMSD: 0.4896 | 3688.00 to state    2 from traj    2 on state    1
C     -1.773063     0.180947     0.201448
H      0.085082     1.175763    -0.721009
H     -2.592586    -0.449205    -0.047281
C     -0.912518     1.378242    -0.160587
H     -1.238775     2.614110    -0.016751
H      0.015086     0.835361     0.294878
6
Family_3 [H][C]C([H])([H])[H] | RMSD: 0.4372 | 4984.00 to state    1 from traj    1 on state    2
C     -1.689267     0.231985     0.179183
H     -0.483335     1.189895    -1.278960
H     -2.497688    -0.207994    -0.115639
C     -0.910441     1.309389    -0.130400
H     -1.096917     2.503521    -0.164911
H     -0.676492     0.902886     0.974942
6
Family_3 [H][C]C([H])([H])[H] | RMSD: 0.3484 | 5248.00 to state    1 from traj    4 on state    2
C     -1.812023     0.171786     0.159345
H     -0.222915     0.940503    -0.842430
H     -2.457495    -0.772726    -0.078685
C     -0.884135     1.416995    -0.095584
H     -0.956437     2.405105    -0.153984
H      0.031685     1.250534     0.312064
6
Family_3 [H][C]C([H])([H])[H] | RMSD: 0.2639 | 5360.00 to state    1 from traj    1 on state    2
C     -1.830339     0.125796     0.154397
H     -0.109067     1.336772    -1.059175
H     -2.417709    -0.597858     0.194233
C     -0.881283     1.427029    -0.102181
H     -0.787239     2.554796    -0.405184
H     -0.106880     0.958155     0.644653
6
Family_3 [H][C]C([H])([H])[H] | RMSD: 0.3359 | 6096.00 to state    1 from traj    4 on state    2
C     -1.762606     0.266294     0.116021
H     -0.794967     0.773336    -1.057500
H     -2.059790    -0.832678    -0.021684
C     -0.913283     1.347075    -0.088283
H     -0.692020     2.382195    -0.096190
H     -0.299903     1.207587     0.841576
6
Family_3 [H][C]C([H])([H])[H] | RMSD: 0.4032 | 7632.00 to state    1 from traj    4 on state    2
C     -1.826269     0.234276     0.068390
H     -0.273122     1.372039    -0.877068
H     -1.990353    -0.524665     0.677381
C     -0.864106     1.337472    -0.075325
H     -1.182286     2.299181    -0.282358
H     -0.228308     0.879829     0.561406
6
Family_3 [H][C]C([H])([H])[H] | RMSD: 0.3484 | 4736.00 to state    1 from traj    1 on state    2
C     -1.807140     0.214700     0.071322
H     -0.321776     0.968807    -1.054814
H     -2.129771    -0.520460     0.474183
C     -0.874243     1.394550    -0.068623
H     -1.313628     2.179931    -0.148140
H     -0.016036     0.951241     0.693327
6
Family_3 [H][C]C([H])([H])[H] | RMSD: 0.3215 | 3660.00 to state    1 from traj    1 on state    2
C     -1.726426     0.251745     0.072521
H     -0.542036     0.829510    -1.143214
H     -2.096253    -0.688885     0.531325
C     -0.983437     1.389632    -0.115042
H     -0.594160     2.338382     0.113259
H     -0.209413     0.717700     1.002012
6
Family_3 [H][C]C([H])([H])[H] | RMSD: 0.4024 | 6720.00 to state    1 from traj    1 on state    2
C     -1.809108     0.166878     0.087658
H     -0.328522     0.823724    -0.899042
H     -2.386853    -0.764963     0.546479
C     -0.877149     1.438643    -0.125252
H     -0.975321     2.432769     0.342563
H     -0.032443     1.132421     0.454670
6
Family_3 [H][C]C([H])([H])[H] | RMSD: 0.4471 | 2288.00 to state    1 from traj    1 on state    2
C     -1.783741     0.265476     0.077453
H      0.042867     1.004189    -1.061804
H     -1.770274    -0.400082     0.700513
C     -0.972530     1.334227    -0.086613
H     -0.913639     2.458100     0.122451
H     -0.247831     0.631071     0.344715
6
Family_3 [H][C]C([H])([H])[H] | RMSD: 0.4297 | 4232.00 to state    1 from traj    1 on state    2
C     -1.831425     0.121755     0.062462
H     -0.771158     0.809413    -1.080988
H     -2.489799    -0.778263     0.447921
C     -0.802902     1.469314    -0.086071
H     -1.035873     2.373504    -0.004413
H     -0.045094     1.391504     0.915513
6
Family_3 [H][C]C([H])([H])[H] | RMSD: 0.4225 | 2516.00 to state    1 from traj    1 on state    2
C     -1.777250     0.252562     0.123665
H     -0.438330     0.846720    -0.964760
H     -2.324507    -0.759537    -0.124723
C     -0.881702     1.387601    -0.056556
H     -1.410306     2.064991    -0.435077
H      0.124651     1.058988     0.721638
6
Family_3 [H][C]C([H])([H])[H] | RMSD: 0.2956 | 10040.00 to state    1 from traj    1 on state    2
C     -1.773598     0.278259     0.092404
H     -0.247915     1.379030    -1.149044
H     -2.201358    -0.628214     0.298396
C     -0.960708     1.263403    -0.045677
H     -0.755061     2.541887    -0.574593
H      0.053735     1.092165     0.865174
6
Family_3 [H][C]C([H])([H])[H] | RMSD: 0.4734 | 12232.00 to state    1 from traj    1 on state    2
C     -1.898914     0.125990     0.138307
H     -0.063175     1.482448    -1.114892
H     -2.483917    -0.816167     0.539522
C     -0.792076     1.382445    -0.154382
H     -1.050204     2.793934     0.156988
H     -0.069450     1.320585     0.606645
6
Family_3 [H][C]C([H])([H])[H] | RMSD: 0.4700 | 2316.00 to state    1 from traj    1 on state    2
C     -1.786470     0.316166     0.114333
H     -0.441164     1.109066    -1.195009
H     -2.134636    -0.716569     0.017384
C     -0.855340     1.304303    -0.067170
H     -1.611384     1.856439    -0.272313
H     -0.065581     1.196909     0.884679
6
Family_3 [H][C]C([H])([H])[H] | RMSD: 0.3295 | 1424.00 to state    1 from traj    1 on state    2
C     -1.855349     0.169490     0.154287
H     -0.440187     0.833397    -0.974461
H     -2.012675    -0.707809    -0.213270
C     -0.873507     1.417038    -0.070629
H     -0.763424     2.451149    -0.337324
H      0.000737     1.273538     0.524937
6
Family_3 [H][C]C([H])([H])[H] | RMSD: 0.4406 | 2100.00 to state    1 from traj    1 on state    2
C     -1.729417     0.241300     0.196881
H     -0.007723     1.165234    -0.678565
H     -2.491487    -0.407281    -0.141728
C     -0.962850     1.341723    -0.156174
H     -1.177213     2.262935    -0.003014
H      0.024903     0.871141     0.334963
6
Family_3 [H][C]C([H])([H])[H] | RMSD: 0.3897 | 4724.00 to state    1 from traj    1 on state    2
C     -1.683941     0.214166     0.176706
H     -0.485968     1.102264    -1.210591
H     -2.615787    -0.358688    -0.062184
C     -0.926149     1.340818    -0.143203
H     -0.921369     2.590002    -0.061600
H     -0.607605     0.892555     0.931881
6
Family_3 [H][C]C([H])([H])[H] | RMSD: 0.4513 | 1996.00 to state    1 from traj    1 on state    2
C     -1.787956     0.173484     0.167329
H     -0.313293     0.837969    -0.840623
H     -2.539133    -0.679111     0.028090
C     -0.897602     1.415139    -0.186930
H     -1.040651     2.477825     0.445524
H      0.161611     1.188620     0.597287
6
Family_3 [H][C]C([H])([H])[H] | RMSD: 0.4505 | 5752.00 to state    1 from traj    1 on state    2
C     -1.778054     0.180020     0.048788
H     -0.238658     0.707406    -1.035453
H     -2.476319    -0.475889     0.589678
C     -0.909558     1.397910    -0.063610
H     -1.135243     2.441207     0.199743
H      0.143229     1.279999     0.419371
6
Family_3 [H][C]C([H])([H])[H] | RMSD: 0.2420 | 10144.00 to state    1 from traj    1 on state    2
C     -1.686318     0.290063     0.149549
H     -0.419623     1.175589    -1.065916
H     -2.356897    -0.401250    -0.056634
C     -0.978917     1.271908    -0.101248
H     -0.832546     2.326460    -0.215229
H     -0.364573     1.042081     0.758965
6
Family_3 [H][C]C([H])([H])[H] | RMSD: 0.2932 | 11944.00 to state    1 from traj    1 on state    2
C     -1.746824     0.259788     0.134373
H     -0.357048     0.903691    -1.004573
H     -2.307686    -0.516156    -0.101931
C     -0.954836     1.307860    -0.080061
H     -0.921753     2.373042    -0.118084
H      0.046881     1.314654     0.574135
6
Family_3 [H][C]C([H])([H])[H] | RMSD: 0.4373 | 17792.00 to state    1 from traj    1 on state    2
C     -1.754495     0.211692     0.005734
H     -0.564310     0.806532    -0.830133
H     -2.350767    -0.349962     0.595229
C     -0.908940     1.362262    -0.000674
H     -1.120298     2.232609    -0.293788
H      0.040299     1.310909     0.465106
6
Family_3 [H][C]C([H])([H])[H] | RMSD: 0.5179 | 3824.00 to state    1 from traj    1 on state    2
C     -1.825761     0.262164     0.094800
H     -0.384490     1.282445    -1.072087
H     -1.752230    -0.714025     0.783733
C     -0.852079     1.337737    -0.160036
H     -1.055086     2.485445     0.286077
H     -0.631628     0.637050     0.776332
6
Family_3 [H][C]C([H])([H])[H] | RMSD: 0.3622 | 10452.00 to state    1 from traj    1 on state    2
C     -1.860722     0.197942     0.100869
H     -0.420323     1.288540    -0.947873
H     -1.791151    -0.831224     0.616305
C     -0.889358     1.398532    -0.141688
H     -0.499641     2.384749     0.048111
H     -0.251520     0.889683     0.766564
6
Family_3 [H][C]C([H])([H])[H] | RMSD: 0.3802 | 15412.00 to state    1 from traj    1 on state    2
C     -1.710096     0.340923     0.152998
H     -0.576533     0.897486    -1.060438
H     -2.064422    -0.513849    -0.193578
C     -0.963282     1.269158    -0.138804
H     -1.103606     2.078930     0.160112
H     -0.132042     1.107053     0.921493
6
Family_3 [H][C]C([H])([H])[H] | RMSD: 0.2950 | 3096.00 to state    1 from traj    1 on state    2
C     -1.768703     0.125815     0.165340
H     -0.323585     0.910378    -0.931005
H     -2.565293    -0.760190     0.147440
C     -0.916409     1.497437    -0.165927
H     -0.609866     2.307408     0.230911
H     -0.238044     0.955084     0.556367
6
Family_3 [H][C]C([H])([H])[H] | RMSD: 0.3743 | 948.00 to state    1 from traj    1 on state    2
C     -1.705928     0.207888     0.048443
H     -0.544394     1.237905    -1.172699
H     -2.663998    -0.361360     0.465037
C     -0.929854     1.327738    -0.011920
H     -0.822415     2.294549    -0.563325
H     -0.293773     1.285701     0.832507
6
Family_3 [H][C]C([H])([H])[H] | RMSD: 0.2866 | 3328.00 to state    1 from traj    1 on state    2
C     -1.782901     0.244181     0.143066
H     -0.224641     1.118826    -1.077073
H     -2.251684    -0.563657     0.115934
C     -0.944604     1.306251    -0.134782
H     -0.835069     2.426003     0.180623
H      0.079757     1.299194     0.678521
6
Family_3 [H][C]C([H])([H])[H] | RMSD: 0.5114 | 8520.00 to state    1 from traj    1 on state    2
C     -1.860645     0.229608     0.080441
H     -0.472394     1.469738    -0.950254
H     -1.874140    -0.718866     0.862928
C     -0.819155     1.325944    -0.160904
H     -1.024587     2.572506     0.201018
H     -0.428953     0.895982     0.841795
6
Family_3 [H][C]C([H])([H])[H] | RMSD: 0.3450 | 5088.00 to state    1 from traj    1 on state    2
C     -1.782296     0.213847     0.125901
H     -0.561701     0.842280    -1.057130
H     -2.399857    -0.858629     0.080564
C     -0.905601     1.369012    -0.122047
H     -0.747950     2.578480     0.118741
H      0.005910     1.331856     0.808616
6
Family_3 [H][C]C([H])([H])[H] | RMSD: 0.2942 | 7220.00 to state    1 from traj    1 on state    2
C     -1.735062     0.299448     0.070898
H     -0.153270     1.257059    -1.086818
H     -2.275399    -0.703164     0.656354
C     -0.980318     1.297793    -0.095759
H     -0.917806     2.361054    -0.069116
H     -0.029639     0.807664     0.792531
6
Family_3 [H][C]C([H])([H])[H] | RMSD: 0.3138 | 2172.00 to state    1 from traj    1 on state    2
C     -1.773854     0.239317     0.103741
H     -0.551758     0.912860    -1.006527
H     -2.066913    -0.808384     0.327712
C     -0.951477     1.352274    -0.118680
H     -0.417208     2.613493     0.115195
H     -0.221657     1.071966     0.738345
6
Family_3 [H][C]C([H])([H])[H] | RMSD: 0.2675 | 5796.00 to state    1 from traj    1 on state    2
C     -1.808974     0.214684     0.109490
H     -0.090187     1.192043    -1.184576
H     -2.196672    -0.684829     0.510905
C     -0.917603     1.364205    -0.116252
H     -0.809289     2.302770     0.193522
H     -0.146559     1.131303     0.557440
6
Family_3 [H][C]C([H])([H])[H] | RMSD: 0.4759 | 15364.00 to state    1 from traj    1 on state    2
C     -1.662859     0.211080     0.221663
H     -0.476614     1.044170    -1.004673
H     -2.830256    -0.496775    -0.341554
C     -0.922226     1.393597    -0.181361
H     -1.144873     2.383830    -0.075061
H     -0.476928     0.702789     0.937770
6
Family_3 [H][C]C([H])([H])[H] | RMSD: 0.3882 | 37492.00 to state    1 from traj    1 on state    2
C     -1.894180     0.106114     0.167813
H     -0.188555     1.323702    -1.032448
H     -2.445644    -0.693565     0.036281
C     -0.781518     1.425325    -0.099382
H     -1.172301     2.611291    -0.400965
H     -0.042455     1.265261     0.578450
6
Family_3 [H][C]C([H])([H])[H] | RMSD: 0.3597 | 7912.00 to state    1 from traj    1 on state    2
C     -1.774177     0.231078     0.157051
H     -0.220959     1.151741    -0.823069
H     -2.438530    -0.690000    -0.037670
C     -0.949018     1.306998    -0.108847
H     -0.734944     2.769435    -0.222121
H      0.111426     1.196434     0.505199
6
Family_3 [H][C]C([H])([H])[H] | RMSD: 0.4589 | 18112.00 to state    1 from traj    1 on state    2
C     -1.829966     0.310185     0.071672
H     -0.014467     1.301781    -1.203718
H     -2.217343    -0.864035     0.430578
C     -0.880116     1.248317    -0.020636
H     -1.292868     2.151014    -0.181890
H      0.085432     1.595458     0.343622
6
Family_3 [H][C]C([H])([H])[H] | RMSD: 0.3162 | 11560.00 to state    1 from traj    1 on state    2
C     -1.832151     0.154452     0.137331
H     -0.524481     0.620034    -1.071462
H     -2.166439    -0.857254    -0.077194
C     -0.864215     1.478612    -0.081245
H     -0.852281     2.474307    -0.213431
H     -0.059479     1.058677     0.690505
6
Family_3 [H][C]C([H])([H])[H] | RMSD: 0.3769 | 12620.00 to state    1 from traj    1 on state    2
C     -1.712932     0.247251     0.158593
H     -0.319027     1.104917    -1.161859
H     -2.463922    -0.344803    -0.053363
C     -0.936670     1.316721    -0.116464
H     -1.206610     2.564972    -0.269755
H     -0.170351     0.793944     0.979699
6
Family_3 [H][C]C([H])([H])[H] | RMSD: 0.3374 | 13456.00 to state    1 from traj    1 on state    2
C     -1.861052     0.175480     0.086470
H     -0.215765     1.050928    -1.153059
H     -2.018740    -0.801866     0.654603
C     -0.834191     1.436519    -0.090527
H     -1.031107     2.398394     0.024334
H     -0.350452     0.899315     0.519184
6
Family_3 [H][C]C([H])([H])[H] | RMSD: 0.4705 | 16212.00 to state    1 from traj    1 on state    2
C     -1.792207     0.135851     0.179235
H     -0.081485     1.486185    -1.138285
H     -2.663340    -0.265535     0.188253
C     -0.913272     1.347940    -0.192768
H     -0.776380     2.376620     0.365650
H      0.027115     1.477178     0.742360
6
Family_3 [H][C]C([H])([H])[H] | RMSD: 0.4313 | 13420.00 to state    1 from traj    1 on state    2
C     -1.873502     0.166179     0.147131
H     -0.358874     1.298243    -1.173576
H     -2.466170    -0.868998    -0.010982
C     -0.771894     1.375043    -0.064729
H     -1.272151     2.548079    -0.528745
H     -0.112822     1.412789     0.728142
6
Family_3 [H][C]C([H])([H])[H] | RMSD: 0.3288 | 12308.00 to state    1 from traj    1 on state    2
C     -1.789182     0.231984     0.155550
H     -0.171702     1.069439    -1.269317
H     -2.372423    -0.693339    -0.041780
C     -0.872234     1.359731    -0.079865
H     -1.324004     2.433087    -0.332654
H     -0.151005     0.979274     0.738631
6
Family_3 [H][C]C([H])([H])[H] | RMSD: 0.2999 | 3336.00 to state    1 from traj    1 on state    2
C     -1.777347     0.242300     0.127366
H     -0.449539     0.834494    -1.206472
H     -2.283103    -0.851760    -0.127548
C     -0.911802     1.345012    -0.031787
H     -0.790527     2.591065    -0.451274
H     -0.165515     1.267122     0.643132
6
Family_3 [H][C]C([H])([H])[H] | RMSD: 0.3774 | 5472.00 to state    1 from traj    1 on state    2
C     -1.844046     0.195594     0.112444
H     -0.215476     1.132106    -1.313556
H     -2.071388    -0.955428     0.642404
C     -0.870384     1.405475    -0.146031
H     -0.700940     2.517837     0.358868
H     -0.399640     0.982477     0.709215
6
Family_3 [H][C]C([H])([H])[H] | RMSD: 0.3754 | 2120.00 to state    1 from traj    1 on state    2
C     -1.797726     0.294668     0.063412
H     -0.187922     1.452957    -1.175267
H     -2.274704    -0.792537     0.627936
C     -0.881878     1.265663    -0.052221
H     -1.222601     2.333541    -0.299802
H     -0.117181     1.168460     0.710509
6
Family_3 [H][C]C([H])([H])[H] | RMSD: 0.4697 | 3632.00 to state    1 from traj    1 on state    2
C     -1.815322     0.260956     0.136294
H     -0.751863     1.067100    -1.110349
H     -2.036759    -0.601235    -0.246596
C     -0.825022     1.307997    -0.062793
H     -1.299001     2.234775    -0.486554
H     -0.182598     1.359047     0.964404
6
Family_3 [H][C]C([H])([H])[H] | RMSD: 0.3724 | 4016.00 to state    1 from traj    1 on state    2
C     -1.841263     0.133619     0.087633
H     -0.069657     1.272086    -0.942988
H     -2.407593    -0.710889     0.529924
C     -0.881515     1.425675    -0.038630
H     -0.797510     2.643124    -0.589348
H     -0.013211     0.970462     0.415229
6
Family_3 [H][C]C([H])([H])[H] | RMSD: 0.4997 | 6004.00 to state    1 from traj    1 on state    2
C     -1.790004     0.237742     0.137684
H     -0.399719     0.399838    -0.978321
H     -2.025763    -0.509730    -0.358998
C     -0.936566     1.364320    -0.048832
H     -1.033548     2.436108    -0.111080
H      0.216248     1.338946     0.386388
6
Family_3 [H][C]C([H])([H])[H] | RMSD: 0.4144 | 3228.00 to state    1 from traj    1 on state    2
C     -1.723188     0.273845     0.146152
H     -0.340786     1.480509    -1.161812
H     -2.590401    -0.503634     0.100218
C     -0.884111     1.280684    -0.107747
H     -1.355283     2.170519    -0.291838
H     -0.377510     1.084166     0.892530
6
Family_3 [H][C]C([H])([H])[H] | RMSD: 0.3324 | 4240.00 to state    1 from traj    1 on state    2
C     -1.810663     0.191456     0.167400
H     -0.614730     0.808696    -1.131862
H     -2.170865    -0.758223    -0.214992
C     -0.874117     1.403587    -0.125914
H     -0.810437     2.486409    -0.032649
H     -0.144717     1.211924     0.881885
6
Family_3 [H][C]C([H])([H])[H] | RMSD: 0.2882 | 1504.00 to state    1 from traj    1 on state    2
C     -1.763389     0.179560     0.154875
H     -0.376229     0.912319    -0.996876
H     -2.436890    -0.601116    -0.025777
C     -0.888301     1.431083    -0.105182
H     -1.084888     2.416098    -0.251817
H     -0.237019     0.835624     0.679058
6
Family_3 [H][C]C([H])([H])[H] | RMSD: 0.3821 | 3532.00 to state    1 from traj    1 on state    2
C     -1.754178     0.263314     0.170070
H     -0.256008     0.941705    -0.897421
H     -2.332072    -0.682589    -0.257929
C     -0.907055     1.359448    -0.082020
H     -1.309401     2.233351    -0.365611
H     -0.123835     0.926040     0.468503
6
Family_3 [H][C]C([H])([H])[H] | RMSD: 0.3697 | 7000.00 to state    1 from traj    1 on state    2
C     -1.876238     0.123796     0.135764
H     -0.467986     1.023577    -1.089596
H     -2.303298    -0.723179    -0.015981
C     -0.828818     1.406386    -0.071374
H     -0.730520     2.606012    -0.264584
H      0.002667     1.615258     0.599636
6
Family_3 [H][C]C([H])([H])[H] | RMSD: 0.4044 | 8936.00 to state    1 from traj    1 on state    2
C     -1.821893     0.283462     0.071622
H     -0.097577     1.447206    -0.982081
H     -1.788892    -0.696104     0.797556
C     -0.948145     1.283333    -0.099005
H     -0.660037     2.436490    -0.026763
H     -0.178322     0.897812     0.534293
6
Family_3 [H][C]C([H])([H])[H] | RMSD: 0.3468 | 4900.00 to state    1 from traj    1 on state    2
C     -1.782808     0.183109     0.141552
H     -0.345705     1.182136    -1.251618
H     -2.586776    -0.676597     0.141955
C     -0.840656     1.370976    -0.088975
H     -1.138616     2.644069    -0.299146
H     -0.400267     1.087251     0.779032
6
Family_3 [H][C]C([H])([H])[H] | RMSD: 0.3161 | 2304.00 to state    1 from traj    1 on state    2
C     -1.778519     0.240737     0.125617
H     -0.470193     0.897795    -1.185777
H     -2.399962    -0.810927     0.011891
C     -0.882975     1.333553    -0.078407
H     -1.017524     2.591509    -0.131466
H     -0.130522     1.317713     0.739520
6
Family_3 [H][C]C([H])([H])[H] | RMSD: 0.3570 | 7620.00 to state    1 from traj    1 on state    2
C     -1.722466     0.277660     0.134785
H     -0.233957     1.160845    -1.041578
H     -2.542943    -0.467435     0.057384
C     -0.938944     1.286160    -0.106419
H     -1.282988     2.262880    -0.082852
H      0.040683     1.164566     0.725766
6
Family_3 [H][C]C([H])([H])[H] | RMSD: 0.4074 | 3236.00 to state    1 from traj    1 on state    2
C     -1.835310     0.180303     0.076971
H     -0.328670     1.315761    -1.057986
H     -2.531457    -0.709725     0.492496
C     -0.826711     1.354180    -0.063225
H     -1.201740     2.501141    -0.320544
H      0.049941     1.363246     0.718963
6
Family_3 [H][C]C([H])([H])[H] | RMSD: 0.4054 | 4320.00 to state    1 from traj    1 on state    2
C     -1.738741     0.259467     0.186994
H     -0.181098     1.619108    -0.708723
H     -2.481889    -0.475565     0.037978
C     -0.933465     1.281031    -0.168731
H     -1.053393     2.369130    -0.196326
H     -0.174188     0.886078     0.646174
6
Family_3 [H][C]C([H])([H])[H] | RMSD: 0.4835 | 3832.00 to state    1 from traj    1 on state    2
C     -1.904207     0.094815     0.143627
H     -0.061758     1.159387    -0.768804
H     -1.992578    -0.892099     0.648643
C     -0.866152     1.529879    -0.200935
H     -0.523859     2.290530     0.495185
H     -0.142818     0.837677     0.304560
6
Family_3 [H][C]C([H])([H])[H] | RMSD: 0.2830 | 4652.00 to state    1 from traj    1 on state    2
C     -1.746620     0.310244     0.039580
H     -0.402401     0.978180    -1.094896
H     -1.891006    -0.596153     0.571420
C     -0.974675     1.297767    -0.029450
H     -0.824161     2.388987    -0.326020
H     -0.188067     0.823275     0.725498
6
Family_3 [H][C]C([H])([H])[H] | RMSD: 0.4284 | 5140.00 to state    1 from traj    1 on state    2
C     -1.810687     0.262251     0.166946
H      0.004236     1.141481    -1.064600
H     -2.227396    -0.721113     0.046053
C     -0.958642     1.290688    -0.160868
H     -0.827199     2.385471     0.417573
H      0.317089     1.444661     0.525276
6
Family_3 [H][C]C([H])([H])[H] | RMSD: 0.4138 | 2620.00 to state    1 from traj    1 on state    2
C     -1.799243     0.190277     0.141876
H     -0.279845     1.529261    -1.232024
H     -2.600201    -0.488000     0.212748
C     -0.850780     1.307968    -0.116536
H     -1.051085     2.290255    -0.044892
H     -0.223756     1.570703     0.758936
6
Family_3 [H][C]C([H])([H])[H] | RMSD: 0.3741 | 20184.00 to state    1 from traj    1 on state    2
C     -1.811048     0.185895     0.097742
H     -0.241057     1.065224    -1.148346
H     -2.437113    -0.617919     0.409215
C     -0.853067     1.396005    -0.093356
H     -1.359592     2.460713    -0.130734
H      0.050788     0.997401     0.814324
6
Family_3 [H][C]C([H])([H])[H] | RMSD: 0.3265 | 7048.00 to state    1 from traj    1 on state    2
C     -1.830196     0.179147     0.124982
H     -0.579382     1.140708    -0.976190
H     -1.959055    -0.847762     0.211859
C     -0.918301     1.405751    -0.104586
H     -0.187829     2.485774    -0.255694
H     -0.255246     1.090970     0.773714
6
Family_3 [H][C]C([H])([H])[H] | RMSD: 0.4422 | 7928.00 to state    1 from traj    1 on state    2
C     -1.702899     0.235265     0.008504
H     -0.496802     0.720592    -0.988375
H     -2.505210    -0.296741     0.590208
C     -0.935224     1.358576    -0.006343
H     -1.269715     2.161019    -0.190780
H     -0.024960     1.178265     0.559918
6
Family_3 [H][C]C([H])([H])[H] | RMSD: 0.4560 | 8256.00 to state    1 from traj    1 on state    2
C     -1.850159     0.241778     0.093203
H     -0.011433     1.296406    -1.075153
H     -2.139617    -0.828000     0.700257
C     -0.910626     1.315289    -0.147601
H     -0.912862     2.534304     0.381434
H      0.228823     1.198614     0.638370
6
Family_3 [H][C]C([H])([H])[H] | RMSD: 0.3264 | 7668.00 to state    1 from traj    1 on state    2
C     -1.786877     0.264682     0.111553
H     -0.399822     1.135519    -1.081514
H     -1.977030    -0.673827     0.374563
C     -0.968556     1.293611    -0.143683
H     -0.462678     2.559934     0.249947
H     -0.059328     1.165072     0.836575
6
Family_3 [H][C]C([H])([H])[H] | RMSD: 0.3275 | 1508.00 to state    1 from traj    1 on state    2
C     -1.807487     0.122248     0.084571
H     -0.388528     1.102606    -0.930762
H     -2.510761    -0.620854     0.360757
C     -0.903582     1.427552    -0.047013
H     -0.587787     2.599649    -0.505324
H      0.059592     1.206510     0.624521
6
Family_3 [H][C]C([H])([H])[H] | RMSD: 0.4409 | 3576.00 to state    1 from traj    1 on state    2
C     -1.783982     0.285271     0.145482
H     -0.532181     0.675049    -1.238832
H     -2.036736    -0.587712    -0.346720
C     -0.897297     1.296690    -0.066608
H     -1.170842     2.362058    -0.075489
H     -0.042697     1.455290     0.717915
6
Family_3 [H][C]C([H])([H])[H] | RMSD: 0.4040 | 5164.00 to state    1 from traj    1 on state    2
C     -1.817427     0.176825     0.040322
H     -0.240409     0.952859    -0.917948
H     -2.353138    -0.578988     0.532204
C     -0.910681     1.374447    -0.007231
H     -0.819050     2.392629    -0.261562
H      0.188139     1.503864     0.249721
6
Family_3 [H][C]C([H])([H])[H] | RMSD: 0.2906 | 2284.00 to state    1 from traj    1 on state    2
C     -1.771265     0.206303     0.168774
H     -0.180148     0.808236    -1.184373
H     -2.384912    -0.720582    -0.025693
C     -0.919688     1.410965    -0.136207
H     -0.981268     2.342497     0.231750
H     -0.120853     1.053830     0.586976
6
Family_3 [H][C]C([H])([H])[H] | RMSD: 0.4704 | 3460.00 to state    1 from traj    1 on state    2
C     -1.821575     0.247774     0.129555
H     -0.479463     0.946790    -0.995530
H     -2.081001    -0.611677    -0.189784
C     -0.854624     1.362581    -0.057138
H     -1.466730     2.081369    -0.501649
H      0.184205     1.149865     0.820785
6
Family_3 [H][C]C([H])([H])[H] | RMSD: 0.3783 | 2244.00 to state    1 from traj    1 on state    2
C     -1.627783     0.244682     0.170522
H     -0.551724     0.978690    -1.055248
H     -2.674010    -0.410910    -0.097936
C     -0.986037     1.341149    -0.139078
H     -0.717680     2.458019    -0.032895
H     -0.642854     0.832771     0.808129
6
Family_3 [H][C]C([H])([H])[H] | RMSD: 0.3070 | 4088.00 to state    1 from traj    1 on state    2
C     -1.795148     0.167438     0.136107
H     -0.262189     0.969763    -1.316742
H     -2.434565    -0.532022     0.076954
C     -0.864686     1.420751    -0.081349
H     -1.234197     2.380279    -0.261640
H     -0.107036     1.012453     0.845660
6
Family_3 [H][C]C([H])([H])[H] | RMSD: 0.4442 | 5396.00 to state    1 from traj    1 on state    2
C     -1.729368     0.230138     0.191726
H     -0.104221     1.049636    -0.823089
H     -2.465691    -0.273169    -0.156745
C     -0.990947     1.323667    -0.182020
H     -0.968539     2.310757     0.322307
H      0.221139     1.152965     0.538587
6
Family_3 [H][C]C([H])([H])[H] | RMSD: 0.4665 | 15768.00 to state    1 from traj    1 on state    2
C     -1.753671     0.318244     0.169899
H     -0.380181     0.693963    -0.841876
H     -2.112069    -0.742306    -0.474987
C     -0.939897     1.314467    -0.078644
H     -1.263057     2.277613    -0.271299
H      0.119283     1.070692     0.497516
6
Family_3 [H][C]C([H])([H])[H] | RMSD: 0.4326 | 8264.00 to state    1 from traj    1 on state    2
C     -1.797054     0.257206     0.143275
H     -0.511071     1.095932    -1.250344
H     -2.319253    -0.631028    -0.122409
C     -0.842611     1.307957    -0.097952
H     -1.404835     2.239794    -0.151297
H     -0.043166     1.400145     0.980711
6
Family_3 [H][C]C([H])([H])[H] | RMSD: 0.3758 | 5700.00 to state    1 from traj    1 on state    2
C     -1.795649     0.265357     0.129685
H     -0.340283     1.346945    -1.400807
H     -2.283017    -0.538871     0.090735
C     -0.869287     1.260968    -0.084236
H     -1.169322     2.231951    -0.122364
H     -0.184565     1.527604     0.887602
6
Family_3 [H][C]C([H])([H])[H] | RMSD: 0.3884 | 6960.00 to state    1 from traj    1 on state    2
C     -1.728131     0.249345     0.044093
H     -0.590214     0.725062    -0.867621
H     -2.244157    -0.630513     0.619227
C     -0.934412     1.372448    -0.086239
H     -0.963240     2.497563     0.081844
H     -0.208097     0.837952     0.665461
6
Family_3 [H][C]C([H])([H])[H] | RMSD: 0.4222 | 7112.00 to state    1 from traj    1 on state    2
C     -1.715215     0.247728     0.149070
H     -0.254640     1.274324    -1.142695
H     -2.523443    -0.226351     0.059547
C     -0.921730     1.310580    -0.122579
H     -1.398768     2.217693    -0.177834
H     -0.133875     0.920865     0.942050
6
Family_3 [H][C]C([H])([H])[H] | RMSD: 0.3426 | 1728.00 to state    1 from traj    1 on state    2
C     -1.793141     0.185636     0.133426
H     -0.478215     0.779412    -1.182158
H     -2.408266    -0.753714     0.104454
C     -0.862060     1.402224    -0.118147
H     -1.002181     2.568379     0.170294
H     -0.204535     1.240324     0.722065
6
Family_3 [H][C]C([H])([H])[H] | RMSD: 0.4572 | 2348.00 to state    1 from traj    1 on state    2
C     -1.681872     0.151872     0.213486
H     -0.355658     1.319917    -1.116437
H     -2.674242    -0.151834    -0.009368
C     -0.972195     1.400678    -0.229193
H     -0.543324     2.101196     0.403733
H     -0.533482     0.985859     0.905953
6
Family_3 [H][C]C([H])([H])[H] | RMSD: 0.7258 | 2116.00 to state    1 from traj    1 on state    2
C     -1.767097     0.207134     0.318267
H      0.292483     1.404713    -0.581759
H     -2.292123    -0.281668    -0.628114
C     -0.915026     1.385650    -0.206525
H     -1.432103     2.365097    -0.288329
H     -0.340663     0.287577     0.163440
6
Family_3 [H][C]C([H])([H])[H] | RMSD: 0.4277 | 4620.00 to state    1 from traj    1 on state    2
C     -1.826873     0.196233     0.126585
H     -0.612479     1.088980    -1.261285
H     -2.464753    -1.006698     0.110623
C     -0.825351     1.342663    -0.092481
H     -0.800146     2.815467    -0.140866
H     -0.251283     1.520079     0.881866
6
Family_3 [H][C]C([H])([H])[H] | RMSD: 0.5282 | 6584.00 to state    1 from traj    1 on state    2
C     -1.742100     0.200154     0.046965
H     -0.293613     1.350490    -0.689420
H     -2.456253    -0.087138     0.463955
C     -0.935630     1.340066     0.002280
H     -1.114647     1.988709    -0.762392
H      0.039767     1.149994     0.397784
6
Family_3 [H][C]C([H])([H])[H] | RMSD: 0.4168 | 3312.00 to state    1 from traj    1 on state    2
C     -1.807845     0.237502     0.069615
H     -0.322327     1.320544    -1.166381
H     -2.363046    -0.704055     0.539870
C     -0.831186     1.348666    -0.056984
H     -1.463306     2.152132    -0.350235
H     -0.137184     1.085930     0.822956
6
Family_3 [H][C]C([H])([H])[H] | RMSD: 0.2880 | 8860.00 to state    1 from traj    1 on state    2
C     -1.897901     0.105279     0.149424
H     -0.344038     1.280927    -1.175042
H     -2.333241    -0.961138     0.176525
C     -0.796099     1.455754    -0.097895
H     -0.734668     2.538060    -0.320001
H     -0.218930     1.296210     0.701228
6
Family_3 [H][C]C([H])([H])[H] | RMSD: 0.4376 | 2448.00 to state    1 from traj    1 on state    2
C     -1.771718     0.281465     0.082796
H     -0.381641     1.125237    -0.884004
H     -2.119985    -0.535677     0.500606
C     -0.874915     1.316701    -0.102244
H     -1.478686     2.356296    -0.086121
H     -0.214977     0.765729     0.697969
6
Family_3 [H][C]C([H])([H])[H] | RMSD: 0.3782 | 1744.00 to state    1 from traj    1 on state    2
C     -1.826170     0.217886     0.143432
H     -0.232532     1.181478    -1.083563
H     -2.335812    -0.647949    -0.007841
C     -0.870269     1.349455    -0.097252
H     -1.289928     2.341958    -0.292879
H      0.256463     1.203411     0.830738
6
Family_3 [H][C]C([H])([H])[H] | RMSD: 0.3913 | 4556.00 to state    1 from traj    1 on state    2
C     -1.858594     0.162628     0.159008
H     -0.546614     1.062865    -1.165028
H     -2.315577    -0.832754    -0.180731
C     -0.786888     1.412118    -0.076505
H     -1.174449     2.496823    -0.497580
H     -0.172358     1.263720     0.856981
6
Family_3 [H][C]C([H])([H])[H] | RMSD: 0.3949 | 5308.00 to state    1 from traj    1 on state    2
C     -1.799539     0.213567     0.081036
H     -0.038261     1.255318    -1.072188
H     -2.429261    -0.589133     0.525422
C     -0.892182     1.359537    -0.057318
H     -1.305606     2.419755    -0.384279
H      0.115093     0.924277     0.645150
6
Family_3 [H][C]C([H])([H])[H] | RMSD: 0.3680 | 4776.00 to state    1 from traj    1 on state    2
C     -1.816130     0.208416     0.132192
H     -0.319521     0.895563    -0.996875
H     -2.347442    -0.832072    -0.137567
C     -0.873269     1.402038    -0.038889
H     -1.156825     2.285150    -0.526285
H      0.138083     1.216536     0.545668
6
Family_3 [H][C]C([H])([H])[H] | RMSD: 0.3651 | 5592.00 to state    1 from traj    1 on state    2
C     -1.772848     0.240465     0.136443
H     -0.302169     0.715361    -1.062652
H     -2.317783    -0.674998    -0.151389
C     -0.938777     1.341434    -0.067915
H     -0.890075     2.401224    -0.010565
H      0.089162     1.463836     0.404771
6
Family_3 [H][C]C([H])([H])[H] | RMSD: 0.3632 | 10096.00 to state    1 from traj    1 on state    2
C     -1.779846     0.225999     0.128842
H     -0.367509     1.461126    -0.993783
H     -2.488673    -0.521830     0.206423
C     -0.865921     1.308944    -0.105447
H     -1.196476     2.310641    -0.291811
H     -0.152942     1.215000     0.797132
6
Family_3 [H][C]C([H])([H])[H] | RMSD: 0.3396 | 6600.00 to state    1 from traj    1 on state    2
C     -1.919845     0.070904     0.102354
H     -0.259096     1.151548    -1.312318
H     -2.342939    -0.900640     0.476957
C     -0.777597     1.506917    -0.074122
H     -0.975644     2.596556    -0.363499
H     -0.012183     1.106550     0.859179
6
Family_3 [H][C]C([H])([H])[H] | RMSD: 0.3878 | 15036.00 to state    1 from traj    1 on state    2
C     -1.834614     0.234317     0.082169
H     -0.380881     1.361846    -0.935651
H     -2.122098    -0.770097     0.668740
C     -0.874887     1.334922    -0.143155
H     -0.985863     2.409218     0.101452
H      0.042670     1.055319     0.888860
6
Family_3 [H][C]C([H])([H])[H] | RMSD: 0.4357 | 1540.00 to state    1 from traj    1 on state    2
C     -1.787301     0.197191     0.037738
H     -0.616269     0.726249    -0.953516
H     -2.335182    -0.651229     0.628836
C     -0.858099     1.405252    -0.079587
H     -1.170931     2.383026     0.168143
H     -0.087594     1.202575     0.651909
6
Family_3 [H][C]C([H])([H])[H] | RMSD: 0.3361 | 2404.00 to state    1 from traj    1 on state    2
C     -1.727446     0.218741     0.186867
H     -0.181127     1.077551    -0.993162
H     -2.550330    -0.510739    -0.035739
C     -0.955585     1.375016    -0.184423
H     -0.985246     2.194164     0.299763
H     -0.044872     1.003153     0.696729
6
Family_3 [H][C]C([H])([H])[H] | RMSD: 0.4749 | 3548.00 to state    1 from traj    1 on state    2
C     -1.762198     0.241223     0.165963
H     -0.119711     0.866889    -1.001592
H     -2.460373    -0.611351    -0.031410
C     -0.886523     1.382067    -0.138314
H     -1.552494     2.140346     0.233858
H     -0.037833     1.016337     0.466405
6
Family_3 [H][C]C([H])([H])[H] | RMSD: 0.2921 | 4920.00 to state    1 from traj    1 on state    2
C     -1.791700     0.229233     0.087631
H     -0.392544     1.115016    -1.347134
H     -2.150159    -0.701529     0.500946
C     -0.897344     1.340292    -0.085243
H     -0.808028     2.653967    -0.110120
H     -0.339201     0.985416     0.924564
6
Family_3 [H][C]C([H])([H])[H] | RMSD: 0.3211 | 2072.00 to state    1 from traj    1 on state    2
C     -1.702735     0.238430     0.137395
H     -0.654448     1.066965    -1.075891
H     -2.428550    -0.436465     0.017642
C     -0.916939     1.330888    -0.106305
H     -0.898650     2.375119    -0.177975
H     -0.534875     1.049717     0.862486
6
Family_3 [H][C]C([H])([H])[H] | RMSD: 0.4221 | 3036.00 to state    1 from traj    1 on state    2
C     -1.897357     0.144734     0.100360
H     -0.144692     1.422056    -1.171161
H     -2.327548    -0.832550     0.597073
C     -0.763582     1.419539    -0.080813
H     -1.346133     2.459739    -0.313525
H     -0.206451     1.066212     0.651414
6
Family_3 [H][C]C([H])([H])[H] | RMSD: 0.4073 | 7732.00 to state    1 from traj    1 on state    2
C     -1.847730     0.166237     0.156000
H     -0.130307     1.443306    -0.860811
H     -2.458064    -0.606516     0.090785
C     -0.838446     1.376854    -0.105005
H     -1.235050     2.325691    -0.385886
H      0.099313     1.205370     0.544987
6
Family_3 [H][C]C([H])([H])[H] | RMSD: 0.3136 | 8752.00 to state    1 from traj    1 on state    2
C     -1.851149     0.107713     0.134877
H     -0.395045     1.179634    -1.238618
H     -2.576639    -0.860279     0.259152
C     -0.801546     1.457627    -0.109003
H     -0.933607     2.518953    -0.161453
H     -0.217760     1.264433     0.829335
6
Family_3 [H][C]C([H])([H])[H] | RMSD: 0.4010 | 9776.00 to state    1 from traj    1 on state    2
C     -1.784140     0.214613     0.097508
H     -0.211506     0.945050    -1.084245
H     -2.515607    -0.737046     0.427366
C     -0.870533     1.379506    -0.099844
H     -1.256064     2.282861     0.244516
H     -0.116305     1.268952     0.436916
6
Family_3 [H][C]C([H])([H])[H] | RMSD: 0.4484 | 4228.00 to state    1 from traj    1 on state    2
C     -1.799756     0.286090     0.132727
H     -0.411698     1.234596    -1.255460
H     -2.155963    -0.656013     0.229026
C     -0.870969     1.278748    -0.161848
H     -1.213057     2.084497     0.447774
H     -0.127491     1.445637     0.922376
6
Family_3 [H][C]C([H])([H])[H] | RMSD: 0.4504 | 5308.00 to state    1 from traj    1 on state    2
C     -1.769487     0.252103     0.049225
H     -0.082196     0.826790    -0.995032
H     -2.401239    -0.665860     0.496941
C     -0.901476     1.348841     0.003545
H     -1.393001     2.456119    -0.320620
H     -0.028941     1.061436     0.186637
6
Family_3 [H][C]C([H])([H])[H] | RMSD: 0.4860 | 9676.00 to state    1 from traj    1 on state    2
C     -1.754571     0.149972     0.197468
H     -0.323861     1.323827    -1.160197
H     -2.605505    -0.288250     0.144761
C     -0.848519     1.404538    -0.220308
H     -1.273032     2.395866     0.291122
H     -0.511728     0.800333     0.993195
6
Family_3 [H][C]C([H])([H])[H] | RMSD: 0.4423 | 9828.00 to state    1 from traj    1 on state    2
C     -1.772172     0.130012     0.026564
H     -0.568436     0.497074    -0.957172
H     -2.462102    -0.604318     0.621642
C     -0.864135     1.500406    -0.023589
H     -1.080348     2.516250    -0.203339
H     -0.207437     0.918278     0.500133
6
Family_3 [H][C]C([H])([H])[H] | RMSD: 0.4126 | 2948.00 to state    1 from traj    1 on state    2
C     -1.809272     0.245446     0.124256
H     -0.550069     1.299652    -0.975036
H     -2.324732    -0.731120     0.160394
C     -0.802534     1.321924    -0.099133
H     -1.407803     2.242919    -0.221432
H     -0.327673     1.267101     0.733437
6
Family_3 [H][C]C([H])([H])[H] | RMSD: 0.3983 | 5260.00 to state    1 from traj    1 on state    2
C     -1.783215     0.230819     0.113734
H     -0.608400     0.985126    -1.216799
H     -2.372383    -0.679598     0.077021
C     -0.817867     1.361101    -0.069732
H     -1.371502     2.153927    -0.171277
H     -0.385762     1.326560     0.783463
6
Family_3 [H][C]C([H])([H])[H] | RMSD: 0.3514 | 4120.00 to state    1 from traj    1 on state    2
C     -1.741940     0.259502     0.174370
H     -0.365754     1.325329    -1.123460
H     -2.555839    -0.624749    -0.147621
C     -0.930360     1.260292    -0.125817
H     -0.859087     2.641906    -0.198479
H     -0.108758     1.302966     0.887737
6
Family_3 [H][C]C([H])([H])[H] | RMSD: 0.3305 | 5992.00 to state    1 from traj    1 on state    2
C     -1.854518     0.125789     0.170759
H     -0.478010     0.898114    -1.265869
H     -2.323562    -0.774559    -0.077358
C     -0.818774     1.464404    -0.141174
H     -0.947894     2.352170     0.121198
H     -0.128154     1.330865     0.866221
6
Family_3 [H][C]C([H])([H])[H] | RMSD: 0.4187 | 11688.00 to state    1 from traj    1 on state    2
C     -1.768581     0.221158     0.075582
H     -0.288091     1.085314    -1.030370
H     -2.531452    -0.573190     0.420922
C     -0.882610     1.360631    -0.059842
H     -1.415035     2.466133    -0.382609
H      0.093609     0.928486     0.801224
6
Family_3 [H][C]C([H])([H])[H] | RMSD: 0.4581 | 12668.00 to state    1 from traj    1 on state    2
C     -1.765786     0.197773     0.158348
H     -0.085574     1.259245    -0.922139
H     -2.621406    -0.525207     0.032468
C     -0.872308     1.380521    -0.082974
H     -1.438987     2.423213    -0.541427
H     -0.151063     0.791130     0.529686
6
Family_3 [H][C]C([H])([H])[H] | RMSD: 0.3024 | 4092.00 to state    1 from traj    1 on state    2
C     -1.718545     0.233760     0.192377
H     -0.138647     1.071571    -1.006270
H     -2.406684    -0.423192    -0.159543
C     -0.962123     1.353721    -0.132888
H     -0.997431     2.443339    -0.151395
H     -0.246968     0.747199     0.605079
6
Family_3 [H][C]C([H])([H])[H] | RMSD: 0.3958 | 4264.00 to state    1 from traj    1 on state    2
C     -1.797712     0.170225     0.075617
H     -0.355975     0.950477    -0.893851
H     -2.420572    -0.583933     0.496942
C     -0.891381     1.370789    -0.073868
H     -0.873734     2.880891    -0.118411
H     -0.039069     1.145161     0.491191
6
Family_3 [H][C]C([H])([H])[H] | RMSD: 0.3520 | 11760.00 to state    1 from traj    1 on state    2
C     -1.854678     0.164824     0.087475
H     -0.285910     1.085227    -1.300682
H     -2.384369    -0.832558     0.485713
C     -0.816764     1.428676    -0.084296
H     -1.232371     2.273839    -0.049913
H      0.002973     1.240684     0.823725
6
Family_3 [H][C]C([H])([H])[H] | RMSD: 0.3846 | 19888.00 to state    1 from traj    1 on state    2
C     -1.805652     0.124772     0.026019
H     -0.568603     0.860786    -0.979012
H     -2.412164    -0.484620     0.527672
C     -0.856145     1.439842     0.017905
H     -0.895890     2.424099    -0.564390
H     -0.137947     1.311123     0.489068
6
Family_3 [H][C]C([H])([H])[H] | RMSD: 0.3485 | 2732.00 to state    1 from traj    1 on state    2
C     -1.774997     0.193551     0.106191
H     -0.638549     0.944061    -1.256853
H     -2.424616    -0.669853     0.204114
C     -0.880017     1.358752    -0.093487
H     -0.716607     2.476269     0.082051
H     -0.315651     1.507600     0.816038
6
Family_3 [H][C]C([H])([H])[H] | RMSD: 0.4039 | 3536.00 to state    1 from traj    1 on state    2
C     -1.805592     0.240088     0.154815
H     -0.637385     0.734935    -0.986242
H     -1.980774    -0.737983    -0.338842
C     -0.875459     1.372424    -0.070037
H     -1.023212     2.480617    -0.423296
H     -0.143803     1.063080     0.734920
6
Family_3 [H][C]C([H])([H])[H] | RMSD: 0.3745 | 5296.00 to state    1 from traj    1 on state    2
C     -1.793571     0.220059     0.150144
H     -0.199377     1.326008    -0.944973
H     -2.540965    -0.692086     0.091382
C     -0.865523     1.354946    -0.115056
H     -1.297074     2.142844    -0.167037
H     -0.009393     1.210802     0.599243
6
Family_3 [H][C]C([H])([H])[H] | RMSD: 0.4852 | 9536.00 to state    1 from traj    1 on state    2
C     -1.870253     0.182075     0.084470
H     -0.207266     1.377073    -1.434387
H     -2.204901    -0.750345     0.735020
C     -0.763424     1.399106    -0.087155
H     -1.476207     2.327398    -0.121410
H     -0.461294     0.959860     0.849487
6
Family_3 [H][C]C([H])([H])[H] | RMSD: 0.3879 | 18724.00 to state    1 from traj    1 on state    2
C     -1.851203     0.148051     0.126954
H     -0.276021     1.199409    -1.155343
H     -2.573763    -0.773858     0.164374
C     -0.835874     1.380163    -0.083952
H     -0.944893     2.483152    -0.135921
H      0.081305     1.636416     0.611219
6
Family_3 [H][C]C([H])([H])[H] | RMSD: 0.3384 | 19708.00 to state    1 from traj    1 on state    2
C     -1.820808     0.206706     0.102436
H     -0.110584     1.313035    -1.019544
H     -2.244769    -0.532078     0.535098
C     -0.881544     1.345457    -0.109243
H     -1.117908     2.418384    -0.012800
H     -0.058096     1.060405     0.575076
6
Family_3 [H][C]C([H])([H])[H] | RMSD: 0.3827 | 2620.00 to state    1 from traj    1 on state    2
C     -1.750807     0.177094     0.194707
H     -0.096826     0.861118    -0.744964
H     -2.465662    -0.548342    -0.164604
C     -0.974312     1.421503    -0.152300
H     -0.733627     2.454126     0.104105
H      0.036044     0.939552     0.296877
6
Family_3 [H][C]C([H])([H])[H] | RMSD: 0.2905 | 4012.00 to state    1 from traj    1 on state    2
C     -1.718993     0.192278     0.170588
H     -0.312310     1.108908    -1.203884
H     -2.595955    -0.400868     0.001969
C     -0.948025     1.379291    -0.156216
H     -0.865505     2.290194     0.096147
H     -0.178616     1.030274     0.931231
6
Family_3 [H][C]C([H])([H])[H] | RMSD: 0.2988 | 5092.00 to state    1 from traj    1 on state    2
C     -1.768490     0.180365     0.163018
H     -0.033183     1.309820    -1.094248
H     -2.659058    -0.643380     0.141191
C     -0.917963     1.366319    -0.109528
H     -0.827283     2.554846    -0.184607
H     -0.201286     1.103750     0.497007
6
Family_3 [H][C]C([H])([H])[H] | RMSD: 0.3733 | 4012.00 to state    1 from traj    1 on state    2
C     -1.766361     0.204754     0.080570
H     -0.465001     1.254783    -0.889201
H     -2.507656    -0.491186     0.457560
C     -0.899965     1.348151    -0.101059
H     -1.077150     2.418210    -0.241509
H      0.089178     1.069104     0.914013
6
Family_3 [H][C]C([H])([H])[H] | RMSD: 0.4856 | 3652.00 to state    1 from traj    1 on state    2
C     -1.711765     0.205242     0.223153
H     -0.558795     1.371697    -1.160917
H     -2.583014    -0.287221    -0.201850
C     -0.905932     1.310427    -0.223522
H     -0.879142     2.554170     0.197783
H     -0.519131     1.055950     1.166100
6
Family_3 [H][C]C([H])([H])[H] | RMSD: 0.4850 | 2776.00 to state    1 from traj    1 on state    2
C     -1.687306     0.247187     0.235670
H     -0.169403     1.615456    -0.883327
H     -2.689220    -0.390638    -0.121493
C     -0.929966     1.290988    -0.204462
H     -1.061305     2.459687    -0.042892
H     -0.625211     0.741928     0.672573
6
Family_3 [H][C]C([H])([H])[H] | RMSD: 0.3516 | 1452.00 to state    1 from traj    1 on state    2
C     -1.771462     0.235252     0.136308
H     -0.469364     0.837669    -0.834486
H     -2.140922    -0.667574    -0.165604
C     -0.928837     1.363514    -0.048781
H     -0.836154     2.578623    -0.567649
H     -0.109384     0.955726     0.521519
6
Family_3 [H][C]C([H])([H])[H] | RMSD: 0.4690 | 4448.00 to state    1 from traj    1 on state    2
C     -1.820621     0.190860     0.052271
H     -0.743754     0.989784    -1.158492
H     -2.314643    -0.939776     0.710830
C     -0.795809     1.392383    -0.095409
H     -1.015931     2.668616     0.074003
H     -0.480854     1.170780     0.884387
6
Family_3 [H][C]C([H])([H])[H] | RMSD: 0.3965 | 7912.00 to state    1 from traj    1 on state    2
C     -1.790523     0.209261     0.057545
H     -0.260339     0.781163    -1.003090
H     -2.213061    -0.435251     0.540710
C     -0.915379     1.366150    -0.068585
H     -1.095318     2.435128     0.153225
H      0.079661     1.201699     0.437424
6
Family_3 [H][C]C([H])([H])[H] | RMSD: 0.4536 | 6488.00 to state    1 from traj    1 on state    2
C     -1.743756     0.208297     0.007441
H     -0.373236     0.795310    -0.761269
H     -2.417597    -0.346040     0.632237
C     -0.956731     1.351882     0.004014
H     -0.951878     2.519006    -0.350899
H      0.189133     1.195953     0.340150
6
Family_3 [H][C]C([H])([H])[H] | RMSD: 0.3459 | 8228.00 to state    1 from traj    1 on state    2
C     -1.790733     0.200962     0.160944
H     -0.243720     1.013246    -1.013276
H     -2.352817    -0.541986     0.054687
C     -0.872602     1.389599    -0.142468
H     -1.251067     2.223406     0.178632
H     -0.148663     1.107551     0.556513
6
Family_3 [H][C]C([H])([H])[H] | RMSD: 0.4524 | 9200.00 to state    1 from traj    1 on state    2
C     -1.823694     0.240048     0.145836
H     -0.513983     0.810609    -0.963346
H     -2.045440    -0.895882    -0.322272
C     -0.876118     1.410613    -0.052620
H     -1.179443     2.206287    -0.656044
H      0.177241     0.965068     0.827644
6
Family_3 [H][C]C([H])([H])[H] | RMSD: 0.3530 | 12984.00 to state    1 from traj    1 on state    2
C     -1.755318     0.238114     0.072711
H     -0.342089     1.016529    -1.063548
H     -2.358164    -0.462170     0.476867
C     -0.904296     1.354813    -0.084310
H     -1.274134     2.113774     0.032758
H     -0.066223     1.105886     0.688851
6
Family_3 [H][C]C([H])([H])[H] | RMSD: 0.4353 | 19004.00 to state    1 from traj    1 on state    2
C     -1.776551     0.247293     0.056441
H     -0.122390     0.980626    -0.854644
H     -2.325752    -0.639331     0.672258
C     -0.911823     1.351191    -0.071331
H     -1.287737     2.440712    -0.001703
H      0.037974     0.925799     0.358241
6
Family_3 [H][C]C([H])([H])[H] | RMSD: 0.4190 | 20096.00 to state    1 from traj    1 on state    2
C     -1.748519     0.289943     0.067256
H     -0.445542     1.262685    -1.197620
H     -2.386578    -0.511667     0.454784
C     -0.858518     1.257342    -0.045333
H     -1.411585     2.262973    -0.214773
H     -0.423395     1.303875     0.693102
6
Family_3 [H][C]C([H])([H])[H] | RMSD: 0.3954 | 8948.00 to state    1 from traj    1 on state    2
C     -1.768171     0.283160     0.122892
H     -0.573723     0.776105    -1.076051
H     -2.286354    -0.809521    -0.152629
C     -0.874735     1.327055    -0.059621
H     -1.299564     2.310995    -0.237199
H     -0.080055     1.290441     0.708685
6
Family_3 [H][C]C([H])([H])[H] | RMSD: 0.3501 | 4848.00 to state    1 from traj    1 on state    2
C     -1.785782     0.199251     0.179311
H     -0.324490     1.133913    -1.184031
H     -2.390734    -0.570999    -0.071753
C     -0.894775     1.317830    -0.132859
H     -0.719944     2.697461     0.114864
H     -0.355889     1.417401     0.584136
6
Family_3 [H][C]C([H])([H])[H] | RMSD: 0.3829 | 5424.00 to state    1 from traj    1 on state    2
C     -1.781196     0.280354     0.132009
H     -0.293269     1.250379    -1.076016
H     -2.378175    -0.809621    -0.043358
C     -0.868655     1.311541    -0.040517
H     -1.339497     2.150731    -0.588683
H     -0.146004     1.194828     0.614589
6
Family_3 [H][C]C([H])([H])[H] | RMSD: 0.2126 | 9044.00 to state    1 from traj    1 on state    2
C     -1.735622     0.196790     0.125354
H     -0.276650     0.983400    -1.305111
H     -2.558905    -0.602715     0.032436
C     -0.970391     1.381830    -0.057026
H     -0.619092     2.345870    -0.327913
H     -0.033089     1.217930     0.783127
6
Family_3 [H][C]C([H])([H])[H] | RMSD: 0.4022 | 10748.00 to state    1 from traj    1 on state    2
C     -1.769361     0.258270     0.172074
H     -0.203613     1.108127    -0.850841
H     -2.490461    -0.711671    -0.201095
C     -0.900485     1.318998    -0.103052
H     -1.241554     2.291357    -0.169459
H      0.016944     1.272792     0.395677
6
Family_3 [H][C]C([H])([H])[H] | RMSD: 0.3712 | 9588.00 to state    1 from traj    1 on state    2
C     -1.855586     0.175999     0.074482
H     -0.278620     1.284200    -1.097049
H     -2.298101    -0.729338     0.648164
C     -0.834384     1.368547    -0.084007
H     -1.067724     2.660199    -0.188658
H     -0.034441     1.135445     0.747759
6
Family_3 [H][C]C([H])([H])[H] | RMSD: 0.3844 | 10700.00 to state    1 from traj    1 on state    2
C     -1.830090     0.192617     0.101774
H     -0.208285     1.358819    -1.052422
H     -2.451189    -0.924643     0.625750
C     -0.855743     1.362955    -0.121902
H     -0.930647     2.727674    -0.032103
H     -0.138070     1.057285     0.695335
6
Family_3 [H][C]C([H])([H])[H] | RMSD: 0.4293 | 11636.00 to state    1 from traj    1 on state    2
C     -1.800320     0.256968     0.160900
H     -0.445708     1.049848    -1.020646
H     -2.366136    -0.770321    -0.235155
C     -0.860907     1.294572    -0.094889
H     -1.245984     2.689489    -0.306113
H      0.036436     1.298156     0.772067
6
Family_3 [H][C]C([H])([H])[H] | RMSD: 0.3999 | 12536.00 to state    1 from traj    1 on state    2
C     -1.837454     0.251008     0.074501
H     -0.227108     1.312382    -1.141835
H     -2.022999    -0.885630     0.779769
C     -0.873589     1.353056    -0.122326
H     -1.075978     2.402402     0.043342
H     -0.101715     0.812160     0.885315
6
Family_3 [H][C]C([H])([H])[H] | RMSD: 0.4200 | 20964.00 to state    1 from traj    1 on state    2
C     -1.825642     0.258327     0.073852
H     -0.266670     1.334909    -1.091800
H     -1.704857    -0.524107     0.756074
C     -0.915404     1.319357    -0.115468
H     -0.872635     2.442057    -0.029672
H     -0.226130     0.702786     0.858004
6
Family_3 [H][C]C([H])([H])[H] | RMSD: 0.5156 | 5784.00 to state    1 from traj    1 on state    2
C     -1.633801     0.170541     0.026941
H     -0.779395     0.595120    -1.019811
H     -2.628422    -0.072865     0.162374
C     -1.021976     1.429682     0.050018
H     -0.503508     1.898285    -0.717737
H     -0.175004     1.266535     0.654866
6
Family_3 [H][C]C([H])([H])[H] | RMSD: 0.3219 | 1484.00 to state    1 from traj    1 on state    2
C     -1.822597     0.169294     0.101479
H     -0.443103     0.864140    -0.852190
H     -2.192417    -0.983126     0.435811
C     -0.885609     1.468167    -0.116054
H     -0.705653     2.538867    -0.027325
H     -0.120435     0.823484     0.614097
6
Family_3 [H][C]C([H])([H])[H] | RMSD: 0.3385 | 10500.00 to state    1 from traj    1 on state    2
C     -1.798208     0.226380     0.160997
H     -0.300384     0.826814    -1.127317
H     -2.304253    -0.793050    -0.189240
C     -0.866285     1.390068    -0.081720
H     -1.250685     2.321082    -0.184123
H     -0.127149     1.138906     0.552758
6
Family_3 [H][C]C([H])([H])[H] | RMSD: 0.3601 | 3652.00 to state    1 from traj    1 on state    2
C     -1.742885     0.286814     0.065601
H     -0.313183     0.873939    -1.228338
H     -2.031895    -0.566239     0.617050
C     -0.933298     1.330492    -0.084666
H     -1.073740     2.324522     0.208149
H     -0.424355     0.851296     0.627029
6
Family_3 [H][C]C([H])([H])[H] | RMSD: 0.3752 | 5988.00 to state    1 from traj    1 on state    2
C     -1.890453     0.151844     0.111748
H     -0.247092     1.437495    -0.973775
H     -1.975756    -0.784532     0.680417
C     -0.857648     1.432632    -0.164869
H     -0.738687     2.385407     0.045544
H     -0.024695     0.836354     0.877505
6
Family_3 [H][C]C([H])([H])[H] | RMSD: 0.3513 | 6700.00 to state    1 from traj    1 on state    2
C     -1.814862     0.222932     0.058019
H     -0.302364     0.938666    -1.149615
H     -2.108155    -0.786409     0.693575
C     -0.875207     1.391389    -0.077832
H     -1.104440     2.512517    -0.010071
H     -0.162758     0.854323     0.698912
6
Family_3 [H][C]C([H])([H])[H] | RMSD: 0.4512 | 5540.00 to state    1 from traj    1 on state    2
C     -1.880749     0.143418     0.132415
H     -0.283875     1.849750    -1.054799
H     -2.387519    -0.703509     0.476054
C     -0.796161     1.354118    -0.120871
H     -0.912869     2.544223    -0.421370
H     -0.250252     1.220212     0.859275
6
Family_3 [H][C]C([H])([H])[H] | RMSD: 0.5051 | 9192.00 to state    1 from traj    1 on state    2
C     -1.765546     0.182389     0.094597
H     -0.565414     1.070551    -1.104618
H     -2.578267    -0.494620     0.301017
C     -0.792145     1.419532    -0.065306
H     -1.645730     2.090731    -0.343800
H     -0.465674     1.000186     0.795099
6
Family_3 [H][C]C([H])([H])[H] | RMSD: 0.4248 | 4508.00 to state    1 from traj    1 on state    2
C     -1.842440     0.165951     0.065645
H     -0.388580     0.977140    -1.082580
H     -2.351411    -0.615663     0.506938
C     -0.803591     1.392047    -0.049597
H     -1.375541     2.669398    -0.256538
H     -0.086926     1.159348     0.637676
6
Family_3 [H][C]C([H])([H])[H] | RMSD: 0.4753 | 26308.00 to state    1 from traj    1 on state    2
C     -1.853664     0.172880     0.107867
H     -0.333922     0.918687    -1.016357
H     -2.315347    -0.877256     0.445473
C     -0.865642     1.402356    -0.159456
H     -0.868440     2.491861     0.558173
H      0.188380     1.451521     0.624154
6
Family_3 [H][C]C([H])([H])[H] | RMSD: 0.4212 | 3080.00 to state    1 from traj    1 on state    2
C     -1.838179     0.099879     0.175926
H     -0.293420     1.029447    -1.076041
H     -2.585529    -0.738842     0.155342
C     -0.787052     1.512857    -0.178957
H     -1.288424     2.124841     0.336549
H     -0.282928     1.122534     0.616993
6
Family_3 [H][C]C([H])([H])[H] | RMSD: 0.3415 | 4860.00 to state    1 from traj    1 on state    2
C     -1.859469     0.156517     0.087454
H     -0.263285     1.344016    -0.979670
H     -2.257810    -0.715420     0.533617
C     -0.875699     1.403840    -0.091699
H     -0.842602     2.492263    -0.361276
H      0.223356     1.041256     0.854628
6
Family_3 [H][C]C([H])([H])[H] | RMSD: 0.4059 | 7236.00 to state    1 from traj    1 on state    2
C     -1.882223     0.092078     0.142188
H     -0.452318     0.956217    -1.163490
H     -2.468413    -0.803997     0.177401
C     -0.745249     1.503460    -0.129450
H     -1.332364     2.289041     0.092830
H     -0.170507     1.301640     0.738189
6
Family_3 [H][C]C([H])([H])[H] | RMSD: 0.4582 | 7408.00 to state    1 from traj    1 on state    2
C     -1.882731     0.088733     0.109229
H     -0.708538     0.826810    -0.897097
H     -2.292906    -0.883445     0.433382
C     -0.759305     1.526423    -0.162785
H     -1.117789     2.548199     0.217392
H     -0.130836     1.017585     0.881193
6
Family_3 [H][C]C([H])([H])[H] | RMSD: 0.4634 | 8760.00 to state    2 from traj    4 on state    1
C     -1.816012     0.231053     0.124612
H     -0.724162     0.789081    -0.965233
H     -2.035080    -0.606733    -0.254175
C     -0.869929     1.309792    -0.037186
H     -0.846913     2.664304    -0.402742
H     -0.120753     1.547967     0.577134
6
Family_3 [H][C]C([H])([H])[H] | RMSD: 0.4028 | 12324.00 to state    1 from traj    6 on state    2
C     -1.803710     0.245652     0.098771
H     -0.086760     1.332936    -1.160338
H     -2.163758    -0.534515     0.578450
C     -0.868361     1.336888    -0.101219
H     -1.393107     2.263080    -0.067409
H     -0.248559     0.836288     0.675185
6
Family_3 [H][C]C([H])([H])[H] | RMSD: 0.3546 | 16316.00 to state    1 from traj    1 on state    2
C     -1.781213     0.294107     0.117963
H     -0.208184     1.140667    -1.012605
H     -1.948063    -0.870550    -0.026621
C     -0.965300     1.344567     0.001600
H     -0.745121     2.083081    -0.885513
H     -0.103787     0.875712     0.496784
6
Family_3 [H][C]C([H])([H])[H] | RMSD: 0.3305 | 17216.00 to state    1 from traj    1 on state    2
C     -1.854144     0.181333     0.086305
H     -0.550919     1.240547    -1.209505
H     -2.117727    -0.911700     0.583786
C     -0.835114     1.403200    -0.114359
H     -0.746052     2.397948    -0.026801
H     -0.272686     1.147242     0.983522
6
Family_3 [H][C]C([H])([H])[H] | RMSD: 0.3338 | 10420.00 to state    1 from traj    1 on state    2
C     -1.800926     0.186872     0.090917
H     -0.319199     1.168202    -1.100123
H     -2.481757    -0.533400     0.377077
C     -0.881698     1.338746    -0.075965
H     -0.978385     2.525321    -0.117962
H      0.012918     1.415936     0.659558
6
Family_3 [H][C]C([H])([H])[H] | RMSD: 0.3618 | 1224.00 to state    1 from traj    1 on state    2
C     -1.758814     0.181183     0.176045
H     -0.393500     0.885435    -1.030207
H     -2.424082    -0.570271    -0.013196
C     -0.939085     1.391759    -0.186277
H     -0.658764     2.519333     0.434410
H     -0.108070     1.177648     0.727632
6
Family_3 [H][C]C([H])([H])[H] | RMSD: 0.3765 | 7864.00 to state    1 from traj    1 on state    2
C     -1.809387     0.147408     0.171156
H     -0.310987     1.138938    -0.884823
H     -2.543302    -0.585123     0.030613
C     -0.891565     1.403816    -0.177844
H     -0.913231     2.512657     0.134222
H      0.219487     1.204461     0.796402
6
Family_3 [H][C]C([H])([H])[H] | RMSD: 0.3241 | 11280.00 to state    1 from traj    1 on state    2
C     -1.826428     0.212402     0.070664
H     -0.213548     1.117546    -0.928230
H     -1.951178    -0.626113     0.659253
C     -0.905569     1.400156    -0.087067
H     -0.939167     2.203068    -0.073283
H     -0.074215     0.845607     0.534440
6
Family_3 [H][C]C([H])([H])[H] | RMSD: 0.3825 | 3244.00 to state    1 from traj    1 on state    2
C     -1.740784     0.251868     0.043453
H     -0.231801     1.008955    -1.271591
H     -2.466416    -0.425577     0.522600
C     -0.957211     1.271544    -0.019311
H     -0.856526     2.401096    -0.010994
H     -0.028526     1.617855     0.469032
6
Family_3 [H][C]C([H])([H])[H] | RMSD: 0.4091 | 4576.00 to state    1 from traj    1 on state    2
C     -1.730644     0.205334     0.045377
H     -0.651983     0.871001    -0.834492
H     -2.511384    -0.483164     0.394189
C     -0.896001     1.400824    -0.029902
H     -1.203101     2.239486    -0.487294
H     -0.066981     0.989044     0.739921
6
Family_3 [H][C]C([H])([H])[H] | RMSD: 0.4810 | 5796.00 to state    1 from traj    1 on state    2
C     -1.909832     0.078020     0.102123
H     -0.447199     1.126634    -1.057957
H     -2.475264    -0.970065     0.531666
C     -0.707666     1.548060    -0.118335
H     -1.513916     2.242361    -0.156105
H     -0.106067     0.980045     0.872297
6
Family_3 [H][C]C([H])([H])[H] | RMSD: 0.4521 | 11780.00 to state    1 from traj    1 on state    2
C     -1.865097     0.160189     0.128328
H     -0.504314     1.301069    -1.130400
H     -2.003404    -0.763211     0.559644
C     -0.772157     1.425448    -0.155998
H     -1.052142     2.550605     0.061384
H     -0.747194     0.772416     0.835795
6
Family_3 [H][C]C([H])([H])[H] | RMSD: 0.2458 | 7720.00 to state    1 from traj    1 on state    2
C     -1.804049     0.208489     0.069030
H     -0.439039     1.042022    -1.310052
H     -2.309449    -0.956473     0.484428
C     -0.889341     1.393088    -0.050812
H     -0.697575     2.327380    -0.197846
H     -0.192074     1.258029     0.803104
6
Family_3 [H][C]C([H])([H])[H] | RMSD: 0.3332 | 9764.00 to state    1 from traj    1 on state    2
C     -1.832095     0.157190     0.073758
H     -0.376816     0.980811    -0.880898
H     -2.270480    -0.662604     0.475960
C     -0.884260     1.399013    -0.064785
H     -0.723808     2.592913    -0.131103
H      0.006600     1.300496     0.425838
6
Family_3 [H][C]C([H])([H])[H] | RMSD: 0.4119 | 3720.00 to state    1 from traj    1 on state    2
C     -1.727300     0.221870     0.004636
H     -0.730369     0.870449    -0.842486
H     -2.433726    -0.447719     0.597994
C     -0.942830     1.345756    -0.020523
H     -0.777550     2.233638    -0.221954
H      0.026344     1.419125     0.652465
6
Family_3 [H][C]C([H])([H])[H] | RMSD: 0.4115 | 7684.00 to state    1 from traj    1 on state    2
C     -1.785575     0.287402     0.081982
H     -0.365775     1.482979    -0.975062
H     -2.209182    -0.755751     0.721497
C     -0.882978     1.264464    -0.133810
H     -1.042224     2.511422     0.094131
H     -0.316917     1.024636     0.773723
6
Family_3 [H][C]C([H])([H])[H] | RMSD: 0.4412 | 10924.00 to state    1 from traj    1 on state    2
C     -1.876478     0.198721     0.121634
H     -0.092349     1.445181    -1.167583
H     -1.897603    -0.672819     0.691017
C     -0.866000     1.356672    -0.170812
H     -0.776038     2.296784     0.463655
H     -0.287228     1.152119     0.595614
6
Family_3 [H][C]C([H])([H])[H] | RMSD: 0.3336 | 5824.00 to state    1 from traj    1 on state    2
C     -1.752355     0.200013     0.204386
H     -0.188670     1.385145    -1.179617
H     -2.471883    -0.461974    -0.036365
C     -0.898211     1.353620    -0.161178
H     -0.998577     2.491828    -0.115297
H     -0.489292     0.827228     0.813144
6
Family_3 [H][C]C([H])([H])[H] | RMSD: 0.5281 | 9160.00 to state    1 from traj    1 on state    2
C     -1.718010     0.137508     0.264279
H     -0.224576     1.416144    -1.221549
H     -2.584639    -0.019691    -0.315925
C     -0.910307     1.377974    -0.210210
H     -0.899485     2.586261    -0.044093
H     -0.704834     0.714123     0.934021
6
Family_3 [H][C]C([H])([H])[H] | RMSD: 0.2706 | 8616.00 to state    1 from traj    1 on state    2
C     -1.786328     0.269784     0.090436
H     -0.214801     1.307802    -0.948345
H     -2.208250    -0.821425     0.359322
C     -0.976398     1.308294    -0.069926
H     -0.606331     2.282159    -0.326286
H      0.217424     1.182413     0.667630
6
Family_3 [H][C]C([H])([H])[H] | RMSD: 0.4042 | 4832.00 to state    1 from traj    1 on state    2
C     -1.830436     0.256464     0.145006
H     -0.413632     1.031175    -1.035872
H     -2.053587    -0.721900    -0.299815
C     -0.890273     1.301364    -0.037693
H     -0.907216     2.284959    -0.448938
H      0.061825     1.598016     0.502644
6
Family_3 [H][C]C([H])([H])[H] | RMSD: 0.4222 | 4984.00 to state    1 from traj    1 on state    2
C     -1.813697     0.299028     0.070725
H     -0.159817     1.271265    -1.253815
H     -1.544537    -0.464189     0.716229
C     -0.948801     1.275013    -0.088800
H     -0.764102     2.289950     0.094093
H     -0.346213     0.902028     0.655598
6
Family_3 [H][C]C([H])([H])[H] | RMSD: 0.3572 | 1660.00 to state    1 from traj    1 on state    2
C     -1.814797     0.253737     0.073195
H     -0.310402     1.128063    -1.112937
H     -2.109082    -0.806302     0.668187
C     -0.886044     1.341236    -0.118973
H     -1.059281     2.381293     0.210379
H     -0.070591     1.046578     0.776560
6
Family_3 [H][C]C([H])([H])[H] | RMSD: 0.2090 | 5752.00 to state    1 from traj    1 on state    2
C     -1.790473     0.217715     0.147624
H     -0.471399     0.928592    -1.053650
H     -2.079374    -0.703438    -0.067624
C     -0.930245     1.380183    -0.100277
H     -0.611462     2.361377    -0.154550
H     -0.150274     1.128254     0.708375
6
Family_3 [H][C]C([H])([H])[H] | RMSD: 0.4342 | 10200.00 to state    1 from traj    1 on state    2
C     -1.829198     0.199988     0.166700
H     -0.491376     0.607684    -0.871429
H     -1.950687    -0.667387    -0.385165
C     -0.875318     1.417660    -0.072252
H     -1.007150     2.435488    -0.309235
H     -0.056348     1.103671     0.437142
6
Family_3 [H][C]C([H])([H])[H] | RMSD: 0.4374 | 1360.00 to state    1 from traj    1 on state    2
C     -1.788031     0.276765     0.085335
H     -0.267546     1.029659    -1.057949
H     -1.680570    -0.680431     0.703235
C     -0.943296     1.357986    -0.126126
H     -0.744768     2.316981     0.266592
H     -0.493215     0.609444     0.570900
6
Family_3 [H][C]C([H])([H])[H] | RMSD: 0.3596 | 3736.00 to state    1 from traj    1 on state    2
C     -1.845733     0.234175     0.094705
H     -0.203792     1.460532    -1.270722
H     -2.116117    -0.594874     0.522137
C     -0.862324     1.275980    -0.086650
H     -0.966875     2.483172    -0.048655
H     -0.176598     1.411477     0.697980
6
Family_3 [H][C]C([H])([H])[H] | RMSD: 0.3494 | 4028.00 to state    1 from traj    1 on state    2
C     -1.787039     0.246480     0.093468
H     -0.391836     1.181622    -1.357640
H     -2.351755    -0.754511     0.423181
C     -0.908157     1.288245    -0.103467
H     -0.756450     2.592515     0.137236
H     -0.116585     1.447905     0.913087
6
Family_3 [H][C]C([H])([H])[H] | RMSD: 0.3694 | 4104.00 to state    1 from traj    1 on state    2
C     -1.830039     0.215520     0.105927
H     -0.231111     1.264916    -1.012278
H     -2.162808    -0.852414     0.635870
C     -0.857233     1.401490    -0.149795
H     -1.125450     2.257355     0.163668
H     -0.191674     0.817193     0.732172
6
Family_3 [H][C]C([H])([H])[H] | RMSD: 0.3045 | 4372.00 to state    1 from traj    1 on state    2
C     -1.805050     0.170065     0.181151
H     -0.269152     0.960442    -0.743785
H     -2.271457    -0.737571    -0.131734
C     -0.915239     1.435156    -0.127925
H     -0.703755     2.373651    -0.110767
H     -0.073267     1.031003     0.348776
6
Family_3 [H][C]C([H])([H])[H] | RMSD: 0.5391 | 5100.00 to state    1 from traj    1 on state    2
C     -1.654501     0.197257     0.218265
H     -0.235056     1.305314    -1.195655
H     -2.673940     0.057551    -0.016422
C     -0.972116     1.339198    -0.235912
H     -0.990438     2.334944     0.419304
H     -0.534360     0.749111     0.999773
6
Family_3 [H][C]C([H])([H])[H] | RMSD: 0.3183 | 7932.00 to state    1 from traj    1 on state    2
C     -1.811139     0.148483     0.157511
H     -0.218667     0.936857    -1.011909
H     -2.467205    -0.643441     0.062588
C     -0.890502     1.431253    -0.137816
H     -0.909111     2.372967     0.184446
H      0.055155     1.264813     0.526911
6
Family_3 [H][C]C([H])([H])[H] | RMSD: 0.6200 | 1164.00 to state    1 from traj    1 on state    2
C     -1.827272     0.267149     0.153970
H     -0.494431     1.205602    -1.177736
H     -1.301042    -0.818320     0.406219
C     -0.944353     1.384198    -0.207272
H     -0.185850     1.951651     0.541518
H     -0.724610     0.738969     0.861849
6
Family_3 [H][C]C([H])([H])[H] | RMSD: 0.5256 | 1288.00 to state    2 from traj    2 on state    1
C     -1.860879     0.217885     0.138803
H     -0.263080     1.338380    -1.047972
H     -1.401607    -0.568216     0.540659
C     -0.921391     1.386993    -0.180588
H     -0.379739     2.017489     0.408251
H     -0.534657     0.843963     0.593677
6
Family_3 [H][C]C([H])([H])[H] | RMSD: 0.4857 | 1340.00 to state    1 from traj    1 on state    2
C     -1.853693     0.215667     0.126624
H     -0.181907     1.403855    -0.996546
H     -1.554344    -0.533952     0.651197
C     -0.917284     1.373271    -0.174936
H     -0.520696     2.143844     0.355455
H     -0.456698     0.807798     0.562277
6
Family_3 [H][C]C([H])([H])[H] | RMSD: 0.4774 | 7460.00 to state    1 from traj    1 on state    2
C     -1.905391     0.084135     0.189909
H      0.114225     1.679281    -1.138742
H     -2.671890    -0.763446     0.225993
C     -0.807649     1.420559    -0.162251
H     -0.947926     2.448181    -0.011340
H      0.101590     1.461359     0.591243
6
Family_3 [H][C]C([H])([H])[H] | RMSD: 0.3093 | 8624.00 to state    1 from traj    1 on state    2
C     -1.776766     0.286002     0.158962
H     -0.219426     1.119480    -0.955376
H     -2.214965    -0.781052    -0.220568
C     -0.941457     1.290927    -0.059257
H     -0.856648     2.316579    -0.392519
H     -0.051202     1.309643     0.377124
6
Family_3 [H][C]C([H])([H])[H] | RMSD: 0.3858 | 10072.00 to state    1 from traj    1 on state    2
C     -1.724611     0.324276     0.129929
H     -0.302650     1.098732    -1.286133
H     -2.455749    -0.773315    -0.052870
C     -0.904859     1.281363    -0.050066
H     -1.444173     2.267687    -0.455746
H     -0.197221     1.029450     0.839852
6
Family_3 [H][C]C([H])([H])[H] | RMSD: 0.5112 | 9804.00 to state    1 from traj    1 on state    2
C     -1.829314     0.189416     0.073225
H     -0.129842     1.302958    -0.698644
H     -2.255235    -0.594631     0.696334
C     -0.839574     1.401100    -0.068733
H     -1.402668     2.395653    -0.406785
H     -0.142363     0.698775     0.352285
6
Family_3 [H][C]C([H])([H])[H] | RMSD: 0.5253 | 11904.00 to state    1 from traj    1 on state    2
C     -1.725647     0.295470     0.140531
H     -0.777600     0.585200    -0.892462
H     -2.164458    -0.558027    -0.297166
C     -0.884446     1.330995    -0.094492
H     -1.456681     2.400418    -0.165138
H     -0.231944     0.946802     0.802905
6
Family_3 [H][C]C([H])([H])[H] | RMSD: 0.5615 | 14600.00 to state    1 from traj    1 on state    2
C     -1.794058     0.312157     0.170747
H     -0.580551     0.746208    -1.129845
H     -1.974715    -0.749888    -0.309077
C     -0.930105     1.253626    -0.167322
H     -0.860670     2.442938     0.568824
H      0.144480     1.658198     0.826004
6
Family_3 [H][C]C([H])([H])[H] | RMSD: 0.4157 | 7384.00 to state    1 from traj    1 on state    2
C     -1.813490     0.257337     0.152522
H     -0.496335     0.833823    -1.147847
H     -2.093199    -0.666289    -0.303629
C     -0.879784     1.302763    -0.076780
H     -1.034129     2.407642    -0.076438
H     -0.015863     1.590003     0.622107
6
Family_3 [H][C]C([H])([H])[H] | RMSD: 0.4043 | 6012.00 to state    1 from traj    1 on state    2
C     -1.705188     0.179616     0.007993
H     -0.689918     0.741547    -1.151540
H     -2.598557    -0.346222     0.554045
C     -0.925400     1.387079     0.017859
H     -0.837163     2.417868    -0.426575
H     -0.260841     1.273387     0.712737
6
Family_3 [H][C]C([H])([H])[H] | RMSD: 0.5418 | 7720.00 to state    1 from traj    1 on state    2
C     -1.804412     0.286663     0.066427
H     -0.176931     0.984159    -0.972396
H     -1.622051    -0.492376     0.810277
C     -0.921086     1.333036    -0.124282
H     -1.112204     2.268175     0.428202
H     -0.344369     0.695062     0.420010
6
Family_3 [H][C]C([H])([H])[H] | RMSD: 0.3818 | 4908.00 to state    1 from traj    1 on state    2
C     -1.845051     0.154018     0.174587
H     -0.485975     0.853599    -1.055614
H     -2.365508    -0.894583    -0.128921
C     -0.833653     1.426397    -0.145183
H     -0.917290     2.656827     0.100340
H     -0.044367     1.307262     0.730552
6
Family_3 [H][C]C([H])([H])[H] | RMSD: 0.4093 | 17880.00 to state    1 from traj    1 on state    2
C     -1.742340     0.319201     0.138236
H     -0.138405     0.857554    -1.279813
H     -2.302316    -0.642074    -0.108445
C     -0.918705     1.292497    -0.060498
H     -1.528746     2.229074    -0.139208
H     -0.054096     1.105805     0.597882
6
Family_3 [H][C]C([H])([H])[H] | RMSD: 0.3942 | 6788.00 to state    1 from traj    1 on state    2
C     -1.871084     0.135482     0.175039
H     -0.143193     0.967785    -1.365086
H     -2.467442    -0.879797    -0.052136
C     -0.823769     1.431924    -0.118786
H     -1.099939     2.706411    -0.030594
H      0.089864     1.283713     0.774243
6
Family_3 [H][C]C([H])([H])[H] | RMSD: 0.3333 | 11784.00 to state    1 from traj    1 on state    2
C     -1.721419     0.292261     0.147673
H     -0.569349     1.080840    -1.339844
H     -2.334139    -0.577749    -0.151345
C     -0.918819     1.259939    -0.084685
H     -0.937698     2.450298    -0.197806
H     -0.430305     1.305920     0.935163
6
Family_3 [H][C]C([H])([H])[H] | RMSD: 0.3672 | 3704.00 to state    1 from traj    1 on state    2
C     -1.763134     0.217563     0.123124
H     -0.378290     1.027278    -1.363126
H     -2.526621    -0.563405     0.118125
C     -0.899480     1.299344    -0.081513
H     -0.893034     2.761820    -0.037982
H     -0.206916     1.454154     0.783887
6
Family_3 [H][C]C([H])([H])[H] | RMSD: 0.3573 | 6784.00 to state    1 from traj    1 on state    2
C     -1.699086     0.203011     0.181079
H     -0.448565     0.844966    -1.062956
H     -2.450093    -0.471629    -0.037778
C     -0.958055     1.399378    -0.180706
H     -0.697571     2.343396     0.393811
H     -0.473845     0.944540     0.699187
6
Family_3 [H][C]C([H])([H])[H] | RMSD: 0.3928 | 2456.00 to state    1 from traj    1 on state    2
C     -1.715153     0.258803     0.178603
H     -0.115288     1.410658    -0.887268
H     -2.609325    -0.373901    -0.045981
C     -0.964184     1.288007    -0.151422
H     -1.143620     2.294849    -0.131538
H      0.062631     0.991922     0.737627
6
Family_3 [H][C]C([H])([H])[H] | RMSD: 0.4184 | 3484.00 to state    1 from traj    1 on state    2
C     -1.876403     0.178794     0.148931
H     -0.391334     1.005858    -1.301558
H     -2.281888    -0.937621    -0.234870
C     -0.819712     1.389122    -0.039129
H     -0.961728     2.307325    -0.416908
H      0.029274     1.696473     0.641689
6
Family_3 [H][C]C([H])([H])[H] | RMSD: 0.3895 | 3720.00 to state    1 from traj    1 on state    2
C     -1.793310     0.201932     0.092880
H     -0.056831     1.486696    -1.141918
H     -2.562617    -0.469145     0.482736
C     -0.913221     1.307995    -0.072868
H     -0.980940     2.371372    -0.239169
H      0.118821     1.374090     0.656609
6
Family_3 [H][C]C([H])([H])[H] | RMSD: 0.3834 | 6016.00 to state    1 from traj    1 on state    2
C     -1.799353     0.233544     0.115015
H     -0.456578     0.849550    -1.241711
H     -2.296234    -0.638211     0.005217
C     -0.848269     1.338571    -0.056132
H     -1.339366     2.520617    -0.232556
H     -0.091323     1.290046     0.764138
6
Family_3 [H][C]C([H])([H])[H] | RMSD: 0.3796 | 5972.00 to state    1 from traj    1 on state    2
C     -1.825483     0.206517     0.107080
H     -0.079502     1.216798    -1.129312
H     -2.286853    -0.820987     0.650213
C     -0.881371     1.388108    -0.149277
H     -1.017423     2.312076     0.364285
H     -0.093930     1.045897     0.614334
6
Family_3 [H][C]C([H])([H])[H] | RMSD: 0.4650 | 7176.00 to state    1 from traj    1 on state    2
C     -1.848443     0.198969     0.152598
H     -0.572033     0.725636    -1.319441
H     -2.179889    -0.770825    -0.342429
C     -0.812881     1.383766    -0.059391
H     -1.233443     2.465802    -0.284247
H     -0.034871     1.474843     0.832212
6
Family_3 [H][C]C([H])([H])[H] | RMSD: 0.3778 | 3484.00 to state    1 from traj    1 on state    2
C     -1.727563     0.185281     0.166615
H     -0.515824     1.063938    -1.195892
H     -2.626446    -0.596816     0.062073
C     -0.867405     1.392225    -0.143719
H     -0.997549     2.536033     0.021878
H     -0.671089     0.954621     0.835840
6
Family_3 [H][C]C([H])([H])[H] | RMSD: 0.3392 | 4604.00 to state    1 from traj    1 on state    2
C     -1.794829     0.131073     0.151380
H     -0.569622     1.144151    -1.067334
H     -2.527122    -0.608007     0.140974
C     -0.817388     1.446088    -0.135682
H     -1.064045     2.443472    -0.160027
H     -0.444582     0.982274     0.896049
6
Family_3 [H][C]C([H])([H])[H] | RMSD: 0.4247 | 5724.00 to state    1 from traj    1 on state    2
C     -1.833668     0.221229     0.100320
H     -0.169860     1.130650    -1.313515
H     -2.432589    -0.804071     0.391657
C     -0.813920     1.344513    -0.073135
H     -1.459119     2.432557    -0.022773
H     -0.122343     1.338818     0.617427
6
Family_3 [H][C]C([H])([H])[H] | RMSD: 0.3068 | 6916.00 to state    1 from traj    1 on state    2
C     -1.814672     0.189618     0.113063
H     -0.243005     1.229746    -0.956396
H     -2.290642    -0.564105     0.387722
C     -0.916516     1.351060    -0.125604
H     -0.798099     2.581852    -0.009648
H      0.143991     1.149107     0.724478
6
Family_3 [H][C]C([H])([H])[H] | RMSD: 0.4845 | 1708.00 to state    1 from traj    1 on state    2
C     -1.831855     0.197713     0.151060
H     -0.402222     0.483860    -0.936907
H     -2.195854    -0.843489    -0.325040
C     -0.880249     1.423612    -0.071606
H     -1.086372     2.497600    -0.143758
H      0.269288     1.297662     0.455676
6
Family_3 [H][C]C([H])([H])[H] | RMSD: 0.4696 | 4780.00 to state    1 from traj    1 on state    2
C     -1.776073     0.289603     0.117992
H     -0.590219     0.851074    -0.979646
H     -2.145758    -0.733636    -0.178476
C     -0.864047     1.322934    -0.029795
H     -1.434713     2.434334    -0.662360
H     -0.102194     0.988579     0.766284
6
Family_3 [H][C]C([H])([H])[H] | RMSD: 0.3514 | 2268.00 to state    1 from traj    1 on state    2
C     -1.742970     0.175256     0.038834
H     -0.593744     0.752334    -0.814717
H     -2.386297    -0.481924     0.519444
C     -0.931503     1.415945    -0.033965
H     -0.738515     2.458083    -0.267856
H     -0.144996     1.066085     0.501828
6
Family_3 [H][C]C([H])([H])[H] | RMSD: 0.3043 | 3424.00 to state    1 from traj    1 on state    2
C     -1.826081     0.210128     0.109022
H     -0.190537     1.257978    -1.247414
H     -2.243394    -0.803582     0.521580
C     -0.896803     1.343874    -0.123707
H     -0.729559     2.566366     0.160362
H     -0.123208     1.217078     0.737165
6
Family_3 [H][C]C([H])([H])[H] | RMSD: 0.4287 | 8476.00 to state    1 from traj    1 on state    2
C     -1.796142     0.247492     0.072726
H     -0.138992     0.897920    -1.031670
H     -2.160674    -0.603044     0.577855
C     -0.933278     1.350228    -0.111046
H     -1.101499     2.231557     0.405535
H      0.192349     1.190476     0.501607
6
Family_3 [H][C]C([H])([H])[H] | RMSD: 0.3506 | 10264.00 to state    1 from traj    1 on state    2
C     -1.850814     0.190791     0.133295
H     -0.103394     1.512404    -1.217317
H     -2.104257    -0.623093     0.558152
C     -0.876989     1.351448    -0.161176
H     -0.792351     2.369495     0.232373
H     -0.228086     1.119188     0.755727
6
Family_3 [H][C]C([H])([H])[H] | RMSD: 0.3505 | 2084.00 to state    1 from traj    1 on state    2
C     -1.808060     0.219618     0.085427
H     -0.527867     0.938139    -1.042553
H     -2.100351    -0.676981     0.463765
C     -0.896352     1.371072    -0.133806
H     -0.907685     2.433273     0.238640
H      0.029092     1.106250     0.913339
6
Family_3 [H][C]C([H])([H])[H] | RMSD: 0.3604 | 2536.00 to state    1 from traj    1 on state    2
C     -1.778181     0.252418     0.105791
H     -0.494625     1.065938    -1.244199
H     -2.345280    -0.623938     0.022589
C     -0.859942     1.322057    -0.033753
H     -1.279479     2.186585    -0.435065
H     -0.177312     1.365312     0.795002
6
Family_3 [H][C]C([H])([H])[H] | RMSD: 0.4408 | 7816.00 to state    1 from traj    1 on state    2
C     -1.822164     0.191207     0.163028
H     -0.405248     0.890725    -1.183343
H     -2.427466    -0.776905    -0.030752
C     -0.797903     1.393250    -0.130694
H     -1.447309     2.593539     0.086929
H     -0.231818     1.167580     0.738600
6
Family_3 [H][C]C([H])([H])[H] | RMSD: 0.4544 | 8992.00 to state    1 from traj    1 on state    2
C     -1.830782     0.207823     0.111323
H     -0.211156     0.980703    -1.004691
H     -2.039117    -0.822436     0.640196
C     -0.860628     1.431224    -0.169673
H     -1.126593     2.298548     0.505427
H     -0.284877     0.767644     0.551074
6
Family_3 [H][C]C([H])([H])[H] | RMSD: 0.4234 | 12240.00 to state    1 from traj    1 on state    2
C     -1.836723     0.200940     0.087089
H     -0.041818     0.869878    -1.050150
H     -2.015534    -0.673561     0.636256
C     -0.918226     1.417602    -0.127748
H     -1.008124     2.386522     0.368646
H      0.160853     0.885956     0.526449
6
Family_3 [H][C]C([H])([H])[H] | RMSD: 0.4876 | 4500.00 to state    1 from traj    1 on state    2
C     -1.863438     0.221966     0.097489
H     -0.169424     1.198275    -1.081318
H     -1.749787    -0.749428     0.812011
C     -0.866220     1.391895    -0.168298
H     -0.979942     2.329981     0.459055
H     -0.306835     0.745756     0.650702
6
Family_3 [H][C]C([H])([H])[H] | RMSD: 0.5072 | 1964.00 to state    1 from traj    1 on state    2
C     -1.670825     0.249462     0.174200
H     -0.332542     1.080135    -1.193125
H     -2.571871    -0.135720    -0.014948
C     -0.909032     1.315771    -0.148639
H     -1.449944     2.323127     0.131682
H     -0.636612     0.836460     0.768530
6
Family_3 [H][C]C([H])([H])[H] | RMSD: 0.5004 | 3260.00 to state    1 from traj    1 on state    2
C     -1.703707     0.278904     0.015234
H     -0.852352     0.727994    -0.916632
H     -2.316242    -0.385458     0.588340
C     -0.910686     1.308390    -0.070147
H     -1.240096     2.279168     0.142966
H     -0.170754     1.219439     0.836374
6
Family_3 [H][C]C([H])([H])[H] | RMSD: 0.4504 | 3608.00 to state    2 from traj    3 on state    1
C     -1.822923     0.211297     0.126332
H     -0.031834     1.299266    -0.896907
H     -1.985947    -0.662823     0.681316
C     -0.952340     1.384374    -0.204857
H     -0.659362     2.352972     0.503462
H      0.014570     0.751912     0.644525
6
Family_3 [H][C]C([H])([H])[H] | RMSD: 0.3446 | 7080.00 to state    1 from traj    1 on state    2
C     -1.801559     0.216501     0.058784
H     -0.143482     0.993510    -1.113585
H     -2.369497    -0.663486     0.564108
C     -0.895467     1.361137    -0.042252
H     -1.158268     2.448264    -0.144827
H      0.076420     1.177912     0.494033
6
Family_3 [H][C]C([H])([H])[H] | RMSD: 0.3968 | 8604.00 to state    1 from traj    1 on state    2
C     -1.704183     0.235684     0.157743
H     -0.374640     1.159390    -1.047376
H     -2.630429    -0.392684     0.021214
C     -0.916293     1.348200    -0.146074
H     -1.319022     2.227710    -0.057672
H     -0.182869     0.887351     0.941511
6
Family_3 [H][C]C([H])([H])[H] | RMSD: 0.4646 | 10364.00 to state    1 from traj    1 on state    2
C     -1.785005     0.170240     0.014063
H     -0.075270     0.866701    -0.917173
H     -2.376370    -0.617355     0.581044
C     -0.948993     1.450138     0.076686
H     -0.825937     2.114306    -0.836697
H      0.123293     1.083279     0.088207
6
Family_3 [H][C]C([H])([H])[H] | RMSD: 0.2894 | 3120.00 to state    1 from traj    1 on state    2
C     -1.792695     0.213102     0.128602
H     -0.473681     0.981806    -0.992995
H     -2.413761    -0.960411     0.052038
C     -0.861394     1.404875    -0.075445
H     -1.034816     2.388995    -0.365277
H     -0.184190     1.065146     0.669553
6
Family_3 [H][C]C([H])([H])[H] | RMSD: 0.3875 | 3376.00 to state    1 from traj    1 on state    2
C     -1.815653     0.216680     0.121709
H     -0.622228     1.040337    -1.099882
H     -2.308032    -0.786382    -0.054054
C     -0.811421     1.366573    -0.045658
H     -1.244362     2.324823    -0.517067
H     -0.253729     1.310519     0.761521
6
Family_3 [H][C]C([H])([H])[H] | RMSD: 0.4164 | 4208.00 to state    1 from traj    1 on state    2
C     -1.779247     0.291390     0.134601
H     -0.268332     1.059737    -1.113561
H     -2.377776    -0.784782     0.009779
C     -0.884867     1.313119    -0.103215
H     -1.492497     2.172153    -0.072111
H      0.151620     1.188902     0.798619
6
Family_3 [H][C]C([H])([H])[H] | RMSD: 0.4205 | 23792.00 to state    1 from traj    1 on state    2
C     -1.756579     0.221836     0.063422
H     -0.634381     1.206937    -1.183382
H     -2.512763    -0.440571     0.491180
C     -0.878390     1.300105    -0.088778
H     -1.035003     2.378327    -0.003976
H     -0.152116     1.475166     0.995038
6
Family_3 [H][C]C([H])([H])[H] | RMSD: 0.3787 | 7000.00 to state    1 from traj    1 on state    2
C     -1.826110     0.222614     0.064223
H     -0.169688     1.090107    -0.943556
H     -1.933657    -0.611923     0.696644
C     -0.907465     1.383876    -0.079917
H     -1.044281     2.450342    -0.172930
H     -0.011692     0.683886     0.603565
6
Family_3 [H][C]C([H])([H])[H] | RMSD: 0.2728 | 8412.00 to state    1 from traj    1 on state    2
C     -1.764418     0.178093     0.152443
H     -0.336644     1.235217    -1.135540
H     -2.611957    -0.628831     0.121723
C     -0.904693     1.370065    -0.126850
H     -0.791059     2.571033    -0.137412
H     -0.187785     1.130045     0.842997
6
Family_3 [H][C]C([H])([H])[H] | RMSD: 0.3445 | 18396.00 to state    1 from traj    1 on state    2
C     -1.790678     0.143348     0.062068
H     -0.597960     1.057559    -1.073428
H     -2.481232    -0.492841     0.407782
C     -0.873829     1.403691    -0.039352
H     -0.842412     2.523416    -0.485971
H     -0.060709     1.232667     0.877650
6
Family_3 [H][C]C([H])([H])[H] | RMSD: 0.4570 | 19392.00 to state    1 from traj    1 on state    2
C     -1.865606     0.121390     0.068541
H     -0.538405     1.350201    -1.187009
H     -2.582302    -0.819390     0.562862
C     -0.772899     1.398515    -0.053539
H     -1.005249     2.671974    -0.445701
H     -0.166181     1.441330     0.887808
6
Family_3 [H][C]C([H])([H])[H] | RMSD: 0.3549 | 20544.00 to state    1 from traj    1 on state    2
C     -1.819229     0.131130     0.094177
H     -0.147769     1.329418    -1.290865
H     -2.548625    -0.538638     0.380954
C     -0.853935     1.429769    -0.022863
H     -1.076920     2.246142    -0.674589
H     -0.105836     1.118736     0.731463
6
Family_3 [H][C]C([H])([H])[H] | RMSD: 0.6125 | 21208.00 to state    1 from traj    1 on state    2
C     -1.829138     0.279353     0.048312
H     -0.256018     1.384877    -1.146258
H     -1.480383    -0.361901     0.981347
C     -0.872942     1.317555    -0.096701
H     -1.210037     2.148766     0.005413
H     -0.588169     0.554837     0.732800
6
Family_3 [H][C]C([H])([H])[H] | RMSD: 0.4912 | 21388.00 to state    1 from traj    1 on state    2
C     -1.769573     0.292552     0.168448
H     -0.385286     0.595245    -0.879861
H     -1.976075    -0.563042    -0.366829
C     -0.938372     1.340983    -0.121649
H     -1.299289     2.237219     0.078679
H      0.195937     1.020722     0.607090
6
Family_3 [H][C]C([H])([H])[H] | RMSD: 0.3157 | 21748.00 to state    1 from traj    1 on state    2
C     -1.801576     0.170855     0.133271
H     -0.416802     1.083510    -0.890854
H     -2.404388    -0.652323     0.119214
C     -0.904311     1.368903    -0.106468
H     -0.605019     2.577551    -0.067408
H     -0.063030     1.398826     0.516391
6
Family_3 [H][C]C([H])([H])[H] | RMSD: 0.3972 | 1652.00 to state    1 from traj    1 on state    2
C     -1.896292     0.088906     0.094382
H     -0.350231     1.168338    -0.902887
H     -2.430023    -0.811636     0.401161
C     -0.818045     1.468956    -0.079009
H     -0.909787     2.608317    -0.418713
H      0.301494     1.226818     0.733981
6
Family_3 [H][C]C([H])([H])[H] | RMSD: 0.6122 | 6488.00 to state    1 from traj    1 on state    2
C     -1.768170     0.262480     0.039320
H     -0.733424     0.598644    -0.802967
H     -2.011234    -0.694971     0.703181
C     -0.853388     1.410540    -0.126999
H     -1.434969     2.065220     0.498305
H     -0.314438     0.850762     0.642949
6
Family_3 [H][C]C([H])([H])[H] | RMSD: 0.3855 | 1228.00 to state    1 from traj    1 on state    2
C     -1.760325     0.238663     0.028622
H     -0.442590     0.781827    -0.965806
H     -2.449308    -0.802727     0.638483
C     -0.917403     1.361644    -0.048295
H     -1.008597     2.508386    -0.017426
H      0.075726     1.198599     0.575888
6
Family_3 [H][C]C([H])([H])[H] | RMSD: 0.2990 | 3124.00 to state    1 from traj    1 on state    2
C     -1.784888     0.260649     0.090814
H     -0.266190     1.305548    -1.084286
H     -2.216160    -0.617763     0.529841
C     -0.898163     1.292286    -0.096025
H     -1.034638     2.487550    -0.055351
H     -0.244347     1.075218     0.668604
6
Family_3 [H][C]C([H])([H])[H] | RMSD: 0.4293 | 4264.00 to state    1 from traj    1 on state    2
C     -1.692243     0.209264     0.241024
H     -0.081957     1.346111    -0.919033
H     -2.581284    -0.260678    -0.181514
C     -0.972233     1.351839    -0.213821
H     -0.921833     2.458097     0.079506
H     -0.397606     0.609685     0.693618
6
Family_3 [H][C]C([H])([H])[H] | RMSD: 0.4972 | 5852.00 to state    1 from traj    1 on state    2
C     -1.820114     0.293536     0.127814
H     -0.439188     1.013109    -0.874012
H     -2.056709    -0.682540    -0.186520
C     -0.880781     1.299661    -0.070932
H     -1.432161     2.150383    -0.382306
H      0.379347     1.289858     0.761767
6
Family_3 [H][C]C([H])([H])[H] | RMSD: 0.5458 | 3532.00 to state    1 from traj    1 on state    2
C     -1.886101     0.193650     0.094940
H     -0.226723     1.206952    -1.060046
H     -1.479161    -0.546801     0.833098
C     -0.850852     1.409226    -0.150644
H     -0.883679     2.371504     0.306477
H     -0.529500     0.623817     0.580937
6
Family_3 [H][C]C([H])([H])[H] | RMSD: 0.3359 | 7496.00 to state    1 from traj    1 on state    2
C     -1.848091     0.167084     0.117755
H     -0.421763     1.224480    -1.060103
H     -2.266086    -0.656353     0.322400
C     -0.851430     1.352094    -0.114938
H     -0.743816     2.604370     0.046261
H     -0.133429     1.480290     0.654588
6
Family_3 [H][C]C([H])([H])[H] | RMSD: 0.3134 | 8496.00 to state    1 from traj    1 on state    2
C     -1.843647     0.141614     0.171603
H     -0.310142     1.035616    -0.813406
H     -2.408673    -0.971980    -0.002567
C     -0.869783     1.466037    -0.144969
H     -0.747496     2.382417    -0.032125
H      0.066960     1.152516     0.527449
6
Family_3 [H][C]C([H])([H])[H] | RMSD: 0.4745 | 3644.00 to state    1 from traj    1 on state    2
C     -1.818926     0.287020     0.087053
H     -0.339233     1.208574    -1.025379
H     -1.746789    -0.623324     0.715930
C     -0.907380     1.292659    -0.167538
H     -0.928153     2.348624     0.534870
H     -0.231758     0.998004     0.730339
6
Family_3 [H][C]C([H])([H])[H] | RMSD: 0.4600 | 13648.00 to state    1 from traj    1 on state    2
C     -1.847648     0.242873     0.097597
H     -0.307663     1.750439    -0.955645
H     -2.031450    -0.665076     0.730740
C     -0.869111     1.259474    -0.145421
H     -0.756110     2.576682     0.031093
H     -0.264473     1.191301     0.760388
6
Family_3 [H][C]C([H])([H])[H] | RMSD: 0.4278 | 15904.00 to state    1 from traj    1 on state    2
C     -1.815523     0.293116     0.125271
H     -0.377099     1.531725    -1.325679
H     -2.123387    -0.696405     0.068411
C     -0.839429     1.258863    -0.045904
H     -1.272564     2.066562    -0.562821
H     -0.323106     1.360056     0.871090
6
Family_3 [H][C]C([H])([H])[H] | RMSD: 0.3440 | 2972.00 to state    1 from traj    1 on state    2
C     -1.816349     0.156890     0.155907
H     -0.164522     1.092807    -0.977450
H     -2.570121    -0.714163     0.127831
C     -0.873645     1.407120    -0.136566
H     -1.021291     2.516742     0.066447
H      0.077323     1.223199     0.549422
6
Family_3 [H][C]C([H])([H])[H] | RMSD: 0.3566 | 3840.00 to state    1 from traj    1 on state    2
C     -1.791356     0.271520     0.089196
H     -0.402444     1.375323    -1.071508
H     -2.158897    -0.683706     0.556974
C     -0.870553     1.282561    -0.104435
H     -1.096356     2.562375    -0.125420
H     -0.355576     0.982902     0.818254
6
Family_3 [H][C]C([H])([H])[H] | RMSD: 0.4532 | 3692.00 to state    1 from traj    1 on state    2
C     -1.902295     0.118304     0.109243
H     -0.360334     1.099000    -0.910330
H     -1.644256    -0.676542     0.615959
C     -0.843649     1.477555    -0.121548
H     -0.530669     2.659519    -0.077344
H     -0.476676     0.657104     0.515051
6
Family_3 [H][C]C([H])([H])[H] | RMSD: 0.4010 | 6652.00 to state    1 from traj    1 on state    2
C     -1.881940     0.133541     0.117611
H     -0.216085     1.308171    -1.195657
H     -2.413797    -1.096324     0.634033
C     -0.788900     1.466715    -0.140517
H     -1.055265     2.557394     0.004428
H     -0.221694     0.917450     0.826856
6
Family_3 [H][C]C([H])([H])[H] | RMSD: 0.4268 | 8556.00 to state    1 from traj    1 on state    2
C     -1.789617     0.241671     0.062760
H     -0.445130     0.930419    -0.976455
H     -2.024501    -0.334820     0.537163
C     -0.878858     1.312757    -0.079203
H     -1.248654     2.602495     0.034726
H     -0.216736     1.034676     0.597216
6
Family_3 [H][C]C([H])([H])[H] | RMSD: 0.3989 | 3060.00 to state    1 from traj    1 on state    2
C     -1.768100     0.201289     0.045378
H     -0.421372     1.172193    -1.151322
H     -2.588910    -0.456568     0.421771
C     -0.890140     1.337507    -0.001683
H     -1.083446     2.202078    -0.506101
H      0.036750     1.501320     0.711709
6
Family_3 [H][C]C([H])([H])[H] | RMSD: 0.4232 | 8924.00 to state    1 from traj    1 on state    2
C     -1.816990     0.260467     0.070073
H     -0.208780     1.145439    -1.005737
H     -1.841349    -0.566292     0.738284
C     -0.895223     1.343963    -0.110773
H     -1.176969     2.306060     0.121960
H     -0.186762     0.751752     0.627174
6
Family_3 [H][C]C([H])([H])[H] | RMSD: 0.4896 | 6400.00 to state    1 from traj    1 on state    2
C     -1.818616     0.236535     0.136261
H     -0.499193     0.824619    -0.844220
H     -1.905873    -0.770442    -0.342874
C     -0.889537     1.394843     0.004857
H     -0.970962     2.294346    -0.965490
H     -0.086198     0.967331     0.467790
6
Family_3 [H][C]C([H])([H])[H] | RMSD: 0.2724 | 11708.00 to state    1 from traj    1 on state    2
C     -1.751759     0.238274     0.182388
H     -0.092845     1.178332    -0.969796
H     -2.311838    -0.503489    -0.096450
C     -0.954349     1.320692    -0.112113
H     -0.823579     2.496574    -0.166374
H     -0.258338     1.007271     0.391964
6
Family_3 [H][C]C([H])([H])[H] | RMSD: 0.4203 | 2824.00 to state    1 from traj    1 on state    2
C     -1.800955     0.224351     0.071271
H     -0.406310     1.260189    -1.151408
H     -2.425665    -0.556931     0.443640
C     -0.823116     1.319732    -0.043184
H     -1.432631     2.390340    -0.379069
H     -0.199530     1.262436     0.748878
6
Family_3 [H][C]C([H])([H])[H] | RMSD: 0.4132 | 7152.00 to state    1 from traj    1 on state    2
C     -1.857370     0.186393     0.158432
H     -0.547817     0.916242    -1.134392
H     -2.200266    -0.754378    -0.207684
C     -0.833948     1.370628    -0.110809
H     -0.980511     2.439596    -0.006124
H      0.065766     1.600400     0.777459
6
Family_3 [H][C]C([H])([H])[H] | RMSD: 0.3351 | 8644.00 to state    1 from traj    1 on state    2
C     -1.776399     0.220112     0.072161
H     -0.403379     0.843039    -0.966739
H     -2.165811    -0.687623     0.579009
C     -0.897068     1.401809    -0.092677
H     -1.000925     2.411341     0.097452
H     -0.305418     0.861783     0.531459
6
Family_3 [H][C]C([H])([H])[H] | RMSD: 0.3295 | 14052.00 to state    1 from traj    1 on state    2
C     -1.734934     0.208683     0.135125
H     -0.488861     0.804890    -1.227668
H     -2.518723    -0.671792     0.103570
C     -0.884982     1.395645    -0.111423
H     -1.053819     2.442757     0.099157
H     -0.452236     1.062319     0.739231
6
Family_3 [H][C]C([H])([H])[H] | RMSD: 0.2539 | 16792.00 to state    1 from traj    1 on state    2
C     -1.761229     0.200947     0.176994
H     -0.336914     1.165680    -0.956448
H     -2.368956    -0.456755    -0.064654
C     -0.929354     1.361053    -0.151783
H     -0.837467     2.375731    -0.021116
H     -0.128249     1.057885     0.738526
6
Family_3 [H][C]C([H])([H])[H] | RMSD: 0.3393 | 1480.00 to state    1 from traj    1 on state    2
C     -1.791024     0.252179     0.059320
H     -0.525420     0.963420    -1.067778
H     -2.041002    -0.744098     0.622578
C     -0.895517     1.336388    -0.090297
H     -0.860482     2.562761     0.089902
H     -0.292856     1.043884     0.721123
6
Family_3 [H][C]C([H])([H])[H] | RMSD: 0.4053 | 9436.00 to state    1 from traj    1 on state    2
C     -1.831330     0.202299     0.153567
H     -0.642958     0.750957    -0.883306
H     -1.962578    -0.940295    -0.283025
C     -0.872021     1.429331    -0.062043
H     -0.735008     2.496473    -0.549552
H     -0.178906     1.005703     0.622034
6
Family_3 [H][C]C([H])([H])[H] | RMSD: 0.3875 | 11952.00 to state    1 from traj    1 on state    2
C     -1.760318     0.279958     0.148666
H     -0.675095     0.829554    -0.877225
H     -1.971865    -0.570933    -0.218091
C     -0.916454     1.299610    -0.096350
H     -0.820290     2.374245    -0.038358
H     -0.368908     1.300328     0.507005
6
Family_3 [H][C]C([H])([H])[H] | RMSD: 0.2605 | 1452.00 to state    1 from traj    1 on state    2
C     -1.723234     0.252400     0.132877
H     -0.523962     0.889167    -0.874774
H     -2.312694    -0.606331    -0.013244
C     -0.938749     1.356779    -0.095501
H     -0.906275     2.294841    -0.156802
H     -0.269450     1.002684     0.596183
6
Family_3 [H][C]C([H])([H])[H] | RMSD: 0.3728 | 2988.00 to state    1 from traj    1 on state    2
C     -1.848575     0.140286     0.166807
H     -0.338187     1.026406    -1.253788
H     -2.516742    -0.853244     0.015179
C     -0.783138     1.451248    -0.125521
H     -1.301338     2.385013    -0.011115
H     -0.216798     1.232438     0.754490
6
Family_3 [H][C]C([H])([H])[H] | RMSD: 0.3066 | 2220.00 to state    1 from traj    1 on state    2
C     -1.774540     0.284624     0.086160
H     -0.183082     1.253784    -0.924671
H     -1.911562    -0.620683     0.605089
C     -0.974336     1.316467    -0.109154
H     -0.726755     2.224885     0.022192
H     -0.155589     0.818746     0.568096
6
Family_3 [H][C]C([H])([H])[H] | RMSD: 0.4543 | 3424.00 to state    1 from traj    1 on state    2
C     -1.788811     0.273696     0.167722
H     -0.447670     0.893349    -1.078230
H     -2.295917    -0.733374    -0.274188
C     -0.870666     1.291795    -0.114496
H     -1.332712     2.718250    -0.102296
H      0.034056     1.222716     0.817210
6
Family_3 [H][C]C([H])([H])[H] | RMSD: 0.3772 | 1308.00 to state    1 from traj    1 on state    2
C     -1.797040     0.248631     0.117541
H     -0.560323     1.060852    -0.964869
H     -2.368423    -0.782228     0.006652
C     -0.853904     1.326385    -0.077321
H     -1.226363     2.339105    -0.282432
H      0.011188     1.369710     0.758112
6
Family_3 [H][C]C([H])([H])[H] | RMSD: 0.4195 | 1516.00 to state    1 from traj    1 on state    2
C     -1.721915     0.158383     0.215448
H     -0.322261     1.110965    -1.027396
H     -2.566286    -0.356845    -0.021993
C     -0.913518     1.418527    -0.222569
H     -0.921798     2.521906     0.310505
H     -0.518405     0.688846     0.820451
6
Family_3 [H][C]C([H])([H])[H] | RMSD: 0.3350 | 6824.00 to state    1 from traj    1 on state    2
C     -1.797878     0.210001     0.124518
H     -0.624014     1.292100    -1.140382
H     -2.384052    -0.913538     0.191168
C     -0.825587     1.387994    -0.091626
H     -0.999040     2.228216    -0.385794
H     -0.464240     1.106852     0.939796
6
Family_3 [H][C]C([H])([H])[H] | RMSD: 0.4186 | 12356.00 to state    1 from traj    1 on state    2
C     -1.728211     0.277541     0.165518
H     -0.082494     0.875848    -1.085811
H     -2.487559    -0.635247    -0.057200
C     -0.926930     1.335624    -0.122972
H     -1.375637     2.206902     0.232062
H     -0.148214     1.085370     0.400698
6
Family_3 [H][C]C([H])([H])[H] | RMSD: 0.4121 | 7196.00 to state    1 from traj    1 on state    2
C     -1.854064     0.196684     0.132279
H     -0.083931     1.774301    -1.191078
H     -2.174962    -0.689955     0.642687
C     -0.855443     1.348732    -0.161208
H     -0.908940     2.255860     0.028594
H     -0.278271     0.999936     0.861222
6
Family_3 [H][C]C([H])([H])[H] | RMSD: 0.3325 | 12052.00 to state    1 from traj    1 on state    2
C     -1.777942     0.236050     0.168450
H     -0.157646     1.144918    -1.022784
H     -2.459458    -0.665071    -0.005060
C     -0.892767     1.322262    -0.124374
H     -1.127512     2.483424     0.038382
H     -0.163785     1.223214     0.460994
6
Family_3 [H][C]C([H])([H])[H] | RMSD: 0.4881 | 2104.00 to state    1 from traj    1 on state    2
C     -1.662467     0.231849     0.235020
H     -0.369176     1.124494    -1.083613
H     -2.583960    -0.150425    -0.319190
C     -0.954483     1.318367    -0.210987
H     -1.044512     2.512645     0.228358
H     -0.551333     0.796229     0.884799
6
Family_3 [H][C]C([H])([H])[H] | RMSD: 0.3784 | 3244.00 to state    1 from traj    1 on state    2
C     -1.817077     0.293032     0.073720
H     -0.266452     1.288338    -1.127163
H     -1.745788    -0.688674     0.720337
C     -0.915812     1.295365    -0.111668
H     -0.884591     2.332411     0.115746
H     -0.270666     0.895927     0.739970
6
Family_3 [H][C]C([H])([H])[H] | RMSD: 0.2937 | 3720.00 to state    1 from traj    1 on state    2
C     -1.880544     0.118727     0.127396
H     -0.503391     1.171434    -1.210290
H     -2.243726    -0.765442     0.141505
C     -0.810899     1.427044    -0.074289
H     -0.717780     2.492413    -0.344197
H     -0.196453     1.437503     0.776896
6
Family_3 [H][C]C([H])([H])[H] | RMSD: 0.4101 | 5300.00 to state    1 from traj    1 on state    2
C     -1.807646     0.235782     0.052869
H     -0.405817     1.302513    -1.369715
H     -2.341990    -0.761917     0.641546
C     -0.821395     1.322458    -0.030505
H     -1.248598     2.472056    -0.393319
H     -0.408493     1.174681     0.851728
6
Family_3 [H][C]C([H])([H])[H] | RMSD: 0.3676 | 7720.00 to state    1 from traj    1 on state    2
C     -1.912846     0.094670     0.143208
H     -0.284477     0.963988    -1.075222
H     -2.179606    -0.766955    -0.118084
C     -0.819328     1.489847    -0.037768
H     -0.916200     2.369111    -0.637449
H      0.204272     1.308093     0.571093
6
Family_3 [H][C]C([H])([H])[H] | RMSD: 0.3932 | 8684.00 to state    1 from traj    1 on state    2
C     -1.833261     0.138727     0.134620
H     -0.305236     1.191819    -1.267739
H     -2.541038    -0.523992     0.228951
C     -0.810596     1.371961    -0.103327
H     -1.135130     2.643983    -0.019001
H     -0.246953     1.442139     0.681624
6
Family_3 [H][C]C([H])([H])[H] | RMSD: 0.3768 | 11172.00 to state    1 from traj    1 on state    2
C     -1.786032     0.163041     0.071574
H     -0.359200     1.263261    -1.065092
H     -2.547584    -0.322149     0.411270
C     -0.885509     1.362049    -0.043619
H     -1.042234     2.273820    -0.414414
H      0.050523     1.367411     0.731854
6
Family_3 [H][C]C([H])([H])[H] | RMSD: 0.4772 | 5220.00 to state    1 from traj    1 on state    2
C     -1.847706     0.199875     0.160981
H     -0.828340     0.739963    -1.026878
H     -1.922937    -0.745213    -0.427058
C     -0.814031     1.402892    -0.070991
H     -0.997030     2.272610    -0.350713
H     -0.267017     1.389410     0.729078
6
Family_3 [H][C]C([H])([H])[H] | RMSD: 0.4875 | 9408.00 to state    1 from traj    1 on state    2
C     -1.825257     0.093854     0.216960
H     -0.097331     1.388503    -1.258902
H     -2.647690    -0.527308     0.086852
C     -0.792215     1.488742    -0.201344
H     -1.442575     2.368349    -0.004504
H     -0.355162     0.667577     0.987200
6
Family_3 [H][C]C([H])([H])[H] | RMSD: 0.4419 | 4336.00 to state    1 from traj    1 on state    2
C     -1.810159     0.203978     0.072145
H     -0.482166     1.230412    -1.180928
H     -2.426832    -0.529616     0.412951
C     -0.812835     1.346510    -0.052622
H     -1.465070     2.345570    -0.396027
H     -0.102898     1.233331     0.928086
6
Family_3 [H][C]C([H])([H])[H] | RMSD: 0.4523 | 11148.00 to state    1 from traj    1 on state    2
C     -1.691042     0.192540     0.187919
H     -0.482800     1.130343    -1.436191
H     -2.686382    -0.270468    -0.108316
C     -0.908817     1.348042    -0.157328
H     -0.954239     2.429770     0.116475
H     -0.629216     1.108107     1.060243
6
Family_3 [H][C]C([H])([H])[H] | RMSD: 0.4814 | 3448.00 to state    1 from traj    1 on state    2
C     -1.782961     0.277921     0.031245
H     -0.597223     1.271491    -1.088107
H     -2.137087    -0.522159     0.803810
C     -0.847940     1.260549    -0.076347
H     -1.279875     2.584796    -0.084116
H     -0.368557     1.088776     0.902548
6
Family_3 [H][C]C([H])([H])[H] | RMSD: 0.5113 | 8688.00 to state    1 from traj    1 on state    2
C     -1.843216     0.235825     0.060888
H     -0.202185     1.344000    -1.372432
H     -2.117053    -0.780713     0.903770
C     -0.800563     1.353763    -0.092816
H     -1.431691     2.319936     0.070245
H     -0.478365     0.930588     0.775579
6
Family_3 [H][C]C([H])([H])[H] | RMSD: 0.4795 | 9664.00 to state    1 from traj    1 on state    2
C     -1.798263     0.220731     0.050314
H     -0.480085     0.815834    -0.816848
H     -2.179463    -0.724110     0.557369
C     -0.865394     1.428112    -0.070831
H     -1.424376     2.383749    -0.286505
H      0.091489     0.632269     0.787177
6
Family_3 [H][C]C([H])([H])[H] | RMSD: 0.3974 | 4596.00 to state    1 from traj    1 on state    2
C     -1.798264     0.231636     0.167350
H     -0.495365     0.823851    -0.988547
H     -2.270653    -0.720131    -0.229986
C     -0.867744     1.350663    -0.125092
H     -1.121523     2.429199     0.105456
H     -0.076883     1.367732     0.606269
6
Family_3 [H][C]C([H])([H])[H] | RMSD: 0.3018 | 6156.00 to state    1 from traj    1 on state    2
C     -1.817245     0.139324     0.099800
H     -0.412782     0.960764    -1.227150
H     -2.458974    -0.681897     0.361399
C     -0.847784     1.418666    -0.078800
H     -0.885884     2.664102    -0.099462
H     -0.218437     1.247354     0.711693
6
Family_3 [H][C]C([H])([H])[H] | RMSD: 0.3325 | 7264.00 to state    1 from traj    1 on state    2
C     -1.860627     0.099104     0.143889
H     -0.431093     1.196899    -1.034604
H     -2.550976    -0.858655     0.206244
C     -0.791077     1.464200    -0.116294
H     -0.959518     2.616078    -0.255081
H     -0.193274     1.172680     0.751354
6
Family_3 [H][C]C([H])([H])[H] | RMSD: 0.4441 | 4616.00 to state    1 from traj    1 on state    2
C     -1.855056     0.159545     0.133639
H     -0.705444     0.669453    -1.007733
H     -2.242091    -0.906871    -0.211894
C     -0.794870     1.462175    -0.060040
H     -1.144907     2.263553    -0.312611
H     -0.063607     1.404798     0.651969
6
Family_3 [H][C]C([H])([H])[H] | RMSD: 0.3612 | 5776.00 to state    2 from traj    2 on state    1
C     -1.738103     0.291919     0.124186
H     -0.719493     0.691679    -0.890694
H     -1.940129    -0.723648    -0.194238
C     -0.955837     1.336307    -0.055333
H     -0.655157     2.282804    -0.307629
H     -0.316817     1.102571     0.568849
6
Family_3 [H][C]C([H])([H])[H] | RMSD: 0.4306 | 7988.00 to state    1 from traj    1 on state    2
C     -1.829100     0.282960     0.062806
H     -0.264491     1.401268    -1.207412
H     -1.778890    -0.644638     0.816226
C     -0.887177     1.290186    -0.101499
H     -1.029515     2.415772    -0.024488
H     -0.292543     0.837310     0.873449
6
Family_3 [H][C]C([H])([H])[H] | RMSD: 0.5300 | 10092.00 to state    1 from traj    4 on state    2
C     -1.821087     0.218965     0.065623
H     -0.130028     1.000469    -0.748041
H     -1.783987    -0.633529     0.824270
C     -0.910067     1.404901    -0.086526
H     -0.916465     2.587628    -0.058289
H     -0.357673     0.450793     0.227857
6
Family_3 [H][C]C([H])([H])[H] | RMSD: 0.3825 | 4104.00 to state    1 from traj    1 on state    2
C     -1.731874     0.218522     0.167691
H     -0.174617     1.355354    -0.960008
H     -2.627309    -0.375213     0.105340
C     -0.907410     1.328879    -0.144846
H     -1.229501     2.387337    -0.077957
H     -0.251436     0.949012     0.657125
6
Family_3 [H][C]C([H])([H])[H] | RMSD: 0.5267 | 3820.00 to state    1 from traj    1 on state    2
C     -1.864449     0.171012     0.123925
H     -0.189062     1.063455    -0.771785
H     -1.822597    -0.784251     0.687591
C     -0.883239     1.473567    -0.206100
H     -0.764411     2.114228     0.658847
H     -0.215079     0.765118     0.401234
6
Family_3 [H][C]C([H])([H])[H] | RMSD: 0.3801 | 5332.00 to state    1 from traj    1 on state    2
C     -1.743661     0.247670     0.156258
H     -0.206239     1.072523    -0.889763
H     -2.449606    -0.485915    -0.140308
C     -0.939403     1.321335    -0.085878
H     -1.189743     2.530764    -0.428352
H      0.084403     0.941690     0.616510
6
Family_3 [H][C]C([H])([H])[H] | RMSD: 0.4838 | 6836.00 to state    1 from traj    1 on state    2
C     -1.871388     0.181836     0.093410
H     -0.062697     1.351151    -1.094089
H     -2.000565    -0.524656     0.754258
C     -0.804590     1.390643    -0.105316
H     -1.391882     2.383755    -0.015988
H     -0.390480     0.807427     0.494404
6
Family_3 [H][C]C([H])([H])[H] | RMSD: 0.5226 | 4652.00 to state    1 from traj    1 on state    2
C     -1.786974     0.175223     0.154811
H     -0.171054     1.027526    -0.788528
H     -2.767020    -0.784190     0.086641
C     -0.830138     1.439095    -0.120462
H     -1.605694     2.398059    -0.179121
H     -0.003286     0.877738     0.468437
6
Family_3 [H][C]C([H])([H])[H] | RMSD: 0.3919 | 6700.00 to state    1 from traj    1 on state    2
C     -1.757139     0.281437     0.070793
H     -0.518009     0.752393    -1.078696
H     -2.194909    -0.928858     0.488406
C     -0.928813     1.358087    -0.115143
H     -0.879072     2.184230     0.441416
H     -0.134782     1.211015     0.674063
6
Family_3 [H][C]C([H])([H])[H] | RMSD: 0.5102 | 7844.00 to state    1 from traj    1 on state    2
C     -1.780565     0.301734     0.113580
H     -1.049992     1.114631    -1.123575
H     -1.793358    -0.627846    -0.108481
C     -0.877250     1.246837    -0.064476
H     -0.667401     2.393930    -0.405320
H     -0.551283     1.421841     1.048978
6
Family_3 [H][C]C([H])([H])[H] | RMSD: 0.4505 | 5092.00 to state    1 from traj    1 on state    2
C     -1.823640     0.238667     0.118664
H     -0.804864     0.926251    -1.058246
H     -2.058782    -0.743842    -0.223112
C     -0.843002     1.323423    -0.031843
H     -0.886120     2.291382    -0.441373
H     -0.207098     1.667670     0.684922
6
Family_3 [H][C]C([H])([H])[H] | RMSD: 0.3859 | 7472.00 to state    1 from traj    1 on state    2
C     -1.878959     0.085151     0.164109
H     -0.338540     1.291155    -0.901824
H     -2.520345    -0.832646     0.046965
C     -0.766107     1.513055    -0.101840
H     -1.212738     2.208429    -0.530459
H     -0.142332     1.044182     0.640053
6
Family_3 [H][C]C([H])([H])[H] | RMSD: 0.2382 | 2736.00 to state    1 from traj    1 on state    2
C     -1.779695     0.252980     0.094684
H     -0.422970     1.160764    -1.074172
H     -1.936040    -0.706481     0.465922
C     -0.941992     1.354018    -0.100409
H     -0.596179     2.287455    -0.098964
H     -0.345783     0.864611     0.772146
6
Family_3 [H][C]C([H])([H])[H] | RMSD: 0.3657 | 5416.00 to state    1 from traj    1 on state    2
C     -1.744252     0.240443     0.138806
H     -0.514426     0.784094    -0.877393
H     -2.394806    -0.681217     0.004430
C     -0.892021     1.368440    -0.118566
H     -1.174657     2.459034     0.046627
H     -0.234844     1.021988     0.581888
6
Family_3 [H][C]C([H])([H])[H] | RMSD: 0.4408 | 8740.00 to state    1 from traj    1 on state    2
C     -1.825756     0.236830     0.158151
H     -0.553950     0.788932    -0.925552
H     -2.148149    -0.791610    -0.328459
C     -0.852107     1.355862    -0.089243
H     -1.167211     2.349275    -0.147516
H      0.046149     1.430225     0.577154
6
Family_3 [H][C]C([H])([H])[H] | RMSD: 0.4336 | 11452.00 to state    1 from traj    1 on state    2
C     -1.827216     0.201225     0.155236
H     -0.574946     0.877069    -0.813028
H     -2.136912    -0.734911    -0.221647
C     -0.836673     1.401202    -0.085271
H     -1.212181     2.572525    -0.502287
H     -0.065633     0.946137     0.700001
6
Family_3 [H][C]C([H])([H])[H] | RMSD: 0.4526 | 9916.00 to state    1 from traj    1 on state    2
C     -1.752471     0.302277     0.154990
H     -0.061083     1.178910    -0.939416
H     -2.492635    -0.603378    -0.081943
C     -0.937005     1.249404    -0.102226
H     -1.391127     2.545455    -0.198949
H      0.260067     1.144500     0.588305
6
Family_3 [H][C]C([H])([H])[H] | RMSD: 0.5116 | 14896.00 to state    1 from traj    1 on state    2
C     -1.831450     0.283124     0.074395
H     -0.080400     1.228323    -1.300648
H     -1.972669    -0.801794     0.821372
C     -0.847943     1.328898    -0.115977
H     -1.459176     2.302762     0.255315
H     -0.292675     0.817201     0.716158
6
Family_3 [H][C]C([H])([H])[H] | RMSD: 0.3261 | 2616.00 to state    1 from traj    1 on state    2
C     -1.759854     0.209639     0.197365
H     -0.233243     1.521719    -0.984996
H     -2.525411    -0.559545     0.003720
C     -0.904555     1.328182    -0.168086
H     -0.883943     2.492327    -0.134575
H     -0.340875     0.976142     0.763686
6
Family_3 [H][C]C([H])([H])[H] | RMSD: 0.5105 | 6720.00 to state    1 from traj    1 on state    2
C     -1.797073     0.281426     0.072027
H     -0.213272     1.230122    -1.092251
H     -1.820779    -0.610078     0.872035
C     -0.883406     1.326686    -0.122400
H     -1.154437     2.294402     0.270260
H     -0.603503     0.678632     0.546909
6
Family_3 [H][C]C([H])([H])[H] | RMSD: 0.5011 | 8028.00 to state    1 from traj    1 on state    2
C     -1.819465     0.263727     0.143976
H     -0.609342     0.626980    -1.310288
H     -1.695215    -0.574395    -0.515406
C     -0.915463     1.322939    -0.010184
H     -0.771467     2.325318    -0.491886
H     -0.067167     1.470719     0.720076
6
Family_3 [H][C]C([H])([H])[H] | RMSD: 0.3873 | 2568.00 to state    1 from traj    1 on state    2
C     -1.782656     0.218250     0.104374
H     -0.321390     1.268728    -1.078671
H     -2.596879    -0.607803     0.290845
C     -0.886263     1.287193    -0.080519
H     -0.996208     2.693682    -0.173244
H     -0.015254     1.461844     0.673543
6
Family_3 [H][C]C([H])([H])[H] | RMSD: 0.3878 | 3848.00 to state    1 from traj    1 on state    2
C     -1.784228     0.267069     0.104455
H     -0.182324     1.278735    -0.977642
H     -2.356966    -0.655061     0.452828
C     -0.919400     1.275542    -0.128843
H     -1.009283     2.359426     0.284138
H      0.032425     1.390467     0.527996
6
Family_3 [H][C]C([H])([H])[H] | RMSD: 0.3414 | 9484.00 to state    2 from traj    4 on state    1
C     -1.719366     0.217455     0.070796
H     -0.215598     0.980052    -1.217881
H     -2.570450    -0.372852     0.174270
C     -0.995956     1.323096     0.022377
H     -0.672009     2.352912    -0.579302
H      0.081254     1.438000     0.509413
6
Family_3 [H][C]C([H])([H])[H] | RMSD: 0.3819 | 9808.00 to state    1 from traj    1 on state    2
C     -1.728784     0.206129     0.170350
H     -0.046686     1.268183    -1.119119
H     -2.554870    -0.529228    -0.082946
C     -0.961144     1.367374    -0.060899
H     -0.847715     2.582242    -0.764468
H     -0.230125     0.684276     0.659066
6
Family_3 [H][C]C([H])([H])[H] | RMSD: 0.4329 | 3500.00 to state    1 from traj    1 on state    2
C     -1.745241     0.215335     0.053479
H     -0.360196     0.832632    -0.765817
H     -2.411017    -0.599370     0.478683
C     -0.922846     1.428741    -0.043239
H     -1.272634     2.282101    -0.451837
H      0.104190     0.649190     0.613663
6
Family_3 [H][C]C([H])([H])[H] | RMSD: 0.3829 | 10868.00 to state    1 from traj    1 on state    2
C     -1.661319     0.316704     0.153484
H     -0.286320     1.126590    -1.111556
H     -2.562157    -0.504038     0.148026
C     -1.002474     1.263388    -0.188778
H     -1.025602     2.335795     0.435892
H     -0.116742     0.968606     0.944906
6
Family_3 [H][C]C([H])([H])[H] | RMSD: 0.2772 | 3228.00 to state    1 from traj    1 on state    2
C     -1.746965     0.204847     0.191006
H     -0.162522     1.153349    -1.072594
H     -2.517176    -0.606971    -0.020607
C     -0.931506     1.363913    -0.156438
H     -0.792630     2.436729     0.154008
H     -0.343588     1.078881     0.524015
6
Family_3 [H][C]C([H])([H])[H] | RMSD: 0.4467 | 3828.00 to state    2 from traj    5 on state    1
C     -1.914217     0.075093     0.187715
H     -0.495842     0.762111    -0.802373
H     -2.270761    -0.940482    -0.238569
C     -0.776981     1.524394    -0.134960
H     -0.953514     2.594710    -0.082418
H      0.055848     1.279512     0.491466
6
Family_3 [H][C]C([H])([H])[H] | RMSD: 0.2251 | 5560.00 to state    1 from traj    1 on state    2
C     -1.750999     0.199043     0.131780
H     -0.251543     0.876275    -1.186087
H     -2.464582    -0.708698     0.068429
C     -0.935914     1.391942    -0.059030
H     -0.743108     2.600390    -0.293078
H     -0.256088     1.029192     0.540587
6
Family_3 [H][C]C([H])([H])[H] | RMSD: 0.3661 | 8464.00 to state    1 from traj    1 on state    2
C     -1.807701     0.241283     0.169892
H     -0.113086     1.189185    -0.881077
H     -2.375761    -0.780317    -0.127325
C     -0.920653     1.320899    -0.111198
H     -0.977317     2.424736    -0.170156
H      0.244642     1.306760     0.475906
6
Family_3 [H][C]C([H])([H])[H] | RMSD: 0.2465 | 9520.00 to state    1 from traj    1 on state    2
C     -1.796772     0.190370     0.141806
H     -0.473189     1.040259    -0.930508
H     -2.170270    -0.705038     0.017411
C     -0.906052     1.406301    -0.091251
H     -0.708439     2.498791    -0.432380
H     -0.173836     0.895399     0.739789
6
Family_3 [H][C]C([H])([H])[H] | RMSD: 0.4639 | 11032.00 to state    1 from traj    1 on state    2
C     -1.799026     0.151647     0.150543
H     -0.287485     0.928100    -0.991907
H     -2.637083    -0.734740     0.059009
C     -0.923845     1.382705    -0.142005
H     -0.580428     2.739704     0.264581
H      0.218136     1.538918     0.563297
6
Family_3 [H][C]C([H])([H])[H] | RMSD: 0.3389 | 15352.00 to state    1 from traj    1 on state    2
C     -1.891764     0.139483     0.112701
H     -0.288678     1.252530    -1.352786
H     -2.197113    -0.882404     0.486725
C     -0.814437     1.405658    -0.101626
H     -0.696174     2.543061     0.058810
H     -0.303529     1.430226     0.672002
6
Family_3 [H][C]C([H])([H])[H] | RMSD: 0.6517 | 1328.00 to state    1 from traj    1 on state    2
C     -1.810629     0.235735     0.063652
H     -1.180045     0.668759    -0.788526
H     -1.522324    -0.780271    -0.093964
C     -0.934649     1.421515    -0.002350
H     -0.244287     1.929100    -0.779786
H     -0.073210     1.189978     0.928539
6
Family_3 [H][C]C([H])([H])[H] | RMSD: 0.2850 | 10092.00 to state    1 from traj    1 on state    2
C     -1.793570     0.154677     0.081210
H     -0.126352     1.156947    -0.996103
H     -2.467922    -0.706819     0.461482
C     -0.937930     1.450849    -0.040153
H     -0.722816     2.247909    -0.550312
H      0.133040     0.925853     0.592433
6
Family_3 [H][C]C([H])([H])[H] | RMSD: 0.3234 | 11284.00 to state    1 from traj    1 on state    2
C     -1.790260     0.174223     0.147554
H     -0.260510     1.188155    -1.207909
H     -2.615388    -0.733002     0.068923
C     -0.846357     1.410763    -0.080394
H     -1.201073     2.371535    -0.417950
H     -0.237661     1.041955     0.753394
6
Family_3 [H][C]C([H])([H])[H] | RMSD: 0.4128 | 2332.00 to state    1 from traj    1 on state    2
C     -1.771979     0.208050     0.045213
H     -0.318898     0.989191    -0.770932
H     -2.433408    -0.526905     0.596234
C     -0.928842     1.343144    -0.050368
H     -0.870430     2.435349    -0.045614
H      0.073137     1.373661     0.278464
6
Family_3 [H][C]C([H])([H])[H] | RMSD: 0.3593 | 7256.00 to state    1 from traj    1 on state    2
C     -1.731971     0.191127     0.048384
H     -0.362246     1.232255    -1.270767
H     -2.653012    -0.363784     0.503638
C     -0.923719     1.346428    -0.003099
H     -0.864386     2.164779    -0.476899
H     -0.207721     1.400564     0.701133
6
Family_3 [H][C]C([H])([H])[H] | RMSD: 0.4751 | 1432.00 to state    1 from traj    1 on state    2
C     -1.654566     0.184452     0.197065
H     -0.310065     1.305864    -1.064383
H     -2.778975    -0.173202     0.100894
C     -0.965562     1.374473    -0.215188
H     -0.781329     2.134031     0.408477
H     -0.640746     0.912484     0.767678
6
Family_3 [H][C]C([H])([H])[H] | RMSD: 0.5081 | 4012.00 to state    1 from traj    1 on state    2
C     -1.835989     0.187690     0.077452
H     -0.337404     1.392271    -1.386632
H     -2.531766    -0.629061     0.459975
C     -0.777619     1.337294    -0.030988
H     -1.505104     2.526716    -0.550434
H     -0.214532     1.293678     0.920151
6
Family_3 [H][C]C([H])([H])[H] | RMSD: 0.5057 | 3660.00 to state    1 from traj    1 on state    2
C     -1.820141     0.235463     0.098026
H     -0.081691     1.030674    -1.381941
H     -1.900986    -0.718874     0.761200
C     -0.863547     1.390111    -0.130196
H     -1.156329     2.386495     0.419456
H     -0.614747     0.686707     0.581330
6
Family_3 [H][C]C([H])([H])[H] | RMSD: 0.5051 | 2120.00 to state    1 from traj    1 on state    2
C     -1.660465     0.205616     0.207393
H     -0.395709     1.457154    -1.101580
H     -2.802970    -0.151516    -0.050651
C     -0.921728     1.319478    -0.189954
H     -1.001421     2.327991     0.081140
H     -0.763037     0.948657     0.860012
6
Family_3 [H][C]C([H])([H])[H] | RMSD: 0.3515 | 2056.00 to state    1 from traj    1 on state    2
C     -1.776080     0.246288     0.080557
H     -0.254719     1.046242    -0.776589
H     -1.941935    -0.663599     0.629098
C     -0.967785     1.380413    -0.111208
H     -0.659132     2.252463     0.082554
H     -0.180914     0.736473     0.426874
6
Family_3 [H][C]C([H])([H])[H] | RMSD: 0.3372 | 5236.00 to state    1 from traj    1 on state    2
C     -1.852149     0.200044     0.077325
H     -0.138792     1.360106    -1.148196
H     -2.056211    -0.678969     0.633619
C     -0.861433     1.374318    -0.053399
H     -1.031418     2.429738    -0.439777
H     -0.171128     0.884363     0.665975
6
Family_3 [H][C]C([H])([H])[H] | RMSD: 0.4543 | 8944.00 to state    1 from traj    1 on state    2
C     -1.760311     0.257765     0.131255
H     -0.865437     0.820573    -1.083299
H     -2.261003    -0.633427    -0.137399
C     -0.857474     1.313030    -0.108045
H     -1.141657     2.532453    -0.049891
H     -0.270938     1.318137     0.990748
6
Family_3 [H][C]C([H])([H])[H] | RMSD: 0.3279 | 11400.00 to state    1 from traj    1 on state    2
C     -1.747597     0.315393     0.109254
H     -0.525444     0.958796    -1.018107
H     -2.084362    -0.601595    -0.086518
C     -0.920372     1.277040    -0.029148
H     -1.135449     2.235235    -0.481171
H     -0.195802     1.187468     0.627994
6
Family_3 [H][C]C([H])([H])[H] | RMSD: 0.3979 | 1672.00 to state    1 from traj    1 on state    2
C     -1.836732     0.119405     0.042393
H     -0.566210     0.911444    -1.066369
H     -2.480531    -0.709182     0.544765
C     -0.809390     1.458023    -0.022307
H     -1.106822     2.560837    -0.469384
H     -0.047813     1.195601     0.748374
6
Family_3 [H][C]C([H])([H])[H] | RMSD: 0.3781 | 4704.00 to state    1 from traj    1 on state    2
C     -1.761537     0.150977     0.188162
H     -0.159027     1.046588    -1.098686
H     -2.578056    -0.432426     0.083672
C     -0.898890     1.417193    -0.184748
H     -1.057240     2.614721     0.249278
H     -0.236592     0.840140     0.721769
6
Family_3 [H][C]C([H])([H])[H] | RMSD: 0.4730 | 3216.00 to state    1 from traj    1 on state    2
C     -1.826757     0.247482     0.059269
H     -0.152765     1.393555    -1.213518
H     -2.113183    -0.520854     0.735978
C     -0.842354     1.291010    -0.048893
H     -1.395278     2.629574    -0.354343
H     -0.266219     0.920366     0.704957
6
Family_3 [H][C]C([H])([H])[H] | RMSD: 0.2723 | 6284.00 to state    1 from traj    1 on state    2
C     -1.793468     0.240238     0.146727
H     -0.334211     1.117430    -1.203422
H     -2.379674    -0.806044     0.007320
C     -0.882573     1.329702    -0.100795
H     -1.034717     2.474468    -0.139953
H     -0.096275     1.262070     0.785464
6
Family_3 [H][C]C([H])([H])[H] | RMSD: 0.3542 | 4536.00 to state    1 from traj    1 on state    2
C     -1.833183     0.197311     0.169994
H     -0.411020     1.002521    -1.208313
H     -2.324909    -0.905194    -0.165586
C     -0.844849     1.360059    -0.097227
H     -0.891338     2.754159    -0.198489
H     -0.193870     1.346211     0.702030
6
Family_3 [H][C]C([H])([H])[H] | RMSD: 0.4471 | 7056.00 to state    1 from traj    1 on state    2
C     -1.742067     0.154706     0.028671
H     -0.723607     0.948771    -1.124791
H     -2.623095    -0.271251     0.404969
C     -0.882467     1.390137     0.007616
H     -0.969896     2.165253    -0.508967
H     -0.142016     1.504199     0.793131
6
Family_3 [H][C]C([H])([H])[H] | RMSD: 0.3512 | 13092.00 to state    1 from traj    1 on state    2
C     -1.898339     0.076969     0.128480
H     -0.202955     1.132474    -1.210173
H     -2.431994    -0.718463     0.404633
C     -0.790318     1.473187    -0.124076
H     -1.017144     2.537141     0.102395
H     -0.042444     1.332513     0.647381
6
Family_3 [H][C]C([H])([H])[H] | RMSD: 0.5149 | 13656.00 to state    1 from traj    1 on state    2
C     -1.685478     0.262294    -0.021301
H     -0.778886     0.953394    -1.091213
H     -2.388004    -0.064092     0.760991
C     -0.956739     1.258820    -0.019623
H     -1.015030     2.440679    -0.198579
H     -0.065990     1.299732     1.013161
6
Family_3 [H][C]C([H])([H])[H] | RMSD: 0.2751 | 6192.00 to state    1 from traj    1 on state    2
C     -1.782725     0.244148     0.074495
H     -0.366181     0.925924    -1.007541
H     -2.038232    -0.570241     0.448737
C     -0.957777     1.345071    -0.091575
H     -0.773460     2.420252     0.029854
H      0.101097     1.042266     0.729189
6
Family_3 [H][C]C([H])([H])[H] | RMSD: 0.5043 | 9708.00 to state    1 from traj    1 on state    2
C     -1.812160     0.253977     0.090255
H      0.155205     1.229831    -0.963700
H     -1.844516    -0.469673     0.737555
C     -0.949662     1.346438    -0.112148
H     -1.123388     2.494439    -0.029035
H     -0.010034     0.430196     0.512770
6
Family_3 [H][C]C([H])([H])[H] | RMSD: 0.4486 | 17336.00 to state    1 from traj    1 on state    2
C     -1.865055     0.149567     0.168899
H     -0.508753     0.689178    -0.861082
H     -2.078025    -0.656989    -0.230293
C     -0.800624     1.450633    -0.106549
H     -1.255211     2.540768    -0.133727
H     -0.126345     1.114404     0.478878
6
Family_3 [H][C]C([H])([H])[H] | RMSD: 0.4406 | 2008.00 to state    1 from traj    1 on state    2
C     -1.752794     0.245861     0.038632
H     -0.592377     1.201363    -1.342047
H     -2.490605    -0.429883     0.514185
C     -0.868443     1.273158    -0.025094
H     -1.184590     2.384392    -0.298783
H     -0.230320     1.498812     0.962049
6
Family_3 [H][C]C([H])([H])[H] | RMSD: 0.2946 | 4376.00 to state    1 from traj    1 on state    2
C     -1.878538     0.098963     0.154832
H     -0.354681     0.926537    -1.352111
H     -2.276002    -0.877180     0.028388
C     -0.780856     1.518986    -0.076195
H     -1.065984     2.415397    -0.371050
H     -0.346562     1.011105     0.754484
6
Family_3 [H][C]C([H])([H])[H] | RMSD: 0.3805 | 6856.00 to state    1 from traj    1 on state    2
C     -1.833035     0.210864     0.121439
H      0.081748     1.388196    -1.192618
H     -2.270535    -0.869074     0.629373
C     -0.917297     1.384889    -0.159600
H     -0.868733     2.252393     0.270154
H      0.097885     0.968824     0.744520
6
Family_3 [H][C]C([H])([H])[H] | RMSD: 0.4532 | 832.00 to state    1 from traj    1 on state    2
C     -1.772600     0.245685     0.196895
H      0.030492     1.393239    -0.781960
H     -2.536072    -0.539014    -0.117849
C     -0.916368     1.296589    -0.145037
H     -1.255456     2.414258    -0.112954
H      0.070195     1.109099     0.391558
6
Family_3 [H][C]C([H])([H])[H] | RMSD: 0.3841 | 3388.00 to state    1 from traj    1 on state    2
C     -1.764616     0.284140     0.054326
H     -0.486895     0.907540    -0.939195
H     -2.055447    -0.570167     0.580160
C     -0.920657     1.311803    -0.098192
H     -1.143861     2.443198     0.126184
H     -0.048669     0.957508     0.752258
6
Family_3 [H][C]C([H])([H])[H] | RMSD: 0.4167 | 11740.00 to state    1 from traj    1 on state    2
C     -1.832466     0.226355     0.125828
H     -0.042766     1.427976    -0.984044
H     -1.962652    -0.782054     0.656691
C     -0.933368     1.343815    -0.165680
H     -0.488636     2.401765     0.356753
H     -0.280875     0.997500     0.442177
6
Family_3 [H][C]C([H])([H])[H] | RMSD: 0.4846 | 5136.00 to state    1 from traj    1 on state    2
C     -1.850645     0.225735     0.086507
H     -0.188194     1.204496    -1.032225
H     -1.802190    -0.602263     0.792882
C     -0.848875     1.376407    -0.137110
H     -1.220830     2.372452     0.233257
H     -0.353881     0.689535     0.605775
6
Family_3 [H][C]C([H])([H])[H] | RMSD: 0.4539 | 1556.00 to state    1 from traj    1 on state    2
C     -1.770145     0.237103     0.180265
H     -0.659994     0.648870    -0.722548
H     -2.093489    -0.738960    -0.347755
C     -0.898854     1.389892    -0.135204
H     -0.975062     2.592203    -0.096958
H     -0.200227     0.865970     0.627044
6
Family_3 [H][C]C([H])([H])[H] | RMSD: 0.4396 | 8572.00 to state    1 from traj    1 on state    2
C     -1.793867     0.263165     0.153646
H     -0.441255     0.700040    -1.012093
H     -2.012230    -0.503404    -0.328481
C     -0.891587     1.311212    -0.067937
H     -1.206048     2.507334    -0.165558
H     -0.073179     1.291086     0.481563
6
Family_3 [H][C]C([H])([H])[H] | RMSD: 0.4339 | 9740.00 to state    1 from traj    1 on state    2
C     -1.714331     0.328388     0.039232
H     -0.542100     1.077984    -1.091904
H     -2.377384    -0.567484     0.616958
C     -0.904462     1.234364    -0.070549
H     -1.303681     2.295244     0.144022
H     -0.303856     1.327826     0.700806
6
Family_3 [H][C]C([H])([H])[H] | RMSD: 0.5073 | 4512.00 to state    1 from traj    1 on state    2
C     -1.880010     0.102080     0.130999
H     -0.218365     1.054998    -1.204355
H     -2.550407    -0.682026     0.110845
C     -0.763103     1.498702    -0.073733
H     -1.663009     2.195314    -0.429598
H      0.194549     1.112135     0.837466
6
Family_3 [H][C]C([H])([H])[H] | RMSD: 0.4293 | 5384.00 to state    1 from traj    1 on state    2
C     -1.819429     0.186991     0.094255
H     -0.238900     1.350625    -0.863287
H     -2.578006    -0.806438     0.515451
C     -0.876422     1.335589    -0.097152
H     -0.881787     2.801567    -0.193080
H      0.089867     1.266494     0.572152
6
Family_3 [H][C]C([H])([H])[H] | RMSD: 0.4045 | 8044.00 to state    1 from traj    1 on state    2
C     -1.745315     0.298912     0.078570
H     -0.321454     0.994610    -1.233983
H     -2.457198    -0.625950     0.255809
C     -0.908203     1.280590    -0.053347
H     -1.450899     2.306675    -0.162244
H      0.116312     1.258647     0.836592
6
Family_3 [H][C]C([H])([H])[H] | RMSD: 0.3590 | 10388.00 to state    1 from traj    1 on state    2
C     -1.869439     0.094300     0.184030
H     -0.252897     1.223967    -0.951967
H     -2.493039    -0.872566     0.017156
C     -0.835886     1.464418    -0.141594
H     -0.765804     2.810432    -0.304066
H      0.015811     1.019810     0.729936
6
Family_3 [H][C]C([H])([H])[H] | RMSD: 0.4072 | 12036.00 to state    1 from traj    1 on state    2
C     -1.767404     0.164392     0.231199
H      0.015111     1.413357    -0.819037
H     -2.665442    -0.742976    -0.063747
C     -0.909736     1.412687    -0.180890
H     -0.822443     2.567557    -0.132114
H     -0.358995     0.724915     0.412143
6
Family_3 [H][C]C([H])([H])[H] | RMSD: 0.3900 | 11688.00 to state    1 from traj    1 on state    2
C     -1.801832     0.201540     0.134017
H     -0.394137     0.935556    -1.144402
H     -2.430607    -0.783392    -0.044835
C     -0.838173     1.382323    -0.047346
H     -1.256884     2.679465    -0.540019
H     -0.192640     1.050386     0.693232
6
Family_3 [H][C]C([H])([H])[H] | RMSD: 0.2617 | 5304.00 to state    1 from traj    1 on state    2
C     -1.743849     0.229794     0.127415
H     -0.532689     0.952442    -0.914713
H     -2.282560    -0.495364     0.040730
C     -0.936726     1.358703    -0.108908
H     -0.898848     2.351459    -0.148436
H     -0.076752     1.018272     0.798614
6
Family_3 [H][C]C([H])([H])[H] | RMSD: 0.3621 | 7972.00 to state    1 from traj    1 on state    2
C     -1.729763     0.231310     0.017265
H     -0.101231     0.835498    -1.024386
H     -2.190969    -0.310171     0.729988
C     -1.022390     1.359601    -0.003943
H     -0.726969     2.345420    -0.240234
H      0.081222     0.927297     0.372605
6
Family_3 [H][C]C([H])([H])[H] | RMSD: 0.4062 | 12848.00 to state    1 from traj    1 on state    2
C     -1.783613     0.167879     0.156194
H     -0.324731     1.543659    -1.040056
H     -2.718109    -0.518266     0.226963
C     -0.851887     1.337059    -0.147825
H     -0.989692     2.432159    -0.027447
H     -0.295411     1.364919     0.737535
6
Family_3 [H][C]C([H])([H])[H] | RMSD: 0.3911 | 4108.00 to state    1 from traj    1 on state    2
C     -1.769379     0.217813     0.163448
H     -0.429414     0.864809    -1.144445
H     -2.351358    -0.637569    -0.086103
C     -0.843506     1.399382    -0.114983
H     -1.409458     2.361223    -0.081231
H     -0.407189     0.896381     0.731005
6
Family_3 [H][C]C([H])([H])[H] | RMSD: 0.5091 | 7300.00 to state    1 from traj    1 on state    2
C     -1.684969     0.220590     0.201015
H     -0.233194     1.083994    -1.128870
H     -2.645299    -0.207713    -0.008547
C     -0.919332     1.335641    -0.202368
H     -1.277311     2.486256     0.432338
H     -0.543893     0.848734     0.717923
6
Family_3 [H][C]C([H])([H])[H] | RMSD: 0.3795 | 10224.00 to state    1 from traj    1 on state    2
C     -1.813543     0.150038     0.050804
H     -0.354048     0.979407    -0.900564
H     -2.383052    -0.680326     0.497493
C     -0.861804     1.478005    -0.009517
H     -1.149125     2.134081    -0.647943
H      0.033091     0.922427     0.555771
6
Family_3 [H][C]C([H])([H])[H] | RMSD: 0.4057 | 11340.00 to state    1 from traj    1 on state    2
C     -1.810003     0.259644     0.062835
H     -0.516635     1.336402    -1.219129
H     -2.081888    -0.631238     0.687841
C     -0.859179     1.269227    -0.098460
H     -0.952768     2.539846     0.074700
H     -0.375316     1.292279     0.877804
6
Family_3 [H][C]C([H])([H])[H] | RMSD: 0.2984 | 12776.00 to state    1 from traj    1 on state    2
C     -1.778788     0.213606     0.092924
H     -0.397953     1.282342    -0.993532
H     -2.376363    -0.530987     0.372680
C     -0.885273     1.337972    -0.069738
H     -1.036827     2.450876    -0.403253
H     -0.176480     1.064494     0.744547
6
Family_3 [H][C]C([H])([H])[H] | RMSD: 0.4566 | 2100.00 to state    1 from traj    1 on state    2
C     -1.660551     0.285436     0.201417
H     -0.190860     1.198726    -0.880628
H     -2.820372    -0.592578    -0.100750
C     -0.954722     1.303126    -0.187998
H     -1.273502     2.417951     0.158621
H     -0.284238     0.801931     0.659578
6
Family_3 [H][C]C([H])([H])[H] | RMSD: 0.4530 | 33128.00 to state    1 from traj    1 on state    2
C     -1.807199     0.278684     0.048044
H     -0.318159     1.239440    -1.228474
H     -2.234056    -0.933643     0.831456
C     -0.871879     1.306814    -0.100179
H     -1.198298     2.600873     0.030263
H     -0.058169     0.955876     0.984693
6
Family_3 [H][C]C([H])([H])[H] | RMSD: 0.4422 | 35964.00 to state    1 from traj    1 on state    2
C     -1.770926     0.276157     0.085820
H     -0.460561     1.173890    -1.053030
H     -2.222384    -0.511875     0.436737
C     -0.842165     1.289315    -0.084625
H     -1.517201     2.479510    -0.155135
H     -0.394816     0.959635     0.753902
6
Family_3 [H][C]C([H])([H])[H] | RMSD: 0.2495 | 9884.00 to state    1 from traj    1 on state    2
C     -1.782967     0.226681     0.083881
H     -0.376370     1.079356    -1.236285
H     -2.263060    -0.771560     0.492239
C     -0.886042     1.368289    -0.072353
H     -0.946519     2.485362    -0.180793
H     -0.342718     0.956519     0.784202
6
Family_3 [H][C]C([H])([H])[H] | RMSD: 0.4851 | 5236.00 to state    1 from traj    1 on state    2
C     -1.762981     0.294777     0.156375
H     -0.802640     0.771977    -0.887829
H     -1.999167    -0.621788    -0.401605
C     -0.868753     1.300164    -0.079394
H     -1.197779     2.425318    -0.307889
H     -0.373228     1.174514     0.676756
6
Family_3 [H][C]C([H])([H])[H] | RMSD: 0.3652 | 1892.00 to state    1 from traj    1 on state    2
C     -1.793437     0.161126     0.088134
H     -0.375444     1.305477    -1.037165
H     -2.529419    -0.477034     0.376284
C     -0.903361     1.336628    -0.056653
H     -0.662195     2.682361    -0.407676
H     -0.030480     1.397261     0.690159
6
Family_3 [H][C]C([H])([H])[H] | RMSD: 0.5137 | 3232.00 to state    1 from traj    1 on state    2
C     -1.815241     0.208111     0.103711
H     -0.287170     0.974422    -1.288314
H     -2.329309    -0.709300     0.572926
C     -0.806074     1.390669    -0.144096
H     -1.511184     2.374327     0.484039
H     -0.369297     1.064826     0.709281
6
Family_3 [H][C]C([H])([H])[H] | RMSD: 0.4703 | 7116.00 to state    1 from traj    1 on state    2
C     -1.688745     0.212699     0.203679
H     -0.245201     1.383644    -1.178642
H     -2.821548    -0.456997     0.020080
C     -0.908334     1.355175    -0.190896
H     -1.200207     2.469880    -0.001483
H     -0.518791     0.676017     1.004451
6
Family_3 [H][C]C([H])([H])[H] | RMSD: 0.4299 | 7344.00 to state    1 from traj    1 on state    2
C     -1.805979     0.175097     0.131043
H     -0.139343     0.826549    -1.215716
H     -2.548339    -0.677130     0.110805
C     -0.840849     1.421387    -0.074203
H     -1.490523     2.550721    -0.167231
H     -0.014767     1.031492     0.591563
6
Family_3 [H][C]C([H])([H])[H] | RMSD: 0.3640 | 10624.00 to state    1 from traj    1 on state    2
C     -1.808813     0.282563     0.069856
H     -0.099121     1.305338    -1.209178
H     -2.219339    -0.711448     0.578222
C     -0.898752     1.277505    -0.064671
H     -1.228038     2.376946    -0.131799
H      0.077262     1.194716     0.697699
6
Family_3 [H][C]C([H])([H])[H] | RMSD: 0.3919 | 12628.00 to state    1 from traj    1 on state    2
C     -1.779946     0.204550     0.182442
H     -0.198301     1.386132    -0.981418
H     -2.606238    -0.554627    -0.036503
C     -0.897693     1.317413    -0.151879
H     -1.069218     2.669975    -0.164969
H      0.047929     1.118127     0.815429
6
Family_3 [H][C]C([H])([H])[H] | RMSD: 0.4828 | 2004.00 to state    1 from traj    1 on state    2
C     -1.744235     0.322856     0.157572
H     -0.653859     0.661539    -0.939029
H     -2.069841    -0.725621    -0.443918
C     -0.904619     1.317652    -0.083786
H     -1.350804     2.214428    -0.249810
H     -0.094312     1.056719     0.750271
6
Family_3 [H][C]C([H])([H])[H] | RMSD: 0.4721 | 6324.00 to state    1 from traj    1 on state    2
C     -1.861973     0.211868     0.112991
H     -0.051051     1.140546    -1.037313
H     -1.795358    -0.720100     0.705920
C     -0.910624     1.395473    -0.183532
H     -0.806836     2.334664     0.577257
H     -0.041092     0.847154     0.591387
6
Family_3 [H][C]C([H])([H])[H] | RMSD: 0.3456 | 3856.00 to state    1 from traj    1 on state    2
C     -1.749702     0.272952     0.173071
H     -0.350186     0.975509    -1.021212
H     -2.302740    -0.610295    -0.276524
C     -0.954614     1.270182    -0.105668
H     -0.758994     2.591341    -0.027396
H     -0.096028     1.410786     0.518700
6
Family_3 [H][C]C([H])([H])[H] | RMSD: 0.3904 | 5140.00 to state    1 from traj    1 on state    2
C     -1.701616     0.262836     0.193752
H     -0.236574     1.267419    -1.014516
H     -2.543974    -0.430598    -0.171623
C     -0.923779     1.300689    -0.127787
H     -1.219094     2.464522    -0.267717
H     -0.448706     0.823020     0.664552
6
Family_3 [H][C]C([H])([H])[H] | RMSD: 0.3285 | 5332.00 to state    1 from traj    1 on state    2
C     -1.756646     0.233008     0.114690
H     -0.473242     1.040571    -1.030187
H     -2.377602    -0.817023     0.095461
C     -0.884868     1.405755    -0.050235
H     -1.134058     2.210474    -0.626576
H     -0.271392     0.793831     0.789994
6
Family_3 [H][C]C([H])([H])[H] | RMSD: 0.3773 | 2788.00 to state    1 from traj    1 on state    2
C     -1.729274     0.252627     0.177699
H     -0.411759     1.257358    -1.281462
H     -2.671973    -0.837736    -0.113625
C     -0.881987     1.308653    -0.111052
H     -0.998296     2.588859    -0.254682
H     -0.534744     1.142631     0.852352
6
Family_3 [H][C]C([H])([H])[H] | RMSD: 0.3166 | 9176.00 to state    1 from traj    1 on state    2
C     -1.806756     0.236526     0.149201
H     -0.436677     1.109961    -0.948992
H     -2.139967    -0.675041    -0.181602
C     -0.899287     1.340941    -0.072960
H     -0.948474     2.369903    -0.521250
H      0.037746     1.153403     0.740107
6
Family_3 [H][C]C([H])([H])[H] | RMSD: 0.4421 | 9420.00 to state    1 from traj    1 on state    2
C     -1.715628     0.193869     0.002288
H     -0.394716     0.763230    -0.963984
H     -2.668562    -0.506030     0.556155
C     -0.932951     1.412521     0.060039
H     -1.064444     2.209328    -0.700227
H     -0.044374     1.147070     0.362114
6
Family_3 [H][C]C([H])([H])[H] | RMSD: 0.2812 | 10204.00 to state    1 from traj    1 on state    2
C     -1.788849     0.187388     0.088101
H     -0.622218     0.777843    -1.039871
H     -2.135134    -0.869773     0.368900
C     -0.910660     1.445609    -0.091290
H     -0.518802     2.372016    -0.015394
H     -0.289070     1.016479     0.721084
6
Family_3 [H][C]C([H])([H])[H] | RMSD: 0.3605 | 3612.00 to state    1 from traj    1 on state    2
C     -1.798205     0.208121     0.125752
H     -0.246270     1.562869    -1.056341
H     -2.417822    -0.575758     0.459749
C     -0.907531     1.324386    -0.161771
H     -0.863373     2.351091     0.056403
H      0.036434     1.155757     0.966105
6
Family_3 [H][C]C([H])([H])[H] | RMSD: 0.4815 | 5124.00 to state    1 from traj    1 on state    2
C     -1.801800     0.246233     0.057663
H     -0.270983     1.247596    -0.966296
H     -1.954032    -0.592415     0.770554
C     -0.867274     1.349191    -0.053125
H     -1.193100     2.547425    -0.413598
H     -0.509762     0.541659     0.551982
6
Family_3 [H][C]C([H])([H])[H] | RMSD: 0.3980 | 7048.00 to state    1 from traj    1 on state    2
C     -1.816648     0.212101     0.126600
H     -0.344614     1.476938    -1.256986
H     -2.453688    -0.708084     0.231083
C     -0.812567     1.325967    -0.072842
H     -1.262248     2.463775    -0.484709
H     -0.342288     1.195076     0.866769
6
Family_3 [H][C]C([H])([H])[H] | RMSD: 0.4202 | 9156.00 to state    1 from traj    1 on state    2
C     -1.759275     0.307099     0.104075
H     -0.412089     1.286387    -0.995619
H     -2.364714    -0.654262     0.216883
C     -0.869976     1.245796    -0.070361
H     -1.447550     2.553479    -0.406639
H     -0.178053     1.065421     0.780375
6
Family_3 [H][C]C([H])([H])[H] | RMSD: 0.3683 | 20652.00 to state    1 from traj    1 on state    2
C     -1.794893     0.216684     0.067236
H     -0.547542     1.033603    -1.159258
H     -2.327561    -0.554732     0.454714
C     -0.867187     1.334481    -0.085045
H     -1.086370     2.372605     0.058861
H     -0.049746     1.420162     0.854612
6
Family_3 [H][C]C([H])([H])[H] | RMSD: 0.2792 | 21260.00 to state    1 from traj    1 on state    2
C     -1.832548     0.234205     0.085171
H     -0.338590     1.283450    -1.206085
H     -2.147511    -0.791935     0.498878
C     -0.871328     1.327049    -0.083851
H     -0.896387     2.342330    -0.069845
H     -0.130710     1.317576     0.758045
6
Family_3 [H][C]C([H])([H])[H] | RMSD: 0.3486 | 1396.00 to state    1 from traj    1 on state    2
C     -1.821101     0.118521     0.072602
H     -0.318704     0.930635    -0.822579
H     -2.395173    -0.731235     0.491727
C     -0.856141     1.510066    -0.035554
H     -0.988718     2.293069    -0.495768
H     -0.127963     0.856629     0.381887
6
Family_3 [H][C]C([H])([H])[H] | RMSD: 0.3096 | 3040.00 to state    1 from traj    1 on state    2
C     -1.841992     0.114495     0.187110
H     -0.170341     1.324375    -1.256075
H     -2.552895    -0.738698     0.147316
C     -0.820565     1.449115    -0.165465
H     -0.971244     2.376176     0.102310
H     -0.311060     1.161507     0.745255
6
Family_3 [H][C]C([H])([H])[H] | RMSD: 0.4388 | 8688.00 to state    1 from traj    1 on state    2
C     -1.888356     0.183471     0.085428
H     -0.100727     1.600865    -1.335650
H     -2.125459    -0.907773     0.834372
C     -0.840761     1.350212    -0.098672
H     -0.719339     2.660807    -0.122655
H     -0.266917     1.126060     0.778453
6
Family_3 [H][C]C([H])([H])[H] | RMSD: 0.5259 | 13316.00 to state    1 from traj    1 on state    2
C     -1.773039     0.326207     0.082309
H     -0.461603     1.208797    -1.124587
H     -1.726300    -0.556107     0.662186
C     -0.877424     1.286564    -0.128201
H     -1.220958     2.031014     0.327633
H     -0.740784     0.853859     0.678327
6
Family_3 [H][C]C([H])([H])[H] | RMSD: 0.4780 | 13504.00 to state    1 from traj    1 on state    2
C     -1.812739     0.279111     0.149859
H     -0.357805     0.705734    -1.209714
H     -2.012998    -0.747598    -0.486367
C     -0.909172     1.323988    -0.016973
H     -1.158122     2.362082    -0.561792
H      0.230625     1.332593     0.671169
6
Family_3 [H][C]C([H])([H])[H] | RMSD: 0.4052 | 3636.00 to state    1 from traj    1 on state    2
C     -1.843500     0.224732     0.153821
H     -0.524663     0.967020    -1.025125
H     -2.034400    -0.639580    -0.243767
C     -0.880721     1.325614    -0.102316
H     -0.920549     2.479965    -0.161579
H      0.208832     1.473998     0.813468
6
Family_3 [H][C]C([H])([H])[H] | RMSD: 0.5031 | 5808.00 to state    1 from traj    1 on state    2
C     -1.752032     0.218242     0.054282
H     -0.310281     0.874401    -1.022946
H     -2.667322    -0.565243     0.551875
C     -0.887627     1.360642    -0.072638
H     -1.484012     2.608484    -0.067077
H      0.183237     1.023707     0.753596
6
Family_3 [H][C]C([H])([H])[H] | RMSD: 0.5468 | 6276.00 to state    1 from traj    1 on state    2
C     -1.747579     0.198742    -0.041456
H     -0.393922     0.606058    -0.728299
H     -2.421836    -0.421514     0.861767
C     -0.964094     1.384317     0.035531
H     -0.926290     2.486123    -0.321653
H      0.321751     1.220941     0.255508
6
Family_3 [H][C]C([H])([H])[H] | RMSD: 0.4325 | 3664.00 to state    1 from traj    1 on state    2
C     -1.807380     0.262122     0.079760
H     -0.225069     0.852511    -1.343156
H     -2.001566    -0.728303     0.598317
C     -0.879291     1.361654    -0.110284
H     -1.278580     2.323018     0.387434
H     -0.212991     0.959210     0.717838
6
Family_3 [H][C]C([H])([H])[H] | RMSD: 0.3980 | 4536.00 to state    1 from traj    1 on state    2
C     -1.755635     0.195671     0.149430
H     -0.253920     1.353701    -1.198160
H     -2.644756    -0.383280     0.216333
C     -0.864587     1.336530    -0.133879
H     -1.245236     2.312664     0.049771
H     -0.366083     1.214520     0.743466
6
Family_3 [H][C]C([H])([H])[H] | RMSD: 0.7404 | 884.00 to state    1 from traj    1 on state    2
C     -1.653841     0.099020     0.006559
H     -1.280469     0.773810    -0.806258
H     -2.592725     0.372127     0.306489
C     -0.941233     1.418487     0.018138
H     -0.530375     2.132107    -0.722462
H     -0.406076     1.394648     0.924660
6
Family_3 [H][C]C([H])([H])[H] | RMSD: 0.2983 | 3528.00 to state    1 from traj    1 on state    2
C     -1.815660     0.205791     0.096613
H     -0.137724     1.182341    -1.299600
H     -2.307852    -0.680906     0.537519
C     -0.887106     1.355906    -0.100235
H     -0.973263     2.444822     0.107494
H     -0.107587     1.199881     0.694467
6
Family_3 [H][C]C([H])([H])[H] | RMSD: 0.4156 | 5768.00 to state    1 from traj    1 on state    2
C     -1.837196     0.177062     0.143391
H     -0.558242     1.046908    -1.081176
H     -2.305724    -0.639610    -0.054005
C     -0.776378     1.396673    -0.081005
H     -1.426339     2.379588    -0.355801
H     -0.298906     1.215826     0.744336
6
Family_3 [H][C]C([H])([H])[H] | RMSD: 0.5150 | 6420.00 to state    1 from traj    1 on state    2
C     -1.813994     0.235396     0.144860
H     -0.552943     0.640008    -0.730572
H     -2.150682    -1.002955    -0.422353
C     -0.891598     1.394055    -0.026397
H     -0.910416     2.467934    -0.638244
H      0.121288     1.233819     0.376327
6
Family_3 [H][C]C([H])([H])[H] | RMSD: 0.4822 | 7140.00 to state    1 from traj    1 on state    2
C     -1.836934     0.211312     0.083099
H      0.015390     1.127359    -0.817500
H     -1.756599    -0.426952     0.734510
C     -0.931916     1.368993    -0.100434
H     -0.841505     2.501745     0.074814
H     -0.156268     0.722262     0.211448
6
Family_3 [H][C]C([H])([H])[H] | RMSD: 0.3565 | 13216.00 to state    1 from traj    1 on state    2
C     -1.832947     0.227002     0.076442
H     -0.150721     1.254656    -1.053389
H     -2.018685    -0.548262     0.671141
C     -0.889791     1.328470    -0.092712
H     -1.040360     2.523156    -0.029728
H     -0.078686     0.990772     0.602554
6
Family_3 [H][C]C([H])([H])[H] | RMSD: 0.4684 | 3244.00 to state    1 from traj    1 on state    2
C     -1.768712     0.202560     0.057704
H     -0.227432     0.873034    -0.883200
H     -2.496266    -0.411537     0.560597
C     -0.910132     1.368596    -0.078757
H     -1.291861     2.375059     0.121139
H      0.204084     1.196881     0.449035
6
Family_3 [H][C]C([H])([H])[H] | RMSD: 0.4470 | 6108.00 to state    1 from traj    1 on state    2
C     -1.819702     0.250045     0.147821
H     -0.378914     0.866448    -0.866366
H     -1.956561    -0.585518    -0.369053
C     -0.928969     1.316744    -0.038159
H     -0.822621     2.311725    -0.426243
H      0.178657     1.492819     0.351683
6
Family_3 [H][C]C([H])([H])[H] | RMSD: 0.3834 | 6268.00 to state    1 from traj    1 on state    2
C     -1.906575     0.094916     0.112132
H     -0.322772     1.238072    -0.847134
H     -2.362903    -0.817483     0.468951
C     -0.802820     1.459396    -0.130144
H     -0.912200     2.497622    -0.011546
H      0.150439     1.315927     0.601077
6
Family_3 [H][C]C([H])([H])[H] | RMSD: 0.3833 | 7180.00 to state    1 from traj    1 on state    2
C     -1.806608     0.233523     0.088490
H     -0.137319     1.205281    -0.956410
H     -2.044026    -0.550116     0.659248
C     -0.895830     1.344278    -0.105368
H     -1.088054     2.522933     0.005456
H     -0.260927     0.776159     0.489537
6
Family_3 [H][C]C([H])([H])[H] | RMSD: 0.3266 | 3468.00 to state    1 from traj    1 on state    2
C     -1.874616     0.095237     0.124195
H     -0.398266     1.020799    -1.003515
H     -2.068885    -0.921389     0.432365
C     -0.859678     1.516430    -0.121616
H     -0.410454     2.662383    -0.155869
H     -0.273141     0.788927     0.693006
6
Family_3 [H][C]C([H])([H])[H] | RMSD: 0.3703 | 1396.00 to state    1 from traj    1 on state    2
C     -1.822591     0.220810     0.154162
H     -0.003217     1.149399    -1.118652
H     -2.292420    -0.677588    -0.159589
C     -0.909406     1.334631    -0.029612
H     -0.945339     2.314973    -0.490753
H      0.062854     1.433907     0.281606
6
Family_3 [H][C]C([H])([H])[H] | RMSD: 0.3743 | 3520.00 to state    1 from traj    1 on state    2
C     -1.815008     0.217667     0.119144
H     -0.373652     1.152590    -0.907157
H     -2.399997    -0.834768     0.030351
C     -0.904108     1.330230    -0.060377
H     -0.719003     2.378121    -0.310755
H      0.161061     1.614634     0.484026
6
Family_3 [H][C]C([H])([H])[H] | RMSD: 0.4508 | 2680.00 to state    1 from traj    1 on state    2
C     -1.647689     0.249269     0.226727
H     -0.141736     1.338469    -0.989005
H     -2.741595    -0.284778    -0.179210
C     -0.974732     1.311546    -0.187784
H     -1.042204     2.397052     0.035892
H     -0.558255     0.705914     0.665009
6
Family_3 [H][C]C([H])([H])[H] | RMSD: 0.4312 | 2704.00 to state    2 from traj    2 on state    1
C     -1.654228     0.245683     0.212235
H     -0.090363     1.335098    -0.957578
H     -2.745723    -0.245015    -0.123283
C     -0.981921     1.305737    -0.171398
H     -1.031217     2.378225     0.016686
H     -0.452908     0.800291     0.574292
6
Family_3 [H][C]C([H])([H])[H] | RMSD: 0.3773 | 6740.00 to state    1 from traj    4 on state    2
C     -1.761859     0.274857     0.150031
H     -0.468787     0.789920    -0.911015
H     -2.054351    -0.558927    -0.272491
C     -0.910776     1.337998    -0.066940
H     -1.183024     2.276524    -0.330000
H     -0.179292     1.029042     0.520142
6
Family_3 [H][C]C([H])([H])[H] | RMSD: 0.4276 | 8104.00 to state    1 from traj    4 on state    2
C     -1.791911     0.261992     0.049052
H     -0.254235     1.124402    -0.950198
H     -2.047692    -0.422940     0.719719
C     -0.907547     1.278469    -0.068576
H     -1.132207     2.706986    -0.053887
H     -0.131710     0.990735     0.513723
6
Family_3 [H][C]C([H])([H])[H] | RMSD: 0.2971 | 9284.00 to state    1 from traj    4 on state    2
C     -1.788987     0.253702     0.107409
H     -0.374014     1.405270    -0.932915
H     -2.011960    -0.627867     0.439450
C     -0.937062     1.296279    -0.108022
H     -0.574637     2.554449    -0.220948
H     -0.288380     0.953893     0.718439
6
Family_3 [H][C]C([H])([H])[H] | RMSD: 0.3859 | 4548.00 to state    1 from traj    1 on state    2
C     -1.732770     0.218295     0.171442
H     -0.315091     1.499466    -0.989725
H     -2.694286    -0.531949     0.082726
C     -0.905555     1.312455    -0.148863
H     -1.007552     2.591579    -0.256673
H     -0.277353     0.955807     0.891345
6
Family_3 [H][C]C([H])([H])[H] | RMSD: 0.3090 | 6140.00 to state    1 from traj    1 on state    2
C     -1.771610     0.234991     0.123816
H     -0.642012     0.852387    -0.954329
H     -2.242182    -0.847030    -0.019017
C     -0.904038     1.389407    -0.089996
H     -0.901656     2.429627    -0.327503
H     -0.063701     0.964044     0.894582
6
Family_3 [H][C]C([H])([H])[H] | RMSD: 0.4752 | 6920.00 to state    1 from traj    1 on state    2
C     -1.771735     0.179565     0.080709
H     -0.304892     1.101549    -1.205087
H     -2.825512    -0.690731     0.535091
C     -0.884123     1.381565    -0.116932
H     -1.117673     2.291603     0.247783
H      0.162714     1.450487     0.850559
6
Family_3 [H][C]C([H])([H])[H] | RMSD: 0.4693 | 17072.00 to state    1 from traj    1 on state    2
C     -1.797375     0.346421     0.049615
H     -0.187374     1.145918    -1.350834
H     -1.860576    -0.866446     0.850147
C     -0.927027     1.249990    -0.107295
H     -1.022517     2.358456     0.438608
H     -0.198147     1.094577     0.746098
6
Family_3 [H][C]C([H])([H])[H] | RMSD: 0.4467 | 5308.00 to state    1 from traj    1 on state    2
C     -1.807294     0.250511     0.129994
H     -0.116362     1.143088    -1.331977
H     -2.398974    -0.724820     0.255469
C     -0.837295     1.336354    -0.110014
H     -1.572904     2.195423     0.149455
H     -0.131395     1.232567     0.685700
6
Family_3 [H][C]C([H])([H])[H] | RMSD: 0.3473 | 7380.00 to state    1 from traj    1 on state    2
C     -1.742862     0.226194     0.177299
H     -0.363246     1.236801    -1.171794
H     -2.558473    -0.581594     0.021814
C     -0.879455     1.332686    -0.157794
H     -1.089219     2.361210     0.151497
H     -0.474090     1.163291     0.762785
6
Family_3 [H][C]C([H])([H])[H] | RMSD: 0.3577 | 8484.00 to state    1 from traj    1 on state    2
C     -1.781991     0.170112     0.172740
H     -0.124369     1.447320    -0.895004
H     -2.569128    -0.435251     0.183711
C     -0.895732     1.359175    -0.162457
H     -0.947253     2.364415     0.065976
H     -0.184073     1.155852     0.519508
6
Family_3 [H][C]C([H])([H])[H] | RMSD: 0.4234 | 12500.00 to state    1 from traj    1 on state    2
C     -1.661453     0.245433     0.151645
H     -0.632704     0.768927    -1.151055
H     -2.558572    -0.464883    -0.043622
C     -0.922612     1.363053    -0.129603
H     -1.064317     2.346844     0.150159
H     -0.685233     0.937738     0.778583
6
Family_3 [H][C]C([H])([H])[H] | RMSD: 0.3866 | 19828.00 to state    1 from traj    1 on state    2
C     -1.802942     0.230453     0.162496
H     -0.650633     0.940793    -0.858478
H     -2.227255    -0.907478    -0.200336
C     -0.888859     1.343572    -0.125828
H     -0.675080     2.566374    -0.038868
H     -0.104116     1.399565     0.657466
6
Family_3 [H][C]C([H])([H])[H] | RMSD: 0.7186 | 1200.00 to state    1 from traj    1 on state    2
C     -1.882174     0.272066     0.126450
H     -0.836467     1.470684    -1.222692
H     -1.175870    -0.663998     0.492945
C     -0.795028     1.292100    -0.163341
H     -0.660373     2.328335     0.204001
H     -1.158328     0.981702     0.962043
6
Family_3 [H][C]C([H])([H])[H] | RMSD: 0.3367 | 1412.00 to state    1 from traj    1 on state    2
C     -1.831843     0.144407     0.074956
H     -0.601517     1.053544    -1.074566
H     -2.258216    -0.712727     0.469034
C     -0.869855     1.399843    -0.073287
H     -0.502177     2.661469    -0.172462
H     -0.177238     1.351752     0.754826
6
Family_3 [H][C]C([H])([H])[H] | RMSD: 0.4246 | 4788.00 to state    1 from traj    1 on state    2
C     -1.848066     0.218156     0.142406
H     -0.411347     1.060563    -0.916706
H     -1.909754    -0.858341    -0.248484
C     -0.911654     1.370400    -0.015072
H     -0.544034     2.426793    -0.870155
H      0.017360     1.197093     0.514801
6
Family_3 [H][C]C([H])([H])[H] | RMSD: 0.4828 | 8728.00 to state    1 from traj    1 on state    2
C     -1.715665     0.262023     0.173081
H     -0.609555     0.860393    -1.117452
H     -2.349240    -0.402283    -0.167144
C     -0.886242     1.335782    -0.168996
H     -1.404768     2.285797     0.251650
H     -0.364662     0.971993     0.980985
6
Family_3 [H][C]C([H])([H])[H] | RMSD: 0.3944 | 12324.00 to state    1 from traj    1 on state    2
C     -1.876945     0.144173     0.159763
H     -0.261060     1.370141    -1.324507
H     -2.520033    -0.951818     0.113022
C     -0.799215     1.380904    -0.105865
H     -0.920307     2.729573    -0.250744
H     -0.142052     1.434595     0.816711
6
Family_3 [H][C]C([H])([H])[H] | RMSD: 0.2856 | 16864.00 to state    1 from traj    1 on state    2
C     -1.770115     0.237931     0.126013
H     -0.445766     1.340231    -0.999976
H     -2.361712    -0.634887     0.155370
C     -0.881399     1.327096    -0.083691
H     -1.030442     2.327904    -0.432556
H     -0.299199     1.073221     0.769584
6
Family_3 [H][C]C([H])([H])[H] | RMSD: 0.4737 | 20700.00 to state    1 from traj    1 on state    2
C     -1.720242     0.225554     0.162240
H     -0.284660     0.964352    -0.791548
H     -2.625752    -0.429962    -0.064352
C     -0.983450     1.313153    -0.160710
H     -0.765695     2.417831     0.389045
H      0.160709     1.467868     0.445344
6
Family_3 [H][C]C([H])([H])[H] | RMSD: 0.4729 | 27300.00 to state    1 from traj    1 on state    2
C     -1.704211     0.224833    -0.027402
H     -0.681791     0.727554    -1.241126
H     -2.483904    -0.213376     0.669121
C     -0.945593     1.326223     0.031712
H     -0.960987     2.235258    -0.262512
H     -0.030824     1.523507     0.779876
6
Family_3 [H][C]C([H])([H])[H] | RMSD: 0.5313 | 3052.00 to state    1 from traj    1 on state    2
C     -1.824786     0.261425     0.135184
H     -0.134039     1.228900    -1.184683
H     -1.571448    -0.724903     0.636075
C     -0.955401     1.353895    -0.202518
H     -0.449868     2.227960     0.684314
H     -0.448546     0.775237     0.663337
6
Family_3 [H][C]C([H])([H])[H] | RMSD: 0.3119 | 4576.00 to state    1 from traj    1 on state    2
C     -1.781993     0.214268     0.123360
H     -0.658338     0.940857    -1.231838
H     -2.318984    -0.708215     0.020659
C     -0.875855     1.365957    -0.094674
H     -0.908849     2.398899    -0.135728
H     -0.175480     1.293820     1.001811
6
Family_3 [H][C]C([H])([H])[H] | RMSD: 0.3783 | 5556.00 to state    1 from traj    1 on state    2
C     -1.781164     0.223602     0.124278
H     -0.237430     1.041557    -0.919287
H     -2.291937    -0.541952    -0.027206
C     -0.896786     1.367452    -0.023576
H     -1.218827     2.329357    -0.700743
H     -0.073930     0.967372     0.444020
6
Family_3 [H][C]C([H])([H])[H] | RMSD: 0.3145 | 3048.00 to state    2 from traj    3 on state    1
C     -1.746375     0.298676     0.148836
H     -0.181613     1.175811    -1.108092
H     -2.436389    -0.686148     0.017146
C     -0.953565     1.251360    -0.118993
H     -1.026600     2.537714     0.012458
H      0.084501     1.257717     0.719604
6
Family_3 [H][C]C([H])([H])[H] | RMSD: 0.4181 | 10264.00 to state    1 from traj    4 on state    2
C     -1.812455     0.174250     0.038610
H     -0.410461     0.921852    -0.906762
H     -2.500913    -0.714391     0.591264
C     -0.854740     1.390751    -0.030444
H     -1.100257     2.564863    -0.236683
H      0.061352     1.334451     0.451602
6
Family_3 [H][C]C([H])([H])[H] | RMSD: 0.3995 | 1440.00 to state    1 from traj    1 on state    2
C     -1.779126     0.227743     0.080844
H     -0.461930     0.855801    -0.808209
H     -2.105115    -0.725059     0.593928
C     -0.922150     1.382486    -0.137444
H     -0.790976     2.541132     0.329619
H     -0.186156     0.895988     0.555807
6
Family_3 [H][C]C([H])([H])[H] | RMSD: 0.3922 | 2220.00 to state    1 from traj    1 on state    2
C     -1.752928     0.223653     0.149613
H     -0.276505     1.156736    -0.963434
H     -2.729644    -0.776823     0.086019
C     -0.881196     1.331006    -0.109860
H     -1.135773     2.710688    -0.156791
H     -0.202424     1.139407     0.557247
6
Family_3 [H][C]C([H])([H])[H] | RMSD: 0.4187 | 5688.00 to state    1 from traj    1 on state    2
C     -1.801428     0.253440     0.165834
H     -0.592952     0.753784    -1.096565
H     -2.175372    -0.829818    -0.386606
C     -0.873675     1.342302    -0.094665
H     -1.055743     2.408847    -0.111216
H     -0.031985     1.407660     0.743077
6
Family_3 [H][C]C([H])([H])[H] | RMSD: 0.4061 | 6660.00 to state    1 from traj    1 on state    2
C     -1.841586     0.235447     0.076451
H     -0.335202     1.226528    -1.040860
H     -1.741490    -0.700566     0.757291
C     -0.882347     1.356644    -0.114984
H     -0.819542     2.499250     0.040525
H     -0.377971     0.758777     0.698908
6
Family_3 [H][C]C([H])([H])[H] | RMSD: 0.3990 | 6904.00 to state    1 from traj    1 on state    2
C     -1.881986     0.152241     0.106524
H     -0.290865     1.434101    -0.830406
H     -2.356089    -0.849250     0.547869
C     -0.808875     1.394667    -0.123530
H     -0.981929     2.406496    -0.034906
H     -0.039398     1.331019     0.516803
6
Family_3 [H][C]C([H])([H])[H] | RMSD: 0.4039 | 3788.00 to state    1 from traj    1 on state    2
C     -1.750310     0.238222     0.008744
H     -0.262022     0.798024    -1.057195
H     -2.320103    -0.367572     0.665480
C     -0.948462     1.320111     0.009898
H     -1.045504     2.472574    -0.196093
H      0.053608     1.283203     0.362390
6
Family_3 [H][C]C([H])([H])[H] | RMSD: 0.3053 | 3976.00 to state    2 from traj    3 on state    1
C     -1.777395     0.281759     0.097530
H     -0.354122     1.276471    -0.955810
H     -2.256957    -0.786097     0.436725
C     -0.908777     1.270655    -0.101408
H     -0.865706     2.501096     0.024647
H     -0.247370     1.265292     0.537358
6
Family_3 [H][C]C([H])([H])[H] | RMSD: 0.3861 | 7552.00 to state    1 from traj    1 on state    2
C     -1.721470     0.311016     0.056577
H     -0.427963     0.976164    -0.999465
H     -2.242687    -0.526632     0.585708
C     -0.935999     1.254473    -0.085272
H     -1.143176     2.629677     0.115180
H     -0.252351     1.021752     0.637217
6
Family_3 [H][C]C([H])([H])[H] | RMSD: 0.4634 | 13664.00 to state    1 from traj    7 on state    2
C     -1.879382     0.174066     0.071279
H     -0.375209     1.288388    -0.941391
H     -1.873071    -0.757526     0.816868
C     -0.793645     1.444449    -0.099470
H     -1.166851     2.263945    -0.178924
H     -0.465661     0.674313     0.636073
6
Family_3 [H][C]C([H])([H])[H] | RMSD: 0.3896 | 2444.00 to state    1 from traj    1 on state    2
C     -1.791549     0.174243     0.033860
H     -0.574663     0.926750    -0.979228
H     -2.397958    -0.519818     0.489715
C     -0.902757     1.396445    -0.035463
H     -0.943295     2.388478    -0.388916
H      0.288688     1.243604     0.894250
6
Family_3 [H][C]C([H])([H])[H] | RMSD: 0.4299 | 3196.00 to state    1 from traj    1 on state    2
C     -1.858154     0.224023     0.104580
H     -0.423975     1.392480    -0.995994
H     -1.565233    -0.685672     0.613284
C     -0.903217     1.357491    -0.139786
H     -0.432107     2.369959     0.009379
H     -0.406788     0.833247     0.789542
6
Family_3 [H][C]C([H])([H])[H] | RMSD: 0.4037 | 6644.00 to state    1 from traj    1 on state    2
C     -1.822398     0.131017     0.044665
H     -0.557013     0.966502    -1.170990
H     -2.498287    -0.536823     0.452057
C     -0.811462     1.432377    -0.005491
H     -1.207780     2.333563    -0.503440
H     -0.084407     1.362689     0.752305
6
Family_3 [H][C]C([H])([H])[H] | RMSD: 0.3732 | 7896.00 to state    1 from traj    1 on state    2
C     -1.754250     0.176432     0.046798
H     -0.458223     0.831336    -0.892004
H     -2.492153    -0.419900     0.412667
C     -0.918770     1.413218    -0.024453
H     -1.073319     2.337236    -0.436834
H      0.142828     1.064403     0.646633
6
Family_3 [H][C]C([H])([H])[H] | RMSD: 0.4314 | 4056.00 to state    1 from traj    1 on state    2
C     -1.785851     0.153144     0.010375
H     -0.652537     0.835237    -1.070143
H     -2.481508    -0.479877     0.546501
C     -0.877549     1.385827     0.019200
H     -0.851788     2.618108    -0.513108
H     -0.009662     1.443466     0.681064
6
Family_3 [H][C]C([H])([H])[H] | RMSD: 0.4318 | 4848.00 to state    1 from traj    1 on state    2
C     -1.839088     0.248378     0.087033
H     -0.313290     1.338508    -1.289099
H     -1.623641    -0.565913     0.710381
C     -0.912108     1.308296    -0.121714
H     -0.565501     2.461326     0.163733
H     -0.446919     0.972079     0.824950
6
Family_3 [H][C]C([H])([H])[H] | RMSD: 0.3854 | 5608.00 to state    1 from traj    1 on state    2
C     -1.775702     0.183488     0.145841
H     -0.157732     0.960467    -1.095892
H     -2.518051    -0.534393     0.081386
C     -0.861370     1.417743    -0.089736
H     -1.438724     2.368415    -0.210037
H     -0.194707     0.880582     0.552732
6
Family_3 [H][C]C([H])([H])[H] | RMSD: 0.2884 | 3456.00 to state    1 from traj    1 on state    2
C     -1.785336     0.241601     0.153593
H     -0.473640     0.823249    -1.171293
H     -2.172658    -0.916807    -0.093628
C     -0.908939     1.361124    -0.102046
H     -0.671669     2.483453     0.036001
H     -0.309628     1.267378     0.611417
6
Family_3 [H][C]C([H])([H])[H] | RMSD: 0.3981 | 5068.00 to state    1 from traj    1 on state    2
C     -1.854154     0.162681     0.169416
H     -0.353523     0.923175    -0.834056
H     -2.252188    -0.768739    -0.219671
C     -0.834162     1.418738    -0.084404
H     -1.092424     2.602960    -0.400415
H     -0.000471     1.153746     0.437889
6
Family_3 [H][C]C([H])([H])[H] | RMSD: 0.4860 | 12656.00 to state    1 from traj    1 on state    2
C     -1.836033     0.097029     0.180650
H      0.079089     1.124629    -1.283783
H     -2.624753    -0.559571     0.311488
C     -0.856375     1.442982    -0.194633
H     -0.979055     2.598872     0.603381
H     -0.125129     1.240626     0.532249
6
Family_3 [H][C]C([H])([H])[H] | RMSD: 0.3822 | 13168.00 to state    1 from traj    4 on state    2
C     -1.790112     0.228857     0.100677
H     -0.224931     1.265489    -1.135394
H     -2.543500    -0.705926     0.208109
C     -0.867932     1.331269    -0.028232
H     -1.276627     2.391196    -0.607650
H     -0.014250     1.214102     0.668426
6
Family_3 [H][C]C([H])([H])[H] | RMSD: 0.3993 | 15604.00 to state    1 from traj    4 on state    2
C     -1.781823     0.245655     0.062992
H     -0.148619     1.054975    -1.170809
H     -2.315109    -0.417398     0.539724
C     -0.921671     1.282003    -0.059349
H     -1.093807     2.474965     0.114001
H      0.039778     1.439201     0.470399
6
Family_3 [H][C]C([H])([H])[H] | RMSD: 0.4218 | 16152.00 to state    1 from traj    1 on state    2
C     -1.767253     0.336684     0.105889
H     -0.525655     1.090744    -0.975999
H     -2.115189    -0.694388    -0.149371
C     -0.924298     1.247747    -0.029882
H     -1.197476     2.122264    -0.578357
H      0.178257     1.356639     0.794768
6
Family_3 [H][C]C([H])([H])[H] | RMSD: 0.4718 | 7716.00 to state    1 from traj    1 on state    2
C     -1.684907     0.244051     0.191901
H     -0.308939     1.493776    -1.191429
H     -2.729630    -0.187754    -0.019064
C     -0.932649     1.253030    -0.182284
H     -1.061917     2.412398     0.164066
H     -0.441270     1.197662     0.928560
6
Family_3 [H][C]C([H])([H])[H] | RMSD: 0.4060 | 7904.00 to state    1 from traj    1 on state    2
C     -1.779510     0.229436     0.088960
H     -0.178273     0.886486    -0.946285
H     -2.210205    -0.680197     0.439953
C     -0.978316     1.358127    -0.101114
H     -0.550392     2.222224     0.387845
H      0.068522     1.409421     0.260027
6
Family_3 [H][C]C([H])([H])[H] | RMSD: 0.4859 | 8960.00 to state    2 from traj    3 on state    1
C     -1.803681     0.285976     0.168503
H     -0.420286     0.836108    -0.861977
H     -2.108850    -0.790336    -0.380217
C     -0.933693     1.274906    -0.107777
H     -0.835208     2.500536     0.052709
H      0.250288     1.609550     0.462606
6
Family_3 [H][C]C([H])([H])[H] | RMSD: 0.3853 | 9204.00 to state    1 from traj    1 on state    2
C     -1.769321     0.272432     0.135869
H     -0.218103     1.247968    -0.928328
H     -2.374405    -0.523826     0.153512
C     -0.943385     1.242020    -0.134391
H     -0.970156     2.614444     0.130538
H      0.154679     1.370516     0.623386
6
Family_3 [H][C]C([H])([H])[H] | RMSD: 0.4745 | 10256.00 to state    1 from traj    1 on state    2
C     -1.841008     0.295537     0.150453
H     -0.441740     1.783813    -0.888019
H     -2.170544    -0.822839     0.104612
C     -0.845940     1.196009    -0.127198
H     -0.954068     2.430208    -0.233414
H     -0.148548     1.590857     0.736445
6
Family_3 [H][C]C([H])([H])[H] | RMSD: 0.4194 | 10480.00 to state    1 from traj    4 on state    2
C     -1.819720     0.140109     0.188492
H     -0.046959     1.190496    -1.027449
H     -2.537911    -0.541520     0.134552
C     -0.880743     1.427300    -0.208383
H     -1.120404     2.352077     0.400529
H      0.151405     1.077034     0.726094
6
Family_3 [H][C]C([H])([H])[H] | RMSD: 0.3665 | 11468.00 to state    1 from traj    1 on state    2
C     -1.857792     0.184234     0.108463
H     -0.295590     1.287571    -1.142562
H     -2.358594    -0.751822     0.323586
C     -0.827865     1.332236    -0.073236
H     -0.955915     2.561968    -0.138026
H     -0.120188     1.587336     0.533966
6
Family_3 [H][C]C([H])([H])[H] | RMSD: 0.4650 | 11692.00 to state    1 from traj    4 on state    2
C     -1.771933     0.277280     0.089933
H     -0.587242     1.502693    -1.210120
H     -2.429715    -0.743072     0.338042
C     -0.826775     1.278639    -0.059482
H     -1.337510     2.275963    -0.541991
H     -0.411870     1.179408     1.047948
6
Family_4 [H][C][H].[H][C][H] | RMSD: 0.0000 | 2312.00 to state    1 from traj    1 on state    2
C     -1.659702    -0.163629    -0.027786
H     -2.535583    -0.311528     1.027532
H     -2.167575     0.461894    -0.721506
C     -0.771465     1.645842     0.037095
H     -1.447680     2.565861     0.364147
H     -0.611877     2.377033    -0.784377
6
Family_4 [H][C][H].[H][C][H] | RMSD: 0.6398 | 620.00 to state    1 from traj    1 on state    2
C     -1.647263    -0.157160    -0.014659
H     -2.376639     0.521629     0.497589
H     -2.108752    -0.012037    -0.973303
C     -0.781164     1.667577     0.057273
H     -1.137321     2.309649     1.014510
H     -1.172637     1.937935    -1.049843
6
Family_4 [H][C][H].[H][C][H] | RMSD: 12.7642 | 36704.00 to state    1 from traj    1 on state    2
C     -7.650335   -11.904152    -0.035075
H     -7.505935   -11.568423     0.948503
H     -7.408379   -11.098915    -0.568394
C      5.054426    13.454286    -0.015250
H      4.178185    12.986760     0.315633
H      5.936430    13.964501    -0.099369
6
Family_4 [H][C][H].[H][C][H] | RMSD: 14.4123 | 40320.00 to state    1 from traj    1 on state    2
C     -8.199892   -13.039735     0.000801
H     -8.595636   -13.589215     0.719835
H     -7.979039   -12.299589    -0.789230
C      5.635371    14.552152     0.034596
H      5.339209    15.413793     0.537563
H      6.061764    15.208364    -0.893224
6
Family_4 [H][C][H].[H][C][H] | RMSD: 15.5488 | 43940.00 to state    1 from traj    1 on state    2
C     -8.724657   -14.311226    -0.024339
H     -9.431682   -13.762845     0.623298
H     -9.160214   -13.705635    -1.085070
C      6.225544    15.851360     0.051286
H      6.214330    16.019609     1.095300
H      6.424482    15.851947    -0.957901
6
Family_4 [H][C][H].[H][C][H] | RMSD: 16.3519 | 46144.00 to state    1 from traj    1 on state    2
C     -9.115279   -15.001844    -0.014480
H    -10.236365   -15.395299     0.345098
H     -8.973813   -13.916310    -0.000987
C      6.628306    16.601377    -0.011232
H      6.222188    16.665965     0.928874
H      6.890249    16.340953    -0.969893
6
Family_4 [H][C][H].[H][C][H] | RMSD: 17.7377 | 49756.00 to state    1 from traj    1 on state    2
C     -9.767425   -16.166119    -0.003234
H    -10.250866   -16.726363     0.798555
H     -9.941548   -15.162587    -0.493854
C      7.253164    17.760268    -0.005057
H      6.346079    17.405149     0.270870
H      8.073753    18.243263    -0.480061
6
Family_4 [H][C][H].[H][C][H] | RMSD: 21.8964 | 61460.00 to state    1 from traj    1 on state    2
C    -11.747796   -20.113676    -0.078229
H    -11.144451   -19.687052     0.664861
H    -12.163050   -19.289247    -0.534656
C      9.166493    21.677301     0.054722
H      8.181215    21.793246     0.174685
H     10.152547    21.306223    -0.028073
6
Family_4 [H][C][H].[H][C][H] | RMSD: 22.8646 | 63668.00 to state    1 from traj    1 on state    2
C    -12.142476   -20.768497    -0.065951
H    -12.473404   -21.105819     0.878160
H    -11.381323   -20.179282     0.038467
C      9.551026    22.369489    -0.004563
H      8.700065    22.034314     0.431430
H     10.301832    22.928711    -0.511118
6
Family_4 [H][C][H].[H][C][H] | RMSD: 24.3118 | 67292.00 to state    1 from traj    1 on state    2
C    -12.690655   -21.969206    -0.070585
H    -13.133933   -22.606017     0.646893
H    -12.140373   -21.295187    -0.552051
C     10.109402    23.554418     0.115037
H     10.396084    24.522794     0.391951
H      9.903892    23.244362    -1.019747
6
Family_4 [H][C][H].[H][C][H] | RMSD: 27.7896 | 76796.00 to state    1 from traj    1 on state    2
C    -14.334813   -25.093415    -0.039657
H    -14.254704   -25.627684     0.865873
H    -14.238855   -24.441820    -0.793635
C     11.801301    26.663236     0.110244
H     10.898632    26.488366    -0.296482
H     12.051730    27.630482    -0.620128
6
Family_4 [H][C][H].[H][C][H] | RMSD: 28.4981 | 79004.00 to state    1 from traj    1 on state    2
C    -14.622233   -25.911988    -0.028768
H    -15.493657   -25.623039     0.714179
H    -14.187745   -25.116804    -0.355712
C     12.082647    27.460445    -0.016611
H     11.917725    26.572038     0.450425
H     12.292848    28.471704    -0.271442
6
Family_4 [H][C][H].[H][C][H] | RMSD: 0.7651 | 2492.00 to state    1 from traj    1 on state    2
C     -1.877504    -0.612336     0.045277
H     -2.637034     0.133780     0.313433
H     -1.625336     0.247216    -0.752878
C     -0.643857     2.112722    -0.019679
H     -0.756505     1.782386     1.188048
H     -0.669117     2.713318    -1.056905
6
Family_4 [H][C][H].[H][C][H] | RMSD: 29.9484 | 82620.00 to state    1 from traj    1 on state    2
C    -15.290527   -27.027254    -0.011389
H    -15.656427   -27.375178     0.905226
H    -14.792307   -26.563388    -0.749401
C     12.771213    28.593231    -0.047525
H     11.685791    28.495314     0.415685
H     13.050564    29.538401     0.127205
6
Family_4 [H][C][H].[H][C][H] | RMSD: 1.0769 | 3932.00 to state    1 from traj    1 on state    2
C     -2.171043    -0.970716     0.012908
H     -2.200363    -1.149298     1.086541
H     -2.381803    -0.655029    -1.019535
C     -0.385711     2.577947    -0.082747
H     -1.285460     2.559528     0.512125
H      0.601374     2.848370     0.249769
6
Family_4 [H][C][H].[H][C][H] | RMSD: 3.5819 | 11196.00 to state    1 from traj    1 on state    2
C     -3.404469    -3.370460     0.044914
H     -3.837703    -4.160001     0.583905
H     -3.049021    -2.480624    -0.275003
C      0.903261     4.913696    -0.054375
H     -0.233856     5.148333     0.103763
H      1.192455     5.858407    -0.303210
6
Family_4 [H][C][H].[H][C][H] | RMSD: 5.6320 | 17028.00 to state    1 from traj    1 on state    2
C     -4.355224    -5.318141    -0.024221
H     -4.944786    -4.971415     0.713188
H     -3.800253    -5.468133    -0.937786
C      1.874319     6.895491     0.020177
H      1.315386     7.215487     1.113405
H      1.259603     7.183700    -0.843903
6
Family_4 [H][C][H].[H][C][H] | RMSD: 6.3541 | 19232.00 to state    1 from traj    1 on state    2
C     -4.701950    -6.111834    -0.084454
H     -5.337385    -6.044051     0.804553
H     -4.008535    -5.272357     0.307444
C      2.140218     7.674088     0.006193
H      1.500031     7.836057     0.755873
H      2.638956     7.619857    -0.938618
6
Family_4 [H][C][H].[H][C][H] | RMSD: 8.7105 | 25056.00 to state    1 from traj    1 on state    2
C     -5.646840    -7.987019    -0.017780
H     -6.227987    -8.700583     0.470535
H     -5.262207    -7.144724    -0.421626
C      3.081293     9.553098     0.061083
H      3.275554    10.619102     0.516636
H      3.053157     9.320146    -1.084807
6
Family_4 [H][C][H].[H][C][H] | RMSD: 10.8310 | 30888.00 to state    1 from traj    1 on state    2
C     -6.687970    -9.898253    -0.019601
H     -6.347849   -10.043191     0.901406
H     -7.050590    -9.489673    -0.968068
C      4.173901    11.427893     0.073853
H      3.158055    11.581091    -0.469888
H      4.465509    12.479897    -0.113182
6
Family_4 [H][C][H].[H][C][H] | RMSD: 12.0133 | 34500.00 to state    1 from traj    1 on state    2
C     -7.220240   -11.161882    -0.041292
H     -8.015102   -11.212422     0.563935
H     -6.834069   -10.189077     0.200775
C      4.694624    12.723003    -0.010548
H      3.998849    12.595820     0.732923
H      5.213039    12.958695    -0.883203
6
Family_4 [H][C][H].[H][C][H] | RMSD: 0.6070 | 3280.00 to state    1 from traj    1 on state    2
C     -1.679324    -0.129635    -0.005174
H     -1.958678     0.316684     0.873722
H     -2.337305     0.317655    -0.804127
C     -0.777868     1.622871    -0.005272
H     -1.872538     1.718204     0.263129
H     -0.284087     2.609361    -0.211536
6
Family_4 [H][C][H].[H][C][H] | RMSD: 0.5230 | 3388.00 to state    1 from traj    1 on state    2
C     -1.679387    -0.134777    -0.003670
H     -2.085594     0.200155     0.892848
H     -2.298739     0.321161    -0.829291
C     -0.769783     1.633244     0.000033
H     -1.750865     1.767715     0.242443
H     -0.412997     2.610542    -0.265939
6
Family_4 [H][C][H].[H][C][H] | RMSD: 0.3754 | 680.00 to state    1 from traj    1 on state    2
C     -1.702223    -0.175496    -0.028846
H     -2.304029    -0.035006     0.794921
H     -2.011404     0.398121    -0.856903
C     -0.716859     1.706093     0.075891
H     -1.555539     2.244392     0.532750
H     -1.035733     1.909205    -1.034622
6
Family_4 [H][C][H].[H][C][H] | RMSD: 0.3533 | 3120.00 to state    1 from traj    1 on state    2
C     -1.734035    -0.193705    -0.038405
H     -1.990239    -0.427557     1.050123
H     -2.170887     0.580931    -0.912344
C     -0.724332     1.719856     0.084557
H     -1.763947     2.509234     0.220414
H     -0.513535     1.907099    -0.911414
6
Family_4 [H][C][H].[H][C][H] | RMSD: 0.5406 | 4024.00 to state    1 from traj    1 on state    2
C     -1.695081    -0.237926    -0.000736
H     -2.472665     0.061471     0.619120
H     -2.279982    -0.232680    -1.132023
C     -0.753523     1.754930     0.050304
H     -0.896229     2.587635     0.919889
H     -0.906061     2.262263    -1.000908
6
Family_4 [H][C][H].[H][C][H] | RMSD: 0.2611 | 712.00 to state    1 from traj    1 on state    2
C     -1.644517    -0.182349    -0.017008
H     -2.444380     0.092520     0.724720
H     -2.334992     0.329665    -0.754156
C     -0.785697     1.656579     0.048378
H     -1.294961     2.414113     0.543106
H     -0.699727     2.352071    -0.890748
6
Family_4 [H][C][H].[H][C][H] | RMSD: 0.7774 | 2368.00 to state    1 from traj    1 on state    2
C     -1.720768    -0.286296    -0.050224
H     -1.968048    -0.216022     0.944613
H     -2.417414     0.369139    -0.684175
C     -0.795143     1.884559    -0.025809
H     -1.424096     2.597092     0.655854
H      0.056630     0.960226    -0.013588
6
Family_4 [H][C][H].[H][C][H] | RMSD: 0.8304 | 3092.00 to state    1 from traj    1 on state    2
C     -1.898001    -0.474314     0.009673
H     -2.561312    -0.106626     0.647454
H     -1.548330    -0.707156    -1.157923
C     -0.608815     2.062588     0.006510
H     -0.620696     2.176559     1.099600
H     -1.130963     2.466687    -0.785233
6
Family_4 [H][C][H].[H][C][H] | RMSD: 0.4086 | 752.00 to state    1 from traj    1 on state    2
C     -1.714637    -0.077606     0.019498
H     -2.273038    -0.669145     0.731266
H     -1.943345     0.491897    -0.972855
C     -0.700304     1.656479     0.041058
H     -1.732598     2.198578     0.363168
H     -1.007083     1.920155    -0.846420
6
Family_4 [H][C][H].[H][C][H] | RMSD: 0.7017 | 1612.00 to state    1 from traj    1 on state    2
C     -1.643425    -0.155454    -0.058692
H     -2.139686    -0.576411     0.798746
H     -2.767326    -0.084202    -0.412199
C     -0.887555     1.732784     0.039741
H     -0.793246     3.002815     0.242256
H      0.126898     1.617665    -0.406268
6
Family_4 [H][C][H].[H][C][H] | RMSD: 0.6981 | 6076.00 to state    1 from traj    1 on state    2
C     -1.979228    -0.605962    -0.084079
H     -1.738657    -0.463599     1.018213
H     -2.561373    -0.532547    -1.045400
C     -0.509129     2.168969     0.154716
H     -1.353042     2.985220     0.107962
H     -0.428178     2.141465    -0.925741
6
Family_4 [H][C][H].[H][C][H] | RMSD: 6.9003 | 22016.00 to state    1 from traj    1 on state    2
C     -4.916664    -6.546135     0.008725
H     -5.414237    -6.495246     0.901132
H     -4.991861    -5.792536    -0.796348
C      2.375774     8.131942    -0.017171
H      1.877848     7.381417     0.527996
H      3.072964     8.765224    -0.535423
6
Family_4 [H][C][H].[H][C][H] | RMSD: 7.2513 | 22844.00 to state    1 from traj    1 on state    2
C     -5.061692    -6.854312     0.027805
H     -6.004063    -7.094064     0.243042
H     -4.637472    -5.870814    -0.059913
C      2.547159     8.428845    -0.035166
H      2.107264     8.229903     0.921786
H      2.764923     8.728174    -1.020478
6
Family_4 [H][C][H].[H][C][H] | RMSD: 16.0295 | 44208.00 to state    1 from traj    1 on state    2
C     -9.097923   -14.739860    -0.072909
H     -9.301280   -15.080161     0.795114
H     -8.442274   -13.892579     0.161439
C      6.507340    16.344504     0.006495
H      5.573990    16.307261     0.476359
H      7.306410    16.299881    -0.644823
6
Family_4 [H][C][H].[H][C][H] | RMSD: 18.1299 | 48624.00 to state    1 from traj    1 on state    2
C     -9.870298   -16.344718     0.036346
H    -10.459851   -17.152875     0.232202
H     -9.465264   -15.446874    -0.164170
C      7.319557    17.863960    -0.036354
H      6.687487    18.655899     0.720854
H      7.899728    18.595865    -0.792073
6
Family_4 [H][C][H].[H][C][H] | RMSD: 18.4565 | 49492.00 to state    1 from traj    1 on state    2
C    -10.026157   -16.668496     0.047247
H    -10.562536   -17.371186     0.528282
H     -9.622932   -15.900075    -0.510900
C      7.412093    18.240982    -0.105865
H      7.070815    18.521892     0.985215
H      8.531292    18.766945    -0.307408
6
Family_4 [H][C][H].[H][C][H] | RMSD: 0.5738 | 728.00 to state    1 from traj    1 on state    2
C     -1.610835    -0.166565    -0.007009
H     -2.399466     0.151775     0.796182
H     -2.157958     0.638632    -0.474707
C     -0.908091     1.682550    -0.054602
H     -1.308593     1.905104     0.921565
H      0.149019     1.995316    -0.512177
6
Family_4 [H][C][H].[H][C][H] | RMSD: 0.5491 | 1044.00 to state    1 from traj    1 on state    2
C     -1.650606    -0.195178     0.000620
H     -2.185934    -0.286930     0.885557
H     -2.160206     0.786672    -0.580628
C     -0.895094     1.708198    -0.063942
H     -1.287453     2.380261     0.605264
H      0.235622     1.846168    -0.158952
6
Family_4 [H][C][H].[H][C][H] | RMSD: 0.5769 | 1200.00 to state    1 from traj    1 on state    2
C     -1.670838    -0.149743    -0.023492
H     -2.053682    -0.556141     0.985869
H     -2.135628     0.656303    -0.540022
C     -0.875677     1.703661    -0.031078
H     -1.430463     2.557766     0.483031
H      0.231519     1.580910    -0.281927
6
Family_4 [H][C][H].[H][C][H] | RMSD: 0.4515 | 640.00 to state    1 from traj    1 on state    2
C     -1.640388    -0.145305     0.021189
H     -2.605696     0.212799     0.603084
H     -2.094126     0.380126    -0.908884
C     -0.764601     1.638542     0.009825
H     -1.387999     1.954510     0.796026
H     -0.986814     2.414447    -0.863057
6
Family_4 [H][C][H].[H][C][H] | RMSD: 0.4738 | 1404.00 to state    1 from traj    1 on state    2
C     -1.641867    -0.176927    -0.057533
H     -2.438052    -0.327799     0.866337
H     -2.661257    -0.077809    -0.531109
C     -0.829594     1.732132     0.053261
H     -1.071734     2.747802     0.585853
H     -0.111533     1.881311    -0.873459
6
Family_4 [H][C][H].[H][C][H] | RMSD: 0.2904 | 602.00 to state    1 from traj    1 on state    2
C     -1.669841    -0.202238     0.007181
H     -2.490644    -0.007300     0.791828
H     -2.324113     0.399846    -0.915733
C     -0.747710     1.693027     0.018040
H     -1.530986     2.135580     0.649170
H     -0.579210     2.462939    -0.829071
6
Family_4 [H][C][H].[H][C][H] | RMSD: 0.6539 | 1180.00 to state    1 from traj    1 on state    2
C     -1.942621    -0.368618    -0.003533
H     -1.730839    -1.053316     0.783383
H     -1.691801     0.114803    -0.905418
C     -0.605345     2.015592     0.053060
H     -1.641627     2.346843     0.462122
H     -0.306698     1.721689    -0.933516
6
Family_4 [H][C][H].[H][C][H] | RMSD: 0.6595 | 932.00 to state    1 from traj    1 on state    2
C     -1.679937    -0.238857     0.042426
H     -2.716603    -0.034316     0.393234
H     -1.637615     0.428362    -0.812561
C     -0.823806     1.769368    -0.018477
H     -0.587421     1.992111     1.072801
H     -0.956281     2.131597    -0.942131
6
Family_4 [H][C][H].[H][C][H] | RMSD: 0.4332 | 1244.00 to state    1 from traj    1 on state    2
C     -1.748739    -0.256804    -0.022432
H     -2.509945    -0.151977     0.918290
H     -2.036156     0.020604    -0.995504
C     -0.681472     1.839993     0.037791
H     -1.426095     2.061954     0.855340
H     -0.801897     1.959468    -0.964422
6
Family_4 [H][C][H].[H][C][H] | RMSD: 0.5720 | 2096.00 to state    1 from traj    1 on state    2
C     -1.679929    -0.218105     0.021638
H     -2.548445     0.000316     0.342901
H     -2.310503    -0.271518    -0.836212
C     -0.780048     1.734192     0.021566
H     -0.707741     2.467811     0.790977
H     -0.852734     2.493004    -0.815748
6
Family_4 [H][C][H].[H][C][H] | RMSD: 0.7778 | 3868.00 to state    1 from traj    1 on state    2
C     -1.948525    -0.512801    -0.004518
H     -1.822472    -0.854193     0.926933
H     -2.309016    -0.410444    -0.965835
C     -0.625354     2.135742    -0.022249
H     -1.357383     2.551015     0.582728
H      0.426673     2.130000    -0.228160
6
Family_4 [H][C][H].[H][C][H] | RMSD: 0.3840 | 1728.00 to state    1 from traj    1 on state    2
C     -1.725516    -0.218620    -0.030015
H     -1.904776    -0.012812     0.900490
H     -2.423909     0.256380    -0.847780
C     -0.731586     1.690885     0.059369
H     -1.811173     2.535609     0.268340
H     -0.313828     2.432606    -0.674095
6
Family_4 [H][C][H].[H][C][H] | RMSD: 0.4528 | 592.00 to state    1 from traj    1 on state    2
C     -1.672197    -0.201125     0.003749
H     -2.439856     0.251376     0.637433
H     -2.155422     0.176560    -1.057196
C     -0.748530     1.700117     0.027457
H     -1.231748     2.311464     0.798707
H     -1.060073     2.153926    -0.754070
6
Family_4 [H][C][H].[H][C][H] | RMSD: 29.8726 | 68332.00 to state    1 from traj    1 on state    2
C    -15.170411   -26.847746     0.059721
H    -15.589159   -27.811819     0.128547
H    -14.885821   -25.888171    -0.210479
C     12.628420    28.388130    -0.093782
H     11.826540    28.861115     0.287671
H     13.206280    29.238981     0.196842
6
Family_4 [H][C][H].[H][C][H] | RMSD: 31.2654 | 71956.00 to state    1 from traj    1 on state    2
C    -15.941390   -28.429925    -0.087125
H    -16.176325   -28.322464     0.969615
H    -15.466575   -27.418499     0.046672
C     13.365576    29.974024     0.007210
H     12.516529    29.295091    -0.111543
H     14.087226    30.801713     0.044214
6
Family_4 [H][C][H].[H][C][H] | RMSD: 33.1865 | 75604.00 to state    1 from traj    1 on state    2
C    -16.700462   -29.842296     0.037840
H    -17.147975   -30.829330     0.142889
H    -16.345724   -28.889896    -0.269129
C     14.207959    31.387742    -0.006918
H     13.057393    31.710381     0.295948
H     14.404458    32.348631    -0.541447
6
Family_4 [H][C][H].[H][C][H] | RMSD: 0.6901 | 976.00 to state    1 from traj    1 on state    2
C     -1.699004    -0.209133     0.012098
H     -2.332688     0.429344     0.321700
H     -1.883273    -0.168444    -0.943491
C     -0.774361     1.716425     0.036015
H     -0.803941     2.257989     0.920551
H     -1.239996     2.275533    -0.875345
6
Family_4 [H][C][H].[H][C][H] | RMSD: 0.5798 | 1312.00 to state    1 from traj    1 on state    2
C     -1.882131    -0.379787    -0.029485
H     -2.084450    -0.960465     0.968871
H     -2.036689    -0.289725    -1.000792
C     -0.647900     2.000068     0.061999
H     -1.138944     2.794360     0.527737
H     -0.324588     1.903917    -0.886519
6
Family_4 [H][C][H].[H][C][H] | RMSD: 0.3440 | 1680.00 to state    1 from traj    1 on state    2
C     -1.671937    -0.211235    -0.029806
H     -2.388948     0.267771     0.855940
H     -2.345700     0.092432    -0.864598
C     -0.750624     1.694229     0.038766
H     -1.460364     2.361751     0.652640
H     -0.670243     2.361995    -0.754034
6
Family_4 [H][C][H].[H][C][H] | RMSD: 0.7049 | 1256.00 to state    1 from traj    1 on state    2
C     -1.663897    -0.154978     0.039745
H     -2.682918     0.424675     0.432189
H     -1.745745     0.067161    -1.010647
C     -0.747558     1.661200    -0.032282
H     -1.150289     1.964617     1.065910
H     -1.418632     2.350712    -0.579666
6
Family_4 [H][C][H].[H][C][H] | RMSD: 0.7768 | 1516.00 to state    1 from traj    1 on state    2
C     -1.701256    -0.215137    -0.033521
H     -1.784596     0.125042     0.879759
H     -2.532002     0.065791    -0.668057
C     -0.808148     1.745721    -0.055744
H     -1.549902     2.556761     0.319351
H      0.036036     1.769287     0.529318
6
Family_4 [H][C][H].[H][C][H] | RMSD: 0.3982 | 624.00 to state    1 from traj    1 on state    2
C     -1.663453    -0.208402    -0.024392
H     -2.435753     0.289688     0.816718
H     -2.461013     0.053303    -0.923497
C     -0.745855     1.708713     0.037927
H     -1.441057     2.246717     0.709825
H     -0.685349     2.287890    -0.767615
6
Family_4 [H][C][H].[H][C][H] | RMSD: 0.3925 | 637.38 to state    1 from traj    1 on state    2
C     -1.667326    -0.220333    -0.024090
H     -2.423153     0.304383     0.802650
H     -2.447068     0.079327    -0.902900
C     -0.745534     1.714197     0.037145
H     -1.435968     2.264599     0.703802
H     -0.674652     2.306107    -0.762391
6
Family_4 [H][C][H].[H][C][H] | RMSD: 0.5991 | 1072.00 to state    1 from traj    1 on state    2
C     -1.837241    -0.493505    -0.029220
H     -2.001931     0.150502     1.015830
H     -1.776698     0.319288    -0.911051
C     -0.751090     2.005857    -0.010256
H     -1.173576     2.208628     0.986484
H      0.062216     2.055704    -0.624163
6
Family_4 [H][C][H].[H][C][H] | RMSD: 0.5255 | 592.00 to state    1 from traj    1 on state    2
C     -1.661290    -0.182748    -0.006367
H     -2.461666     0.421927     0.584468
H     -2.153188     0.055339    -0.964026
C     -0.750144     1.677279     0.040946
H     -1.194459     2.226789     0.764740
H     -1.188533     2.242414    -0.800497
6
Family_4 [H][C][H].[H][C][H] | RMSD: 0.6662 | 1856.00 to state    1 from traj    1 on state    2
C     -1.829484    -0.410042    -0.079807
H     -1.752080    -0.430449     1.091312
H     -2.235891     0.385457    -0.678954
C     -0.706579     1.985665     0.056544
H     -1.358924     2.760113     0.127081
H     -0.165905     1.265091    -0.265537
6
Family_4 [H][C][H].[H][C][H] | RMSD: 0.5133 | 3992.00 to state    1 from traj    1 on state    2
C     -1.722173    -0.211118    -0.044371
H     -1.884607    -0.076467     0.996685
H     -2.489000     0.015006    -0.800098
C     -0.781773     1.762968     0.027883
H     -1.560929     2.312408     0.413274
H      0.039036     2.012526    -0.416675
6
Family_4 [H][C][H].[H][C][H] | RMSD: 0.5175 | 4324.00 to state    1 from traj    1 on state    2
C     -1.676433    -0.215080    -0.033544
H     -2.228795    -0.335139     0.830651
H     -2.685244    -0.143862    -0.583191
C     -0.828255     1.725536     0.022989
H     -1.062709     2.850652     0.368379
H      0.090096     2.385065    -0.493345
6
Family_4 [H][C][H].[H][C][H] | RMSD: 0.6478 | 5208.00 to state    1 from traj    1 on state    2
C     -1.633639    -0.161521    -0.078787
H     -1.940884    -0.143390     0.938407
H     -2.460771     0.206154    -0.441448
C     -0.924378     1.687649     0.039785
H     -0.970939     3.011749     0.391158
H      0.121382     1.495465    -0.426667
6
Family_4 [H][C][H].[H][C][H] | RMSD: 0.3565 | 6020.00 to state    1 from traj    1 on state    2
C     -1.627319    -0.153012    -0.027618
H     -2.371009    -0.099957     0.855066
H     -2.286740     0.469819    -0.823978
C     -0.839075     1.674303     0.039912
H     -1.225481     2.515074     0.732283
H     -0.459729     1.742675    -0.913142
6
Family_4 [H][C][H].[H][C][H] | RMSD: 0.7595 | 2852.00 to state    1 from traj    1 on state    2
C     -1.774201    -0.079713    -0.015229
H     -2.456613    -0.311056     0.843280
H     -0.919773    -0.039238    -0.654063
C     -0.706335     1.710427    -0.002892
H     -1.476549     1.748401     0.812965
H     -1.321513     1.925653    -0.789540
6
Family_4 [H][C][H].[H][C][H] | RMSD: 0.8846 | 2340.00 to state    1 from traj    1 on state    2
C     -1.925457    -0.747400    -0.104940
H     -1.900442     0.087913     0.772979
H     -2.820848    -0.149806    -0.269550
C     -0.575788     2.290527     0.031800
H     -1.330147     2.972351     0.359026
H      0.123753     1.456966     0.005774
6
Family_4 [H][C][H].[H][C][H] | RMSD: 1.1710 | 3728.00 to state    1 from traj    1 on state    2
C     -2.263187    -1.145136     0.026254
H     -2.619807    -1.926325     0.590332
H     -1.958880    -0.271703    -0.357352
C     -0.319186     2.822255    -0.053985
H     -0.928089     2.579221     0.758074
H      0.545781     2.389623    -0.663899
6
Family_4 [H][C][H].[H][C][H] | RMSD: 0.4957 | 488.00 to state    1 from traj    1 on state    2
C     -1.611404    -0.162446    -0.019665
H     -2.641666     0.359046     0.803405
H     -2.252577     0.169603    -1.015695
C     -0.808273     1.665807     0.036039
H     -1.030656     2.238839     0.882106
H     -0.974717     2.073768    -0.868203
6
Family_4 [H][C][H].[H][C][H] | RMSD: 0.9838 | 2000.00 to state    1 from traj    1 on state    2
C     -2.074145    -0.784859    -0.045614
H     -2.808853    -0.630111     0.911124
H     -1.554316    -1.090780    -0.915066
C     -0.413802     2.360005     0.062750
H     -0.687240     2.915591     0.983248
H     -1.035721     2.791197    -1.186784
6
Family_4 [H][C][H].[H][C][H] | RMSD: 1.3365 | 2840.00 to state    1 from traj    1 on state    2
C     -2.257797    -1.210220    -0.018780
H     -3.011847    -1.003251     0.848327
H     -1.505519    -1.216787    -0.810796
C     -0.293036     2.739181    -0.011500
H     -0.084089     3.429878     0.875945
H     -0.735352     3.326382    -0.555959
6
Family_4 [H][C][H].[H][C][H] | RMSD: 1.7877 | 3660.00 to state    1 from traj    1 on state    2
C     -2.453073    -1.559151     0.012240
H     -2.458564    -2.048607     1.062248
H     -2.446485    -1.211535    -1.032885
C     -0.157715     3.087020    -0.073337
H     -0.626231     4.330813     0.612129
H      0.908884     3.478554     0.083238
6
Family_4 [H][C][H].[H][C][H] | RMSD: 0.5945 | 580.00 to state    1 from traj    1 on state    2
C     -1.684329    -0.105869    -0.038805
H     -2.519203     0.141471     0.858978
H     -2.043382    -0.346650    -1.038908
C     -0.694369     1.681627     0.048950
H     -1.492386     2.342926     0.859832
H     -1.332942     1.840857    -0.804075
6
Family_4 [H][C][H].[H][C][H] | RMSD: 0.6056 | 1544.00 to state    1 from traj    1 on state    2
C     -1.662393    -0.153276    -0.063322
H     -2.158801     0.366593     0.811947
H     -2.313220    -0.309968    -0.955621
C     -0.803613     1.703757     0.083437
H     -1.109962     2.524693     0.857128
H     -0.765588     1.698471    -0.956412
6
Family_4 [H][C][H].[H][C][H] | RMSD: 0.5664 | 2756.00 to state    1 from traj    1 on state    2
C     -1.847445    -0.276393     0.006077
H     -2.393971    -0.388379     0.919322
H     -1.611180    -0.363768    -1.193203
C     -0.604235     1.861151     0.016721
H     -1.420257     2.141403     0.711740
H     -1.092864     2.482100    -0.712797
6
Family_4 [H][C][H].[H][C][H] | RMSD: 0.5778 | 568.00 to state    1 from traj    1 on state    2
C     -1.636789    -0.147389    -0.012023
H     -2.441208     0.492255     0.595472
H     -2.092411     0.145486    -0.954998
C     -0.788752     1.657798     0.045237
H     -1.159921     2.095502     0.888823
H     -1.136214     2.024030    -0.928345
6
Family_4 [H][C][H].[H][C][H] | RMSD: 32.1027 | 81472.00 to state    1 from traj    1 on state    2
C    -16.291653   -29.120955    -0.091661
H    -16.697206   -28.984032     1.018634
H    -15.415597   -28.596660    -0.474242
C     13.684644    30.702163     0.017479
H     13.141230    30.616222     1.097894
H     14.304135    30.878122    -0.761640
6
Family_4 [H][C][H].[H][C][H] | RMSD: 0.8084 | 2644.00 to state    1 from traj    1 on state    2
C     -2.133399    -0.932377    -0.042150
H     -1.730794    -0.706020     0.865803
H     -2.008838     0.137947    -0.508728
C     -0.468724     2.489445     0.019605
H     -1.458702     2.594337     0.417212
H      0.472675     2.175045    -0.508925
6
Family_4 [H][C][H].[H][C][H] | RMSD: 4.7587 | 12516.00 to state    1 from traj    1 on state    2
C     -3.902351    -4.353614     0.051881
H     -4.490379    -5.120370     0.701795
H     -3.191501    -3.788896    -0.441478
C      1.361115     5.899948    -0.112152
H      0.477587     6.388961     0.625913
H      1.753130     6.849515    -0.171347
6
Family_4 [H][C][H].[H][C][H] | RMSD: 13.1729 | 34520.00 to state    1 from traj    1 on state    2
C     -7.824150   -12.371235    -0.059361
H     -7.814211   -11.787494     0.828979
H     -7.789807   -11.403966    -0.769923
C      5.270176    13.904129     0.048968
H      4.457596    14.037247     0.843683
H      5.847043    13.643565    -0.782177
6
Family_4 [H][C][H].[H][C][H] | RMSD: 16.4655 | 42108.00 to state    1 from traj    1 on state    2
C     -9.216119   -14.960863     0.036592
H     -9.572527   -15.936313     0.231855
H     -9.052298   -13.899122    -0.322070
C      6.722115    16.536400     0.024875
H      5.665016    16.821614     0.263571
H      6.945844    16.995052    -0.909067
6
Family_4 [H][C][H].[H][C][H] | RMSD: 17.2267 | 44372.00 to state    1 from traj    1 on state    2
C     -9.533916   -15.874553    -0.113436
H     -9.781508   -15.203049     0.800142
H     -9.872032   -15.441973    -1.010801
C      7.028788    17.433348     0.115610
H      7.263871    18.388082     0.426234
H      6.508262    16.437662    -0.244758
6
Family_4 [H][C][H].[H][C][H] | RMSD: 19.5909 | 49688.00 to state    1 from traj    1 on state    2
C    -10.535334   -17.680648    -0.119371
H    -10.560877   -17.583203     0.989521
H    -10.712773   -17.907993    -1.167040
C      7.991499    19.259106     0.173059
H      8.056236    20.433167     0.430106
H      7.797223    19.004460    -0.895605
6
Family_4 [H][C][H].[H][C][H] | RMSD: 25.9543 | 66332.00 to state    1 from traj    1 on state    2
C    -13.536766   -23.742758    -0.111011
H    -13.729276   -23.614932     0.964773
H    -13.428698   -22.564187    -0.156556
C     10.987898    25.292288     0.047290
H      9.970609    25.486627     0.492486
H     11.827137    24.983615    -0.544703
6
Family_4 [H][C][H].[H][C][H] | RMSD: 28.0254 | 71648.00 to state    1 from traj    1 on state    2
C    -14.486344   -25.682760    -0.097683
H    -14.040841   -24.850745     0.513077
H    -14.877656   -24.807005    -0.903442
C     11.927589    27.208120     0.119557
H     11.362768    27.891196     0.667636
H     12.313320    26.345677    -0.541197
6
Family_4 [H][C][H].[H][C][H] | RMSD: 0.8659 | 1476.00 to state    1 from traj    1 on state    2
C     -1.957680    -0.572485    -0.025470
H     -1.353645    -0.997162     0.602240
H     -2.541312     0.216654    -0.582058
C     -0.638328     2.090634     0.101549
H     -1.227096     3.186573    -0.280167
H      0.323546     2.258990    -0.649824
6
Family_4 [H][C][H].[H][C][H] | RMSD: 1.2664 | 2452.00 to state    1 from traj    1 on state    2
C     -2.229210    -1.100325    -0.010232
H     -1.998910    -1.555154     0.979511
H     -2.437917    -0.575789    -0.801611
C     -0.367899     2.600867     0.007019
H     -1.041532     3.773337     0.145386
H      0.692957     3.232453    -0.288290
6
Family_4 [H][C][H].[H][C][H] | RMSD: 2.0040 | 3856.00 to state    1 from traj    1 on state    2
C     -2.649328    -1.892451     0.038463
H     -2.883528    -2.300219     1.067320
H     -2.332425    -1.452037    -0.964849
C      0.071255     3.459550    -0.114271
H     -0.852790     3.712793     0.834558
H      1.056519     4.121240    -0.037006
6
Family_4 [H][C][H].[H][C][H] | RMSD: 15.4334 | 28920.00 to state    1 from traj    1 on state    2
C     -8.739958   -14.061135    -0.087009
H     -8.742420   -14.495456     0.956334
H     -8.563735   -13.520319    -0.995883
C      6.190349    15.639617     0.152203
H      6.240925    16.763494    -0.129066
H      5.713842    15.198430    -0.611499
6
Family_4 [H][C][H].[H][C][H] | RMSD: 19.2349 | 36028.00 to state    1 from traj    1 on state    2
C    -10.434541   -17.638317    -0.016929
H    -11.549454   -17.639289     0.405492
H    -10.257911   -16.547463     0.203444
C      7.928376    19.212019    -0.030753
H      7.474246    18.491212     0.717510
H      8.464070    19.698640    -0.761565
6
Family_4 [H][C][H].[H][C][H] | RMSD: 19.7094 | 36916.00 to state    1 from traj    1 on state    2
C    -10.723158   -18.076489    -0.067982
H    -10.970628   -18.069701     1.035394
H    -10.525580   -16.970334    -0.035603
C      8.163869    19.618730    -0.016520
H      7.173089    19.206665    -0.022736
H      9.087074    20.211346     0.026566
6
Family_4 [H][C][H].[H][C][H] | RMSD: 20.1186 | 37804.00 to state    1 from traj    1 on state    2
C    -10.943972   -18.434952    -0.050534
H    -11.561222   -18.810818     0.837618
H    -10.583491   -17.953474    -0.835910
C      8.478039    20.139266     0.016409
H      7.746285    20.027811     0.785980
H      8.049984    19.183255    -0.384352
6
Family_4 [H][C][H].[H][C][H] | RMSD: 24.5300 | 45772.00 to state    1 from traj    1 on state    2
C    -12.922532   -22.497786    -0.055152
H    -12.271388   -21.770361     0.526043
H    -13.395129   -21.574832    -0.834370
C     10.350278    23.997317     0.073678
H      9.319190    24.263294     0.443593
H     11.265766    23.968803    -0.359292
6
Family_4 [H][C][H].[H][C][H] | RMSD: 0.2720 | 600.00 to state    1 from traj    1 on state    2
C     -1.651933    -0.170252    -0.014046
H     -2.464142    -0.093568     0.857698
H     -2.354998     0.413884    -0.763884
C     -0.776466     1.686318     0.019997
H     -1.567272     2.217026     0.665904
H     -0.409277     2.152533    -0.833912
6
Family_4 [H][C][H].[H][C][H] | RMSD: 2.8310 | 5720.00 to state    1 from traj    1 on state    2
C     -2.960816    -2.579175     0.005706
H     -2.966020    -3.098469     0.993735
H     -3.176891    -2.182356    -0.942420
C      0.358981     4.136777    -0.035752
H     -0.134119     4.981347     0.517822
H      1.547945     4.494411    -0.214403
6
Family_4 [H][C][H].[H][C][H] | RMSD: 7.1774 | 13712.00 to state    1 from traj    1 on state    2
C     -4.934989    -6.560804     0.002798
H     -5.146213    -6.970396     0.983054
H     -4.799999    -5.952462    -0.859289
C      2.303839     8.094826    -0.048312
H      2.170054     8.898439     0.659097
H      3.396381     8.500338    -0.243814
6
Family_4 [H][C][H].[H][C][H] | RMSD: 7.5660 | 14608.00 to state    1 from traj    1 on state    2
C     -5.216069    -6.952622    -0.009120
H     -5.831099    -6.877596     0.804495
H     -4.485060    -7.221123    -0.842542
C      2.727407     8.530438    -0.017864
H      1.994079     8.700934     0.921814
H      2.244460     9.351858    -0.565512
6
Family_4 [H][C][H].[H][C][H] | RMSD: 7.8896 | 15488.00 to state    1 from traj    1 on state    2
C     -5.304423    -7.506126    -0.025534
H     -6.331064    -7.522895     0.501506
H     -5.409280    -6.308433    -0.296633
C      2.833788     9.061168    -0.002718
H      2.522344     9.611604     0.948422
H      2.925580     8.445168    -0.819934
6
Family_4 [H][C][H].[H][C][H] | RMSD: 11.9699 | 22592.00 to state    1 from traj    1 on state    2
C     -7.080991   -10.931166    -0.002033
H     -7.847802   -11.685888     0.122064
H     -7.500872   -10.058042    -0.223178
C      4.615542    12.547441     0.009247
H      4.336898    13.547829     0.554667
H      4.657569    11.691908    -0.542793
6
Family_4 [H][C][H].[H][C][H] | RMSD: 12.5049 | 23476.00 to state    1 from traj    1 on state    2
C     -7.414209   -11.330230     0.063279
H     -7.740769   -12.247755     0.613797
H     -7.149843   -10.587407    -0.614058
C      4.882788    12.908513    -0.082042
H      3.942713    12.920237     0.130110
H      5.379792    13.863434     0.090447
6
Family_4 [H][C][H].[H][C][H] | RMSD: 14.9464 | 28040.00 to state    1 from traj    1 on state    2
C     -8.511863   -13.603940    -0.070012
H     -8.925972   -13.345854     0.827637
H     -8.239326   -13.976663    -1.132539
C      6.028348    15.205479     0.068519
H      5.754442    15.960874     0.836943
H      5.271904    15.033048    -0.517533
6
Family_4 [H][C][H].[H][C][H] | RMSD: 0.5170 | 584.00 to state    1 from traj    1 on state    2
C     -1.651558    -0.174140    -0.011315
H     -2.401747     0.392361     0.545043
H     -2.225280     0.142342    -0.920689
C     -0.766746     1.678458     0.058652
H     -1.167403     2.202498     0.736250
H     -1.121554     2.092657    -0.927943
6
Family_4 [H][C][H].[H][C][H] | RMSD: 0.7696 | 1676.00 to state    1 from traj    1 on state    2
C     -1.762118    -0.469001     0.017779
H     -2.452983     0.364030     0.367730
H     -1.974522     0.343456    -0.853936
C     -0.775236     1.999388     0.017272
H     -0.459288     1.724601     1.090765
H     -0.610627     2.087134    -1.025493
6
Family_4 [H][C][H].[H][C][H] | RMSD: 0.7782 | 2484.00 to state    1 from traj    1 on state    2
C     -1.972141    -0.610151     0.024650
H     -2.758068    -0.747855     0.698373
H     -1.456902    -0.430377    -0.884921
C     -0.524447     2.122265    -0.011254
H     -0.739129     2.828036     0.684985
H     -1.029075     3.087154    -0.661336
6
Family_4 [H][C][H].[H][C][H] | RMSD: 0.4727 | 1306.25 to state    1 from traj    1 on state    2
C     -1.651110    -0.116305    -0.032595
H     -2.084848     0.164336     0.767018
H     -2.266114     0.354767    -0.889652
C     -0.796820     1.658243     0.061086
H     -1.554558     2.229977     0.675392
H     -0.657446     1.632509    -0.895534
6
Family_4 [H][C][H].[H][C][H] | RMSD: 0.4536 | 728.00 to state    1 from traj    1 on state    2
C     -1.652001    -0.180219     0.000807
H     -2.449680     0.319831     0.525102
H     -2.151305     0.243378    -0.874367
C     -0.767988     1.656376     0.042497
H     -1.265359     2.330882     0.803877
H     -1.029562     2.271317    -0.973892
6
Family_4 [H][C][H].[H][C][H] | RMSD: 0.6875 | 1948.00 to state    1 from traj    1 on state    2
C     -1.805278    -0.462935    -0.023033
H     -2.414606     0.055705     0.780103
H     -1.864159    -0.018277    -0.973093
C     -0.749152     2.042947     0.031122
H     -0.452926     2.001343     1.001406
H     -0.562254     1.889137    -0.908081
6
Family_4 [H][C][H].[H][C][H] | RMSD: 0.5445 | 2240.00 to state    1 from traj    1 on state    2
C     -1.687825    -0.073557     0.018142
H     -2.527307    -0.309416     0.561016
H     -1.809456     0.173406    -1.003882
C     -0.700000     1.645344     0.031542
H     -1.515378     2.342385     0.804572
H     -1.427024     1.819532    -0.957001
6
Family_4 [H][C][H].[H][C][H] | RMSD: 0.3776 | 912.00 to state    1 from traj    1 on state    2
C     -1.717238    -0.219083    -0.015968
H     -2.235224     0.116855     0.758824
H     -2.146198     0.082259    -0.996543
C     -0.724809     1.725153     0.056702
H     -1.484215     2.360186     0.745059
H     -0.767434     2.249675    -0.995994
6
Family_4 [H][C][H].[H][C][H] | RMSD: 0.3420 | 1288.00 to state    1 from traj    1 on state    2
C     -1.752187    -0.273648    -0.009733
H     -2.323919    -0.247211     0.801057
H     -2.200739    -0.107936    -0.827241
C     -0.723584     1.785488     0.026015
H     -1.354292     2.537223     0.689866
H     -0.352277     2.558150    -0.860984
6
Family_4 [H][C][H].[H][C][H] | RMSD: 0.6797 | 1092.00 to state    1 from traj    1 on state    2
C     -1.883018    -0.352388    -0.068191
H     -2.116886     0.067137     1.134002
H     -1.395499    -0.608183    -0.981608
C     -0.636395     1.928324     0.058220
H     -1.338204     2.273571     0.869484
H     -0.860606     2.243951    -0.906342
6
Family_4 [H][C][H].[H][C][H] | RMSD: 0.7754 | 1864.00 to state    1 from traj    1 on state    2
C     -1.916324    -0.714931    -0.016089
H     -2.705206    -0.559728     0.640008
H     -2.018910    -0.073840    -0.911660
C     -0.591228     2.268118     0.029140
H     -0.289092     3.070993     0.875043
H     -0.839319     1.810114    -0.762193
6
Family_4 [H][C][H].[H][C][H] | RMSD: 1.0656 | 2640.00 to state    1 from traj    1 on state    2
C     -2.057975    -1.060425    -0.050764
H     -2.860113    -0.729150     0.735957
H     -2.201090    -0.278958    -0.776572
C     -0.448004     2.613270     0.024031
H     -0.057222     3.612704     0.813834
H     -0.752846     1.647028    -0.457957
6
Family_4 [H][C][H].[H][C][H] | RMSD: 1.2826 | 3400.00 to state    1 from traj    1 on state    2
C     -2.223323    -1.387368    -0.092788
H     -2.824067    -1.011174     0.846622
H     -2.564467    -0.527656    -0.624761
C     -0.273743     2.936214     0.081848
H     -0.015492     3.975321     0.407302
H     -0.573452     1.862786    -0.502084
6
Family_4 [H][C][H].[H][C][H] | RMSD: 1.5570 | 4196.00 to state    1 from traj    1 on state    2
C     -2.400166    -1.723039    -0.086709
H     -2.880675    -1.359389     0.852598
H     -2.816471    -0.821607    -0.618498
C     -0.101871     3.294238     0.053721
H     -0.038884     4.155665     0.423540
H     -0.182205     2.058254    -0.267846
6
Family_4 [H][C][H].[H][C][H] | RMSD: 0.7684 | 7316.00 to state    1 from traj    1 on state    2
C     -1.969107    -0.473357    -0.010179
H     -2.595727    -0.912745     0.794203
H     -1.166077    -0.302744    -0.708391
C     -0.535631     2.148970    -0.001019
H     -1.207589     2.153499     1.001015
H     -0.916676     1.850747    -0.956680
6
Family_4 [H][C][H].[H][C][H] | RMSD: 0.9003 | 8380.00 to state    1 from traj    1 on state    2
C     -2.023560    -0.872073    -0.091111
H     -2.062796    -0.711939     1.022660
H     -2.533021    -0.085718    -0.484717
C     -0.515187     2.435272     0.030765
H     -0.983696     3.364445     0.183297
H      0.098689     1.561469    -0.005470
6
Family_4 [H][C][H].[H][C][H] | RMSD: 1.1700 | 9600.00 to state    1 from traj    1 on state    2
C     -2.156362    -1.154672    -0.030435
H     -2.841439    -1.526180     0.692184
H     -3.012917    -0.560572    -0.514645
C     -0.298863     2.780814     0.013414
H     -0.927617     3.385564     0.678753
H      0.305931     2.079424    -0.656761
6
Family_4 [H][C][H].[H][C][H] | RMSD: 1.5520 | 10756.00 to state    1 from traj    1 on state    2
C     -2.434649    -1.453190    -0.005165
H     -2.528234    -1.477149     1.188600
H     -2.446613    -1.478862    -1.147433
C     -0.105234     3.019633    -0.024589
H     -1.062055     3.172026     0.620194
H      0.569617     3.873575    -0.310107
6
Family_4 [H][C][H].[H][C][H] | RMSD: 1.9333 | 11940.00 to state    1 from traj    1 on state    2
C     -2.586869    -1.808408     0.037376
H     -3.060633    -1.909657     1.041793
H     -2.127469    -1.604270    -0.905926
C     -0.013372     3.396463    -0.137539
H     -0.336087     3.148653     0.828699
H      0.776112     4.197341     0.225666
6
Family_4 [H][C][H].[H][C][H] | RMSD: 0.3421 | 556.00 to state    1 from traj    1 on state    2
C     -1.630310    -0.167039    -0.026377
H     -2.348455     0.170467     0.842519
H     -2.500709     0.436612    -0.982503
C     -0.778934     1.655751     0.070906
H     -1.424582     2.352053     0.535893
H     -0.750188     2.056672    -0.929792
6
Family_4 [H][C][H].[H][C][H] | RMSD: 0.6370 | 1780.00 to state    1 from traj    1 on state    2
C     -1.967566    -0.539428    -0.052355
H     -1.558292    -0.706658     0.908673
H     -2.194974    -0.108729    -0.907305
C     -0.597410     2.093785     0.129700
H     -1.221592     2.825097    -0.005046
H     -0.193419     2.223889    -0.921217
6
Family_4 [H][C][H].[H][C][H] | RMSD: 0.5018 | 1028.00 to state    1 from traj    1 on state    2
C     -1.742030    -0.338103    -0.039678
H     -2.137670     0.124411     1.063299
H     -1.821790     0.485615    -0.791728
C     -0.815079     1.842996     0.002196
H     -1.264156     2.270297     0.927570
H     -0.038406     1.942683    -0.755794
6
Family_5 [H]C#C[H].[H][H] | RMSD: 0.0000 | 77464.00 to state    1 from traj    1 on state    2
C     13.623977   -13.347395    -0.337226
H   -192.739812   173.608530     4.441051
H     12.635242   -13.744879    -0.569681
C     13.467798   -11.821162    -0.285161
H   -193.068852   174.119650     3.608496
H     14.624945   -11.328142    -0.066981
6
Family_5 [H]C#C[H].[H][H] | RMSD: 8.9952 | 81980.00 to state    1 from traj    1 on state    2
C     14.862005   -14.012481    -0.243353
H   -204.439603   184.166788     4.565148
H     14.493015   -14.812699    -0.854069
C     14.005132   -12.751281    -0.431677
H   -204.262079   184.280692     3.974103
H     14.505558   -11.971686     0.354979
6
Family_5 [H]C#C[H].[H][H] | RMSD: 148.0041 | 25796.00 to state    1 from traj    1 on state    2
C     -1.539465     0.072472    -0.239446
H     -3.785553     3.142598     0.338982
H     -2.203188    -0.342085     0.561070
C     -0.620029     1.229271     0.235013
H     -3.854486     3.024177    -0.244010
H     -0.156644     1.418980    -0.606509
6
Family_5 [H]C#C[H].[H][H] | RMSD: 103.1062 | 25504.00 to state    1 from traj    1 on state    2
C      2.986419    -4.041608    -0.074941
H    -61.281997    54.948849     1.556110
H      2.618392    -4.070350    -1.079136
C      3.746962    -2.751733     0.015950
H    -61.113974    54.863172     0.959373
H      3.813094    -2.039611    -0.736712
6
Family_5 [H]C#C[H].[H][H] | RMSD: 137.0233 | 13964.00 to state    1 from traj    1 on state    2
C     -0.152340    -1.146819     0.021766
H    -17.857550    16.054595     0.552442
H      0.814307    -1.250598    -0.515277
C      0.136692     0.401159    -0.070883
H    -17.844192    15.504941     0.149774
H     -0.657813     1.330924     0.395046
6
Family_5 [H]C#C[H].[H][H] | RMSD: 112.1876 | 28912.00 to state    1 from traj    1 on state    2
C      2.167356    -3.261558    -0.001544
H    -49.442235    44.099993     1.019509
H      2.617844    -4.237522    -0.586604
C      2.767377    -1.803617    -0.160296
H    -49.699831    44.732052     1.013953
H      1.991844    -1.484726     0.478289
6
Family_5 [H]C#C[H].[H][H] | RMSD: 148.0549 | 10852.00 to state    1 from traj    1 on state    2
C     -1.293122    -0.034947    -0.122007
H     -3.730548     3.122005     0.375177
H     -1.865267    -0.442310     0.809598
C     -0.810542     1.346412    -0.035616
H     -3.796947     2.970817    -0.271266
H     -1.272364     1.477310     0.961391
6
Family_5 [H]C#C[H].[H][H] | RMSD: 145.5371 | 12448.00 to state    1 from traj    1 on state    2
C     -1.210003    -0.212641    -0.146423
H     -6.680355     5.915646     0.079538
H     -2.033264     0.047058     0.766538
C     -0.384061     0.981575     0.001046
H     -7.331707     6.013825     0.156085
H     -0.692030     1.615914     0.726820
6
Family_5 [H]C#C[H].[H][H] | RMSD: 97.5996 | 42336.00 to state    1 from traj    1 on state    2
C      3.977351    -4.608156     0.042651
H    -68.050100    60.923244     1.125258
H      3.933078    -5.378965    -0.856390
C      3.817462    -3.084602    -0.276331
H    -68.351617    61.586441     1.694472
H      3.856478    -2.711498     0.817835
6
Family_6 C.C.[HH].[HH].[HH].[HH] | RMSD: 0.0000 | 7520.00 to state    1 from traj    1 on state    2
C     -1.697016    -0.072279     0.079236
H     -0.760241    -0.487839     0.581108
H     -1.462018     0.228201    -0.911690
C     -0.823513     1.892641    -0.143842
H     -1.097454     2.061702     0.859577
H     -2.378193    -0.738078     0.237550
6
Family_6 C.C.[HH].[HH].[HH].[HH] | RMSD: 0.5903 | 3528.00 to state    1 from traj    1 on state    2
C     -1.762202    -0.274784    -0.000842
H     -0.760557    -0.360366     0.392713
H     -1.591821    -0.690849    -1.008268
C     -0.752662     2.086233    -0.071533
H     -0.823371     2.872785     0.722364
H     -2.589661    -0.651394     0.752305
6
Family_6 C.C.[HH].[HH].[HH].[HH] | RMSD: 0.6400 | 6116.00 to state    1 from traj    1 on state    2
C     -1.624968    -0.059414     0.018997
H     -0.600699    -0.676329     0.585624
H     -1.483638    -0.125507    -1.240472
C     -0.928414     1.790600    -0.013545
H     -0.675856     2.762538     0.119236
H     -2.546240     0.165865     0.467371
6
Family_6 C.C.[HH].[HH].[HH].[HH] | RMSD: 0.5070 | 5048.00 to state    1 from traj    1 on state    2
C     -1.707806    -0.270152     0.082598
H     -0.827071    -1.079645     0.298495
H     -1.464036     0.259152    -0.920889
C     -0.773683     2.038899    -0.109234
H     -1.212801     2.811707     0.468226
H     -2.659188    -0.312214     0.468270
6
Family_6 C.C.[HH].[HH].[HH].[HH] | RMSD: 0.5971 | 8640.00 to state    1 from traj    1 on state    2
C     -1.720600    -0.231732     0.056831
H     -0.771919    -0.598761     0.417897
H     -1.531821    -0.693647    -1.081364
C     -0.788899     2.063514    -0.109305
H     -1.150624     1.930160     0.775156
H     -2.374968     0.290152     0.510287
6
Family_6 C.C.[HH].[HH].[HH].[HH] | RMSD: 0.5188 | 9120.00 to state    2 from traj    6 on state    1
C     -1.698997    -0.317243     0.030429
H     -0.827031    -0.480961     0.551807
H     -2.060514    -0.210564    -1.060533
C     -0.726826     2.084398    -0.086182
H     -1.321990     2.544426     0.548272
H     -2.616848    -0.154923     0.621501
6
Family_7 [H+].[H]C([H])([H])[C-3] | RMSD: 0.0000 | 12456.00 to state    1 from traj    1 on state    2
C     -1.454268     0.152991    -0.096689
H     -1.133360    -0.937373     0.327262
H     -2.643458    -0.003379     0.083931
C     -1.043533     1.541704     0.220599
H     -0.716761     2.814961    -0.569881
H     -1.475139     0.687165    -1.321068
6
Family_7 [H+].[H]C([H])([H])[C-3] | RMSD: 0.5718 | 7184.00 to state    1 from traj    1 on state    2
C     -1.477140     0.110636    -0.102053
H     -1.094829    -0.556975     0.624543
H     -2.487068    -0.007071     0.149788
C     -1.032869     1.574198     0.091790
H     -0.562506     2.974368     0.617455
H     -1.678851     0.268572    -1.272777
6
Family_7 [H+].[H]C([H])([H])[C-3] | RMSD: 0.5371 | 2964.00 to state    1 from traj    1 on state    2
C     -1.519775     0.202465    -0.065209
H     -0.768642    -0.505929     0.456305
H     -2.508011    -0.382799     0.306211
C     -1.070507     1.472877     0.060066
H     -0.291537     2.962612     0.343983
H     -1.298560     0.718115    -1.048507
6
Family_7 [H+].[H]C([H])([H])[C-3] | RMSD: 0.7343 | 4012.00 to state    1 from traj    1 on state    2
C     -1.506514     0.235310    -0.223526
H     -0.554111    -0.241908    -0.026844
H     -2.313601    -0.056394     0.395709
C     -1.110478     1.519124     0.421922
H     -0.138307     2.167450    -1.437255
H     -1.542457    -0.019594    -1.298919
6
Family_7 [H+].[H]C([H])([H])[C-3] | RMSD: 0.5966 | 7704.00 to state    1 from traj    1 on state    2
C     -1.499082     0.149035    -0.219129
H     -1.048287    -0.528265     0.411935
H     -2.627070     0.540540    -0.055398
C     -0.958346     1.518102     0.396437
H     -1.464687     2.854128    -1.299165
H     -1.309752     0.023355    -1.173402
6
Family_7 [H+].[H]C([H])([H])[C-3] | RMSD: 0.5036 | 8420.00 to state    1 from traj    1 on state    2
C     -1.558579     0.167390    -0.052590
H     -0.475153    -0.602509     0.012472
H     -2.607546    -0.038204    -0.092291
C     -1.022286     1.541529     0.153477
H     -0.485109     2.974903    -0.024198
H     -1.411146     0.057711    -1.101399
6
Family_8 [H][C+]([H])[H].[H][C-3] | RMSD: 0.0000 | 14780.00 to state    1 from traj    1 on state    2
C     -1.653492    -0.234320     0.118933
H     -2.209916    -1.233810     0.533030
H     -1.261538     2.230382    -1.182169
C     -0.921829     1.765414    -0.121856
H     -1.716675     2.068908     0.746804
H      0.143113     1.445323    -0.066123
6
Family_8 [H][C+]([H])[H].[H][C-3] | RMSD: 0.6615 | 29032.00 to state    1 from traj    1 on state    2
C     -1.686386    -0.461246     0.021533
H     -2.460344    -0.129960     1.079438
H     -1.334320     1.625006    -1.056016
C     -0.888586     1.886806    -0.083452
H     -1.572278     2.112769     0.844086
H      0.317764     2.160500    -0.132983
6
Family_8 [H][C+]([H])[H].[H][C-3] | RMSD: 0.7924 | 11212.00 to state    1 from traj    1 on state    2
C     -1.753704    -0.421529     0.066094
H     -1.259494    -0.147512     1.156531
H     -0.566134     2.803492    -0.724486
C     -0.962333     1.823356    -0.198707
H     -1.507684     2.031405     0.868975
H     -0.034981     1.363716     0.275873
6
Family_8 [H][C+]([H])[H].[H][C-3] | RMSD: 0.6596 | 8860.00 to state    1 from traj    1 on state    2
C     -1.636105    -0.330467     0.070807
H     -2.302984     0.104794     0.879519
H     -1.448269     2.264894    -1.070531
C     -0.919515     1.781398    -0.073632
H     -1.635376     1.446756     0.311644
H      0.106867     1.649552    -0.090253
6
Family_8 [H][C+]([H])[H].[H][C-3] | RMSD: 0.5342 | 2756.00 to state    1 from traj    1 on state    2
C     -1.744611    -0.461882     0.047432
H     -1.674028    -0.351481     1.057499
H     -1.382761     2.263062    -1.201709
C     -0.865481     1.914541    -0.117355
H     -1.489007     2.180494     0.673580
H     -0.084900     1.353324     0.300527
6
Family_9 [H+].[H+].[H]C#C[H] | RMSD: 0.0000 | 5688.00 to state    1 from traj    1 on state    2
C     -1.810313     0.172890     0.081889
H     -0.580436     1.316187    -1.258741
H     -2.202434    -0.697902     0.619118
C     -0.831630     1.353685    -0.126955
H     -1.517244     2.726394    -0.095017
H      0.048935     1.219972     1.268346
6
Family_9 [H+].[H+].[H]C#C[H] | RMSD: 0.5052 | 3076.00 to state    1 from traj    1 on state    2
C     -1.841426     0.293584     0.030408
H     -0.631015     1.660104    -1.014681
H     -2.152636    -0.661352     0.514501
C     -0.789686     1.191666    -0.046127
H     -2.199609     2.343715    -0.346549
H      0.603037     1.714599     1.030756
