6
Family_1 [H+].[H][C-]=C([H])[H] | RMSD: 0.0000 | 776.00 to state    1 from traj    1 on state    2
C     -1.618695     0.188250     0.020069
H     -1.111549    -0.826689    -0.094447
H     -2.778933     0.275765    -0.115852
C     -0.867797     1.420456    -0.010413
H     -2.356730     3.220685     0.106339
H      0.143741     0.916248    -0.014383
6
Family_1 [H+].[H][C-]=C([H])[H] | RMSD: 0.2002 | 2032.00 to state    1 from traj    1 on state    2
C     -1.635571     0.269992     0.017735
H     -1.188093    -0.828370    -0.067636
H     -2.842816     0.213399    -0.113232
C     -0.811893     1.364914    -0.008998
H     -2.731001     2.957971     0.117335
H      0.193382     0.930809    -0.043864
6
Family_1 [H+].[H][C-]=C([H])[H] | RMSD: 0.9736 | 12328.00 to state    1 from traj    1 on state    2
C     -1.451806     0.268536     0.082175
H     -1.248852    -0.508049    -0.891295
H     -2.423499     0.322241     0.258384
C     -1.052850     1.484371    -0.146486
H     -1.832670     2.559968     0.164093
H     -0.382014    -0.506417     1.231846
6
Family_1 [H+].[H][C-]=C([H])[H] | RMSD: 0.2470 | 2244.00 to state    1 from traj    1 on state    2
C     -1.669874     0.208505     0.032868
H     -1.090293    -0.796430    -0.168735
H     -2.819549     0.402393    -0.133821
C     -0.813776     1.430992    -0.006342
H     -2.547443     2.709409     0.053137
H      0.319947     0.903736    -0.069945
6
Family_1 [H+].[H][C-]=C([H])[H] | RMSD: 0.6949 | 7048.00 to state    1 from traj    1 on state    2
C     -1.636699     0.156912    -0.061495
H     -1.271881    -0.692140    -0.551935
H     -2.363587    -0.145010     0.736889
C     -0.926676     1.385421     0.122214
H     -1.802135     3.639558    -0.625985
H      0.250238     1.574466    -0.285766
6
Family_1 [H+].[H][C-]=C([H])[H] | RMSD: 0.2540 | 476.00 to state    1 from traj    1 on state    2
C     -1.645735     0.139454    -0.033415
H     -1.229095    -0.882091    -0.020675
H     -2.668748     0.467734     0.241527
C     -0.834101     1.418461     0.017019
H     -2.459067     3.309384    -0.022002
H      0.174128     1.296188    -0.006762
6
Family_1 [H+].[H][C-]=C([H])[H] | RMSD: 0.9619 | 4008.00 to state    1 from traj    1 on state    2
C     -1.575754     0.176430     0.020977
H     -1.307240    -0.789292     0.351560
H     -2.572049     0.220506    -0.814804
C     -0.928690     1.516997     0.188324
H     -1.584867     2.400925    -0.307241
H     -0.425406     0.744359    -1.726765
6
Family_1 [H+].[H][C-]=C([H])[H] | RMSD: 0.2565 | 376.00 to state    1 from traj    1 on state    2
C     -1.642865     0.194689    -0.016214
H     -1.334125    -0.961055     0.085091
H     -2.920535     0.359512     0.038312
C     -0.806416     1.430687    -0.006302
H     -2.573784     2.864144     0.121341
H      0.281569     1.124768     0.020269
6
Family_1 [H+].[H][C-]=C([H])[H] | RMSD: 0.5431 | 1952.00 to state    1 from traj    1 on state    2
C     -1.580118     0.151505     0.003038
H     -1.239717    -0.615714    -0.738791
H     -2.812457     0.110692     0.395282
C     -0.922044     1.384007     0.096402
H     -2.008865     3.637674    -0.567042
H      0.144275     1.325506    -0.277631
6
Family_1 [H+].[H][C-]=C([H])[H] | RMSD: 0.1937 | 464.00 to state    1 from traj    1 on state    2
C     -1.654413     0.162260    -0.014273
H     -1.253814    -0.850847    -0.092995
H     -2.677709     0.275120     0.139536
C     -0.832089     1.423198     0.015897
H     -2.446993     3.238860    -0.022201
H      0.275163     1.199875    -0.046980
6
Family_1 [H+].[H][C-]=C([H])[H] | RMSD: 0.4890 | 624.00 to state    1 from traj    1 on state    2
C     -1.635333     0.172658    -0.033347
H     -1.482526    -0.896449    -0.472283
H     -2.573208     0.149141     0.502701
C     -0.838011     1.394010     0.088370
H     -2.397489     3.364524    -0.453915
H      0.193077     1.469701    -0.235424
6
Family_1 [H+].[H][C-]=C([H])[H] | RMSD: 0.6246 | 1824.00 to state    1 from traj    1 on state    2
C     -1.700692     0.252997    -0.008360
H     -1.005191    -0.654800    -0.039992
H     -2.756833     0.162920    -0.102215
C     -0.740127     1.338037     0.123380
H     -2.400228     2.648454    -0.325653
H     -0.485447     1.640004    -0.905964
6
Family_1 [H+].[H][C-]=C([H])[H] | RMSD: 0.3253 | 376.00 to state    1 from traj    1 on state    2
C     -1.685028     0.148096    -0.004112
H     -1.254279    -0.798437    -0.366010
H     -2.654903     0.117872     0.261105
C     -0.805275     1.423285     0.034477
H     -2.427391     3.331704    -0.197650
H      0.278512     1.379603    -0.062544
6
Family_1 [H+].[H][C-]=C([H])[H] | RMSD: 0.4748 | 3184.00 to state    1 from traj    1 on state    2
C     -1.642841     0.183209     0.006745
H     -1.650492    -0.948719    -0.463577
H     -2.763212     0.370385     0.229911
C     -0.815021     1.428030     0.055604
H     -2.600164     2.819307    -0.320716
H      0.569240     1.314840    -0.191833
6
Family_1 [H+].[H][C-]=C([H])[H] | RMSD: 0.4637 | 3304.00 to state    1 from traj    1 on state    2
C     -1.661424     0.161189     0.005095
H     -1.720427    -0.887083    -0.448690
H     -2.762065     0.160660     0.256204
C     -0.789290     1.451788     0.034933
H     -2.535897     2.869947    -0.248157
H      0.488599     1.391584    -0.039608
6
Family_1 [H+].[H][C-]=C([H])[H] | RMSD: 0.8852 | 9340.00 to state    1 from traj    1 on state    2
C     -1.715368     0.188486     0.047969
H     -1.305400    -0.062667    -0.972396
H     -2.715615     0.160597     0.575812
C     -0.720303     1.408332    -0.078948
H     -2.268360     2.138086    -0.160143
H     -0.419668     1.491635     0.922581
6
Family_1 [H+].[H][C-]=C([H])[H] | RMSD: 0.3466 | 588.00 to state    1 from traj    1 on state    2
C     -1.672950     0.202632     0.014284
H     -1.381529    -0.812243    -0.038373
H     -2.828365     0.267504    -0.089119
C     -0.765902     1.362031    -0.019048
H     -2.898177     3.249024     0.159624
H      0.436935     1.406516     0.021352
6
Family_1 [H+].[H][C-]=C([H])[H] | RMSD: 0.9494 | 3596.00 to state    1 from traj    1 on state    2
C     -1.458928     0.287626     0.011731
H     -1.011207    -0.745474    -0.564379
H     -2.521147     0.153960     0.483686
C     -1.075662     1.490990    -0.105779
H     -1.440255     2.492709     0.118344
H     -0.557744    -0.339788     1.079713
6
Family_1 [H+].[H][C-]=C([H])[H] | RMSD: 1.0131 | 4836.00 to state    1 from traj    1 on state    2
C     -1.378805     0.253647     0.022113
H     -1.651298    -0.396622     0.768737
H     -2.569686     0.069162    -0.946611
C     -1.103621     1.503177     0.003862
H     -1.369982     2.465096     0.466703
H     -0.560962    -0.316565    -0.601621
6
Family_1 [H+].[H][C-]=C([H])[H] | RMSD: 0.8992 | 1856.00 to state    1 from traj    1 on state    2
C     -1.719448     0.329137     0.042228
H     -1.303732    -0.606018     0.475075
H     -2.278404    -0.221331    -0.827421
C     -0.749024     1.321451     0.025909
H     -2.088540     2.097082     0.306463
H     -0.647523     1.817217    -0.769288
6
Family_1 [H+].[H][C-]=C([H])[H] | RMSD: 0.9196 | 1900.00 to state    1 from traj    1 on state    2
C     -1.728653     0.341975     0.037688
H     -1.320294    -0.550897     0.559359
H     -2.172182    -0.190770    -0.847877
C     -0.732651     1.293789     0.021468
H     -2.249006     2.151483     0.360322
H     -0.662122     1.853777    -0.779968
6
Family_1 [H+].[H][C-]=C([H])[H] | RMSD: 0.4925 | 11024.00 to state    1 from traj    1 on state    2
C     -1.665797     0.157468    -0.086665
H     -1.493380    -0.938596    -0.131442
H     -2.410933     0.294929     0.746898
C     -0.831410     1.473609     0.047373
H     -2.323166     2.803119    -0.257508
H      0.251671     1.159991     0.106961
6
Family_1 [H+].[H][C-]=C([H])[H] | RMSD: 0.6869 | 6024.00 to state    1 from traj    1 on state    2
C     -1.631790     0.249724    -0.098453
H     -0.890702    -0.491871     0.294137
H     -2.708989     0.013104     0.301617
C     -0.848747     1.309029     0.142812
H     -1.898390     3.038671    -0.330299
H     -0.676359     1.621316    -0.797307
6
Family_1 [H+].[H][C-]=C([H])[H] | RMSD: 0.8039 | 8728.00 to state    1 from traj    1 on state    2
C     -1.707474     0.352436     0.057343
H     -1.517122    -0.699414     0.530907
H     -2.324252     0.195506    -0.745118
C     -0.769820     1.336304    -0.124146
H     -2.675176     1.861131     0.796660
H      0.303472     1.275116     0.210270
6
Family_1 [H+].[H][C-]=C([H])[H] | RMSD: 0.9988 | 10492.00 to state    1 from traj    1 on state    2
C     -1.356238     0.102637    -0.027004
H     -1.602864    -0.669648     0.539820
H     -2.822568     0.432765    -0.484987
C     -1.105989     1.639973     0.101575
H     -1.292160     2.767286    -0.032565
H     -0.675014    -0.539961    -0.914111
6
Family_1 [H+].[H][C-]=C([H])[H] | RMSD: 0.3469 | 628.00 to state    1 from traj    1 on state    2
C     -1.660186     0.162563    -0.000058
H     -1.441224    -0.790554     0.375475
H     -2.743991     0.244271    -0.290561
C     -0.793527     1.424896    -0.044678
H     -2.511241     3.032844     0.412578
H      0.202399     1.352614     0.032290
6
Family_1 [H+].[H][C-]=C([H])[H] | RMSD: 1.0435 | 4044.00 to state    1 from traj    1 on state    2
C     -1.695990     0.387429     0.028048
H     -1.760319    -0.653085     0.738100
H     -2.183222     0.270480    -0.896601
C     -0.689770     1.260554     0.023411
H     -2.912319     1.754148     0.410455
H     -0.447901     1.746444    -0.868399
6
Family_1 [H+].[H][C-]=C([H])[H] | RMSD: 0.8492 | 3768.00 to state    1 from traj    1 on state    2
C     -1.460202     0.295402    -0.052869
H     -1.393717    -1.043444     0.831027
H     -2.599671     0.207655    -0.443826
C     -1.045608     1.499939     0.059830
H     -1.609368     2.263573     0.238572
H     -0.270528    -0.065667    -0.712000
6
Family_1 [H+].[H][C-]=C([H])[H] | RMSD: 1.0544 | 6712.00 to state    1 from traj    1 on state    2
C     -1.480579     0.042270    -0.040403
H     -1.588903    -0.590578     0.968019
H     -2.141570     0.292946    -0.701869
C     -1.085613     1.676292     0.094469
H     -1.132425     2.779584     0.193154
H     -0.290896    -0.204960    -1.106824
6
Family_1 [H+].[H][C-]=C([H])[H] | RMSD: 0.8818 | 996.00 to state    1 from traj    1 on state    2
C     -1.589493     0.095918     0.093064
H     -1.373767    -0.875308    -0.319056
H     -2.521193     0.376398    -0.763689
C     -0.903405     1.571075     0.145356
H     -1.490462     2.448639    -0.431479
H     -0.641726     0.941739    -1.329993
6
Family_1 [H+].[H][C-]=C([H])[H] | RMSD: 0.9475 | 4680.00 to state    1 from traj    1 on state    2
C     -1.643048     0.174637    -0.001330
H     -1.502526    -0.652645    -0.770707
H     -2.440482     0.081472     0.781479
C     -0.781749     1.409670    -0.089170
H     -1.938630     2.664335    -0.060250
H     -0.956974     1.783567     1.124558
6
Family_1 [H+].[H][C-]=C([H])[H] | RMSD: 0.9131 | 5444.00 to state    1 from traj    1 on state    2
C     -1.534325     0.274709     0.015445
H     -1.226179    -0.612635     0.587569
H     -2.086603    -0.261272    -0.798024
C     -1.094079     1.442648     0.050690
H     -0.982308     2.574979     0.254106
H     -0.117414     0.590279    -0.834974
6
Family_1 [H+].[H][C-]=C([H])[H] | RMSD: 0.9992 | 8536.00 to state    1 from traj    1 on state    2
C     -1.497966     0.220493     0.039325
H     -1.291105    -0.700410     0.269986
H     -2.175063     0.099707    -0.823819
C     -1.052011     1.533194     0.130103
H     -1.308553     2.473802    -0.136354
H     -0.572293    -0.014650    -1.331943
6
Family_1 [H+].[H][C-]=C([H])[H] | RMSD: 0.9457 | 3424.00 to state    1 from traj    1 on state    2
C     -1.441419     0.114011     0.063099
H     -1.501813    -1.262020    -0.673293
H     -2.486142     0.472596     0.121517
C     -1.024887     1.674404    -0.088668
H     -1.520554     2.633341     0.068186
H     -0.835494    -0.399273     0.784974
6
Family_1 [H+].[H][C-]=C([H])[H] | RMSD: 0.8771 | 7836.00 to state    1 from traj    1 on state    2
C     -1.466745     0.176909    -0.106338
H     -1.165546    -0.452155     0.979831
H     -2.703397     0.182555    -0.173679
C     -1.092847     1.541014     0.094877
H     -1.310145     2.740772     0.118855
H     -0.053349    -0.186567    -0.791720
6
Family_1 [H+].[H][C-]=C([H])[H] | RMSD: 0.5909 | 1668.00 to state    1 from traj    1 on state    2
C     -1.670709     0.120714     0.060919
H     -1.361503    -0.672460    -0.305129
H     -2.870731     0.164912    -0.109891
C     -0.771540     1.403611    -0.117627
H     -2.159100     3.129632     0.364316
H     -0.239322     1.969376     0.723141
6
Family_1 [H+].[H][C-]=C([H])[H] | RMSD: 0.4614 | 1916.00 to state    1 from traj    1 on state    2
C     -1.651021     0.240325    -0.017597
H     -1.132304    -0.552883    -0.544316
H     -2.639265     0.335951     0.467233
C     -0.829832     1.362932     0.090390
H     -2.594608     2.889973    -0.497839
H      0.195514     0.977887    -0.295736
6
Family_1 [H+].[H][C-]=C([H])[H] | RMSD: 0.9471 | 8332.00 to state    1 from traj    1 on state    2
C     -1.369399     0.268094    -0.029049
H     -1.701026    -0.743918    -0.573951
H     -2.438878     0.284247     0.727773
C     -1.149847     1.502048    -0.045867
H     -1.563157     2.592731    -0.134564
H     -0.010134    -0.470675     0.870133
6
Family_1 [H+].[H][C-]=C([H])[H] | RMSD: 0.9238 | 5392.00 to state    1 from traj    1 on state    2
C     -1.623877     0.236381     0.016008
H     -1.727239    -0.483838     0.663768
H     -2.534539     0.293388    -0.791265
C     -0.766570     1.356432     0.041559
H     -2.201193     2.161237     0.280371
H     -0.784943     1.804584    -0.842106
6
Family_1 [H+].[H][C-]=C([H])[H] | RMSD: 0.3212 | 3440.00 to state    1 from traj    1 on state    2
C     -1.630224     0.193873    -0.033773
H     -1.554700    -0.786555     0.104586
H     -2.773181     0.337231     0.165405
C     -0.813285     1.417210    -0.001774
H     -2.623197     2.864286     0.088009
H      0.335424     1.142710     0.062294
6
Family_1 [H+].[H][C-]=C([H])[H] | RMSD: 0.3107 | 3572.00 to state    1 from traj    1 on state    2
C     -1.669240     0.201534    -0.010871
H     -1.408286    -0.892363     0.097347
H     -2.573653     0.413488     0.005365
C     -0.786655     1.403850    -0.009151
H     -2.720693     2.872011     0.145309
H      0.234579     1.232451    -0.012726
6
Family_1 [H+].[H][C-]=C([H])[H] | RMSD: 1.0137 | 1612.00 to state    1 from traj    1 on state    2
C     -1.484450     0.200162    -0.030121
H     -0.992917    -0.791365     0.342605
H     -2.585833    -0.226131    -0.330494
C     -1.078611     1.617499     0.127356
H     -1.133730     2.717017    -0.170215
H     -0.478619    -0.603351    -1.003800
6
Family_1 [H+].[H][C-]=C([H])[H] | RMSD: 1.0558 | 2680.00 to state    1 from traj    1 on state    2
C     -1.343788     0.202261    -0.043273
H     -1.731427    -0.446800    -0.634345
H     -2.917147     0.027353     0.767399
C     -1.087872     1.574914     0.029745
H     -1.385499     2.578019    -0.429917
H     -0.722770    -0.579997     0.454766
6
Family_1 [H+].[H][C-]=C([H])[H] | RMSD: 1.0078 | 1072.00 to state    1 from traj    1 on state    2
C     -1.492208     0.247406    -0.011822
H     -1.526847    -0.844651    -0.377553
H     -2.511110     0.501316     0.667322
C     -0.979782     1.493739    -0.182287
H     -1.840200     2.126945     0.383376
H     -0.398110     0.224294     1.636516
6
Family_1 [H+].[H][C-]=C([H])[H] | RMSD: 1.1207 | 1156.00 to state    1 from traj    1 on state    2
C     -1.454146     0.251150    -0.000387
H     -1.693274    -0.843789    -0.535812
H     -2.426489     0.370652     0.706820
C     -1.001073     1.517861    -0.189791
H     -1.744116     2.131835     0.344408
H     -0.612233     0.017163     1.747398
6
Family_1 [H+].[H][C-]=C([H])[H] | RMSD: 0.1338 | 376.00 to state    1 from traj    1 on state    2
C     -1.657249     0.150000     0.007150
H     -1.220438    -0.823683    -0.113002
H     -2.722374     0.098765    -0.014664
C     -0.839198     1.465791     0.005202
H     -2.254988     3.171134     0.030300
H      0.212946     1.055370    -0.053097
6
Family_1 [H+].[H][C-]=C([H])[H] | RMSD: 0.2000 | 448.00 to state    1 from traj    1 on state    2
C     -1.653313     0.154181     0.011988
H     -1.049125    -0.839298    -0.015535
H     -2.648092     0.076314    -0.128423
C     -0.873522     1.430965    -0.008803
H     -2.176652     3.500340     0.145932
H      0.251109     1.129375    -0.043210
6
Family_1 [H+].[H][C-]=C([H])[H] | RMSD: 0.4351 | 600.00 to state    1 from traj    1 on state    2
C     -1.630585     0.156767     0.034599
H     -1.278804    -0.738150     0.432474
H     -2.560272    -0.005552    -0.614169
C     -0.892647     1.445963    -0.072412
H     -1.970821     3.248740     0.588402
H      0.144211     1.152167     0.040572
6
Family_1 [H+].[H][C-]=C([H])[H] | RMSD: 1.0157 | 3732.00 to state    1 from traj    1 on state    2
C     -1.628240     0.210457     0.055960
H     -0.664785    -0.462934     0.202869
H     -2.191800    -0.045557    -0.901172
C     -0.957379     1.501630     0.146010
H     -1.427545     2.623448    -0.183922
H     -0.638180     0.239198    -1.527676
6
Family_1 [H+].[H][C-]=C([H])[H] | RMSD: 1.0495 | 3920.00 to state    1 from traj    1 on state    2
C     -1.460516     0.292736     0.182296
H     -1.330039    -0.065495    -1.308505
H     -2.285819    -0.187240    -0.363308
C     -1.056093     1.461108    -0.061643
H     -1.458249     2.453379    -0.163253
H     -0.670500    -0.344053     0.394117
6
Family_1 [H+].[H][C-]=C([H])[H] | RMSD: 0.9447 | 2080.00 to state    1 from traj    1 on state    2
C     -1.512829     0.217887    -0.088341
H     -1.554938    -0.959071    -0.346005
H     -1.687555     0.047944     0.910298
C     -1.131555     1.531529     0.043261
H     -1.144620     2.623518    -0.355837
H      0.165027     0.196951     0.325416
6
Family_1 [H+].[H][C-]=C([H])[H] | RMSD: 1.1355 | 1120.00 to state    1 from traj    1 on state    2
C     -1.510408     0.215941     0.042093
H     -1.697175    -0.870896     0.181184
H     -2.229799     0.514384    -0.847224
C     -0.940822     1.511889     0.200400
H     -1.774045     2.037235    -0.419334
H     -0.822623     0.485841    -1.807382
6
Family_1 [H+].[H][C-]=C([H])[H] | RMSD: 0.8299 | 3716.00 to state    1 from traj    1 on state    2
C     -1.385714     0.102602    -0.088784
H     -1.607012    -0.492025     0.642188
H     -2.966435     0.352589    -0.064321
C     -1.073448     1.578852     0.106997
H     -1.326666     2.878360    -0.082999
H     -0.529013    -0.019772    -0.715167
6
Family_1 [H+].[H][C-]=C([H])[H] | RMSD: 0.7806 | 1336.00 to state    1 from traj    1 on state    2
C     -1.725177     0.361832    -0.012650
H     -0.733781    -0.419049     0.158127
H     -2.708397    -0.126914     0.144663
C     -0.749536     1.269782    -0.125217
H     -2.188280     2.227737     0.525302
H     -0.613371     1.631256     0.811403
6
Family_1 [H+].[H][C-]=C([H])[H] | RMSD: 0.9316 | 6492.00 to state    1 from traj    1 on state    2
C     -1.599480     0.214704    -0.018352
H     -1.575887    -0.611526     0.776529
H     -2.641881     0.244611    -0.683101
C     -0.795859     1.371197     0.081857
H     -1.991071     2.432614     0.178559
H     -0.980781     1.792047    -1.031968
6
Family_1 [H+].[H][C-]=C([H])[H] | RMSD: 0.1917 | 448.00 to state    1 from traj    1 on state    2
C     -1.645635     0.159753     0.015659
H     -1.161286    -0.874327    -0.001640
H     -2.670763     0.395679    -0.149443
C     -0.851801     1.401630    -0.011527
H     -2.461121     3.391871     0.153380
H      0.320103     1.236664    -0.054810
6
Family_1 [H+].[H][C-]=C([H])[H] | RMSD: 0.3261 | 1636.00 to state    1 from traj    1 on state    2
C     -1.644397     0.257173    -0.021332
H     -1.328763    -0.856465     0.055459
H     -2.828173     0.155679     0.093869
C     -0.814103     1.427937     0.003641
H     -2.576390     2.581313     0.070780
H      0.296311     0.795068    -0.012584
6
Family_1 [H+].[H][C-]=C([H])[H] | RMSD: 0.3639 | 3292.00 to state    1 from traj    1 on state    2
C     -1.657145     0.185330     0.001307
H     -1.502916    -0.968940    -0.333446
H     -2.813000     0.290805     0.202565
C     -0.780399     1.438568     0.029387
H     -2.592631     2.804233    -0.177999
H      0.221830     1.278892    -0.060141
6
Family_1 [H+].[H][C-]=C([H])[H] | RMSD: 0.2964 | 648.00 to state    1 from traj    1 on state    2
C     -1.611481     0.153235     0.008568
H     -1.247298    -0.910657    -0.106971
H     -2.687113     0.642464    -0.013889
C     -0.852426     1.371062     0.000082
H     -2.624490     3.530154     0.050281
H      0.186318     1.329832    -0.035780
6
Family_1 [H+].[H][C-]=C([H])[H] | RMSD: 0.9178 | 8304.00 to state    1 from traj    1 on state    2
C     -1.490903     0.038342    -0.011900
H     -1.479919    -0.902362    -0.438063
H     -2.926697    -0.185457     0.443671
C     -1.019757     1.742051    -0.041546
H     -0.967843     2.740424    -0.059536
H     -0.441042    -0.112374     0.687495
6
Family_1 [H+].[H][C-]=C([H])[H] | RMSD: 0.4182 | 3052.00 to state    1 from traj    1 on state    2
C     -1.659668     0.236448     0.009404
H     -1.426048    -0.830934     0.234322
H     -2.541010     0.552452    -0.204421
C     -0.792304     1.369365    -0.053830
H     -2.861210     2.723999     0.372913
H      0.313456     1.174947     0.123269
6
Family_1 [H+].[H][C-]=C([H])[H] | RMSD: 0.4239 | 4412.00 to state    1 from traj    1 on state    2
C     -1.608088     0.262744    -0.015521
H     -1.556480    -0.836751     0.212634
H     -2.740593     0.579334    -0.029834
C     -0.802751     1.341705    -0.028071
H     -2.972160     2.772233     0.249715
H      0.264295     1.121899     0.083635
6
Family_1 [H+].[H][C-]=C([H])[H] | RMSD: 0.3073 | 984.00 to state    1 from traj    1 on state    2
C     -1.674183     0.249850    -0.001589
H     -1.309251    -0.831707     0.096539
H     -2.578836     0.293293    -0.058636
C     -0.793531     1.389918    -0.017478
H     -2.729656     2.718754     0.187040
H      0.290521     1.035535    -0.001024
6
Family_1 [H+].[H][C-]=C([H])[H] | RMSD: 0.3022 | 1080.00 to state    1 from traj    1 on state    2
C     -1.675295     0.231032     0.017906
H     -1.285777    -0.756579     0.038971
H     -2.694334     0.349154    -0.157466
C     -0.779742     1.395870    -0.024776
H     -2.711402     2.678064     0.198009
H      0.213229     1.098538    -0.000934
6
Family_1 [H+].[H][C-]=C([H])[H] | RMSD: 0.1670 | 2484.00 to state    1 from traj    1 on state    2
C     -1.630867     0.206359     0.008456
H     -1.297456    -0.790751     0.070336
H     -2.618378     0.082048    -0.154570
C     -0.850458     1.399972    -0.018111
H     -2.413401     3.255597     0.208482
H      0.164197     1.067408    -0.012482
6
Family_1 [H+].[H][C-]=C([H])[H] | RMSD: 0.2246 | 4004.00 to state    1 from traj    1 on state    2
C     -1.633016     0.226165     0.016570
H     -1.290796    -0.759970    -0.152489
H     -2.903260     0.294763    -0.047784
C     -0.814790     1.401158     0.006164
H     -2.625367     2.853312     0.008928
H      0.254985     0.976058    -0.082834
6
Family_1 [H+].[H][C-]=C([H])[H] | RMSD: 0.5180 | 1176.00 to state    1 from traj    1 on state    2
C     -1.654159     0.189465    -0.032895
H     -1.078748    -0.536406    -0.551697
H     -2.531338    -0.199067     0.562616
C     -0.889984     1.411726     0.089209
H     -2.006313     3.355457    -0.492107
H      0.199884     1.055567    -0.193123
6
Family_1 [H+].[H][C-]=C([H])[H] | RMSD: 0.8449 | 2116.00 to state    1 from traj    1 on state    2
C     -1.642770     0.179351     0.054396
H     -1.107781    -0.690452     0.563396
H     -2.105578    -0.019249    -0.986849
C     -0.963391     1.564282     0.007434
H     -1.461638     2.374915     0.409815
H     -0.002543     0.313044    -0.726392
6
Family_1 [H+].[H][C-]=C([H])[H] | RMSD: 0.9643 | 2044.00 to state    1 from traj    1 on state    2
C     -1.482564     0.183119    -0.041084
H     -1.238493    -1.228505     0.934938
H     -2.463423     0.188964    -0.674309
C     -1.024693     1.581959     0.081832
H     -1.371898     2.722400     0.253077
H     -0.782235     0.039862    -1.002533
6
Family_1 [H+].[H][C-]=C([H])[H] | RMSD: 1.0593 | 1696.00 to state    1 from traj    1 on state    2
C     -1.504776     0.148737    -0.029924
H     -1.282656    -1.345514     0.634963
H     -2.253395    -0.147717    -0.495202
C     -1.024612     1.700380     0.069223
H     -1.179993     2.661501     0.162864
H     -0.876301    -0.446932    -0.774178
6
Family_1 [H+].[H][C-]=C([H])[H] | RMSD: 0.8393 | 1928.00 to state    1 from traj    1 on state    2
C     -1.632940     0.354975     0.124115
H     -1.422553    -0.781277    -0.609370
H     -2.402015    -0.882128    -0.617550
C     -0.937688     1.382414     0.004545
H     -1.315590     2.373149    -0.035967
H      0.039220     1.342906    -0.273469
6
Family_1 [H+].[H][C-]=C([H])[H] | RMSD: 0.3227 | 448.00 to state    1 from traj    1 on state    2
C     -1.621125     0.131566    -0.007660
H     -1.267280    -0.873480    -0.399633
H     -2.693884     0.200466     0.285253
C     -0.887506     1.447904     0.045375
H     -2.108682     3.399498    -0.258054
H      0.230180     1.207877    -0.080251
6
Family_1 [H+].[H][C-]=C([H])[H] | RMSD: 0.3545 | 1728.00 to state    1 from traj    1 on state    2
C     -1.623497     0.283258    -0.013076
H     -1.323010    -0.781145    -0.213638
H     -2.716691     0.352745     0.219505
C     -0.819781     1.368221     0.035230
H     -2.741003     2.652357    -0.153261
H      0.162310     0.852380    -0.119873
6
Family_1 [H+].[H][C-]=C([H])[H] | RMSD: 0.3357 | 732.00 to state    1 from traj    1 on state    2
C     -1.599118     0.220068     0.007453
H     -1.623323    -0.881483    -0.319665
H     -2.751633     0.325065     0.126341
C     -0.829954     1.396968     0.030926
H     -2.661760     2.944926    -0.161482
H      0.249038     1.098232    -0.105799
6
Family_1 [H+].[H][C-]=C([H])[H] | RMSD: 0.9209 | 4056.00 to state    1 from traj    1 on state    2
C     -1.514115     0.236240     0.007780
H     -0.944818    -0.559666     0.552804
H     -2.309087    -0.025641    -0.712749
C     -1.096560     1.510401     0.065474
H     -1.117412     2.609186     0.168230
H     -0.252439    -0.081461    -0.884435
6
Family_1 [H+].[H][C-]=C([H])[H] | RMSD: 0.3155 | 520.00 to state    1 from traj    1 on state    2
C     -1.603693     0.107160     0.032052
H     -1.291635    -0.941232    -0.160402
H     -2.641799     0.258845    -0.198771
C     -0.902652     1.436599     0.001595
H     -2.053766     3.667373     0.061220
H      0.120289     1.374905    -0.106249
6
Family_1 [H+].[H][C-]=C([H])[H] | RMSD: 0.4414 | 2020.00 to state    1 from traj    1 on state    2
C     -1.665598     0.283318     0.033844
H     -1.276865    -0.733476    -0.047692
H     -2.697403     0.575334    -0.196895
C     -0.757545     1.304962    -0.029766
H     -3.237798     2.872031     0.201359
H      0.353748     1.115493    -0.008646
6
Family_1 [H+].[H][C-]=C([H])[H] | RMSD: 0.2338 | 404.00 to state    1 from traj    1 on state    2
C     -1.653252     0.143505    -0.024984
H     -1.010529    -0.985287    -0.167576
H     -2.687193     0.242562     0.278905
C     -0.866802     1.460075     0.019983
H     -2.153513     3.308284    -0.083690
H      0.147683     1.081522     0.028673
6
Family_1 [H+].[H][C-]=C([H])[H] | RMSD: 1.0398 | 7272.00 to state    1 from traj    1 on state    2
C     -1.767550     0.391792     0.069968
H     -1.672069    -0.931697     0.432016
H     -2.173116     0.239255    -0.904368
C     -0.666286     1.267793    -0.023490
H     -2.871940     1.581187     0.459790
H     -0.013777     2.091002    -0.544534
6
Family_1 [H+].[H][C-]=C([H])[H] | RMSD: 1.0339 | 10356.00 to state    1 from traj    1 on state    2
C     -1.432559     0.203511    -0.108888
H     -1.579923    -0.907782     0.988758
H     -2.791849    -0.367671    -0.200618
C     -1.065250     1.632245     0.091147
H     -1.165751     2.557172     0.155292
H     -0.431094    -0.401172    -0.735322
6
Family_1 [H+].[H][C-]=C([H])[H] | RMSD: 0.1861 | 1680.00 to state    1 from traj    1 on state    2
C     -1.637454     0.181482     0.024432
H     -1.279493    -0.819217    -0.086811
H     -2.788929     0.129196    -0.163863
C     -0.839715     1.399664    -0.012583
H     -2.440822     3.370636     0.133268
H      0.294691     1.233784    -0.027064
6
Family_1 [H+].[H][C-]=C([H])[H] | RMSD: 0.2820 | 3340.00 to state    1 from traj    1 on state    2
C     -1.633517     0.196567     0.006036
H     -1.426074    -0.783865     0.173277
H     -2.753704     0.378347    -0.174123
C     -0.830076     1.419190    -0.035419
H     -2.548183     2.837150     0.280363
H      0.351629     1.070358     0.067325
6
Family_1 [H+].[H][C-]=C([H])[H] | RMSD: 0.4365 | 4604.00 to state    1 from traj    1 on state    2
C     -1.624168     0.064783    -0.004274
H     -1.147522    -0.760493    -0.286470
H     -2.758781    -0.020028     0.157738
C     -0.936387     1.503723     0.033437
H     -1.607711     3.604379    -0.158272
H      0.293052     1.241163    -0.063780
6
Family_1 [H+].[H][C-]=C([H])[H] | RMSD: 0.8741 | 8020.00 to state    1 from traj    1 on state    2
C     -1.535792     0.176079    -0.034704
H     -1.401323    -0.573579    -0.771459
H     -2.101897     0.266030     0.927383
C     -1.041910     1.515562    -0.003863
H     -1.434835     2.576534    -0.381346
H     -0.078588     0.328791     0.681703
6
Family_1 [H+].[H][C-]=C([H])[H] | RMSD: 0.9415 | 17064.00 to state    1 from traj    1 on state    2
C     -1.392857     0.221485    -0.060630
H     -1.914587    -0.964817     0.961478
H     -2.678148     0.019012    -0.536826
C     -1.039102     1.531391     0.066737
H     -1.408876     2.563851     0.272950
H     -0.751668     0.250075    -0.773655
6
Family_1 [H+].[H][C-]=C([H])[H] | RMSD: 1.0798 | 1548.00 to state    1 from traj    1 on state    2
C     -1.384055     0.203652    -0.044148
H     -1.500000    -1.272313     0.604995
H     -2.460078    -0.048169    -0.409560
C     -1.111965     1.628205     0.088948
H     -1.060154     2.708902     0.062889
H     -0.969711    -0.461421    -0.795424
6
Family_1 [H+].[H][C-]=C([H])[H] | RMSD: 0.9419 | 8184.00 to state    1 from traj    1 on state    2
C     -1.617332     0.185912    -0.028075
H     -1.101531    -0.806578    -0.499796
H     -2.148410    -0.217319     0.773970
C     -0.991280     1.548843    -0.105221
H     -1.151753     2.547095     0.100963
H     -0.246639     0.560843     1.209889
6
Family_1 [H+].[H][C-]=C([H])[H] | RMSD: 0.2112 | 364.00 to state    1 from traj    1 on state    2
C     -1.676373     0.168817     0.007693
H     -1.182981    -0.844606     0.150104
H     -2.752954     0.351289    -0.189987
C     -0.797173     1.437138    -0.017540
H     -2.495805     2.939444     0.222136
H      0.174005     1.172654    -0.068200
6
Family_1 [H+].[H][C-]=C([H])[H] | RMSD: 0.9169 | 7412.00 to state    1 from traj    1 on state    2
C     -1.587457     0.232837    -0.008923
H     -1.424674    -0.739950     0.432173
H     -2.480353     0.044574    -0.639651
C     -0.903417     1.436463     0.187951
H     -1.703726     2.446097    -0.292376
H     -0.442509     1.113265    -1.636671
6
Family_1 [H+].[H][C-]=C([H])[H] | RMSD: 0.7958 | 8600.00 to state    1 from traj    1 on state    2
C     -1.431955     0.165022    -0.000790
H     -1.936455    -0.457395     0.782657
H     -2.303889     0.596686    -0.720192
C     -1.091253     1.398795    -0.011464
H     -1.406552     2.815420     0.473210
H     -0.019077     1.166178    -0.392942
6
Family_1 [H+].[H][C-]=C([H])[H] | RMSD: 0.4441 | 560.00 to state    1 from traj    1 on state    2
C     -1.577821     0.114767    -0.024885
H     -1.174322    -0.856716    -0.050323
H     -2.635242     0.071532     0.145966
C     -0.962809     1.421546     0.012191
H     -1.733418     3.875070     0.015577
H      0.084593     1.358723     0.036762
6
Family_1 [H+].[H][C-]=C([H])[H] | RMSD: 0.9879 | 3340.00 to state    1 from traj    1 on state    2
C     -1.476383     0.177326    -0.067617
H     -2.717295    -1.307965     0.637457
H     -2.509461     0.242002    -0.061681
C     -0.954823     1.467949    -0.011145
H     -1.600679     2.320344     0.316867
H      0.065200     1.895870     0.042580
6
Family_1 [H+].[H][C-]=C([H])[H] | RMSD: 0.9107 | 10996.00 to state    1 from traj    1 on state    2
C     -1.533210     0.237415    -0.045861
H     -1.063464    -0.733514    -0.032390
H     -2.580678    -0.033500     0.522453
C     -1.010343     1.570856    -0.109101
H     -1.572905     2.398473     0.318947
H     -0.206503    -0.423410     1.034189
6
Family_1 [H+].[H][C-]=C([H])[H] | RMSD: 1.0080 | 2400.00 to state    1 from traj    1 on state    2
C     -1.355231     0.173963     0.016915
H     -1.767934    -0.189071    -0.966185
H     -3.082730     0.619807     0.608099
C     -1.063816     1.524136     0.019392
H     -1.605686     2.276149    -0.528556
H     -0.450770    -0.186054     0.450728
6
Family_1 [H+].[H][C-]=C([H])[H] | RMSD: 0.9866 | 3536.00 to state    1 from traj    1 on state    2
C     -1.352173     0.189659    -0.007586
H     -1.575825    -0.647412    -0.860508
H     -3.047479     0.852237     0.706427
C     -1.067881     1.536328     0.030596
H     -1.745899     2.336504    -0.530840
H     -0.525923    -0.352808     0.407459
6
Family_1 [H+].[H][C-]=C([H])[H] | RMSD: 1.0168 | 4272.00 to state    1 from traj    1 on state    2
C     -1.453697     0.157802     0.019890
H     -1.268800    -1.372041    -0.777401
H     -2.465954     0.130270     0.479544
C     -1.076201     1.642868    -0.044282
H     -1.009437     2.650181    -0.162489
H     -0.842077    -0.109784     0.747718
6
Family_1 [H+].[H][C-]=C([H])[H] | RMSD: 0.2666 | 500.00 to state    1 from traj    1 on state    2
C     -1.644767     0.122780    -0.023326
H     -1.398017    -0.915450    -0.065210
H     -2.638685     0.242434     0.182328
C     -0.847206     1.452871     0.015517
H     -2.290371     3.332971    -0.020191
H      0.288904     1.319916    -0.007161
6
Family_1 [H+].[H][C-]=C([H])[H] | RMSD: 0.2759 | 564.00 to state    1 from traj    1 on state    2
C     -1.635743     0.181304    -0.037883
H     -1.413228    -0.883366     0.088779
H     -2.733412     0.203903     0.169267
C     -0.814170     1.394666     0.015433
H     -2.576922     3.332096     0.047834
H      0.184222     1.323443    -0.041651
6
Family_1 [H+].[H][C-]=C([H])[H] | RMSD: 0.3187 | 5792.00 to state    1 from traj    1 on state    2
C     -1.627762     0.164553     0.016952
H     -1.099713    -0.867797     0.320165
H     -2.626499     0.023280    -0.420900
C     -0.909402     1.460401    -0.040114
H     -1.978392     3.310039     0.414670
H      0.204927     0.926874    -0.041234
6
Family_1 [H+].[H][C-]=C([H])[H] | RMSD: 0.3820 | 7368.00 to state    1 from traj    1 on state    2
C     -1.671253     0.244431     0.046059
H     -1.347946    -0.712176     0.056034
H     -2.679692     0.374801    -0.384295
C     -0.779532     1.387627    -0.038068
H     -2.721789     2.536509     0.280631
H      0.220486     1.108613    -0.050875
6
Family_1 [H+].[H][C-]=C([H])[H] | RMSD: 0.2234 | 8420.00 to state    1 from traj    1 on state    2
C     -1.657094     0.194810     0.014710
H     -1.036957    -0.842882     0.133013
H     -2.685757    -0.064584    -0.250321
C     -0.872034     1.446722    -0.028700
H     -2.200336     3.253614     0.287486
H      0.327613     0.848704    -0.006763
6
Family_1 [H+].[H][C-]=C([H])[H] | RMSD: 1.0118 | 4112.00 to state    1 from traj    1 on state    2
C     -1.598531     0.166001     0.255641
H     -1.121188    -0.722317    -0.383896
H     -1.839456     0.873492    -1.759649
C     -1.018272     1.401072    -0.038127
H     -1.473708     2.601565     0.322826
H     -0.116378     1.329344    -0.774383
6
Family_1 [H+].[H][C-]=C([H])[H] | RMSD: 0.9338 | 1508.00 to state    1 from traj    1 on state    2
C     -1.632702     0.212900    -0.029110
H     -1.285596    -0.639601     0.518310
H     -2.612748    -0.288997    -0.508106
C     -0.868657     1.440761     0.155765
H     -1.402141     2.476950    -0.173388
H     -0.625837     1.501983    -1.349274
6
Family_1 [H+].[H][C-]=C([H])[H] | RMSD: 0.2604 | 660.00 to state    1 from traj    1 on state    2
C     -1.638725     0.158630     0.003663
H     -1.359641    -0.857191     0.265404
H     -2.738943     0.272320    -0.251225
C     -0.829219     1.423495    -0.034558
H     -2.424690     3.211898     0.337613
H      0.198792     1.275694     0.013060
6
Family_1 [H+].[H][C-]=C([H])[H] | RMSD: 0.2125 | 1636.00 to state    1 from traj    1 on state    2
C     -1.639731     0.225303    -0.005471
H     -1.368641    -0.875035     0.087223
H     -2.737741     0.115677    -0.052588
C     -0.812666     1.416151    -0.012736
H     -2.532108     2.929160     0.171210
H      0.128741     1.025988     0.007820
6
Family_1 [H+].[H][C-]=C([H])[H] | RMSD: 0.4744 | 3272.00 to state    1 from traj    1 on state    2
C     -1.654540     0.129553     0.021174
H     -1.257286    -0.588477     0.421787
H     -2.513163    -0.154920    -0.506420
C     -0.897228     1.455579    -0.064124
H     -1.862447     3.385488     0.542015
H      0.307225     1.224808     0.051112
6
Family_1 [H+].[H][C-]=C([H])[H] | RMSD: 0.2736 | 1244.00 to state    1 from traj    1 on state    2
C     -1.647752     0.215640     0.009289
H     -1.346178    -0.703549     0.000184
H     -2.690694     0.053782    -0.092890
C     -0.813517     1.358161    -0.021712
H     -2.702687     3.435235     0.193509
H      0.335542     1.216446     0.043938
6
Family_1 [H+].[H][C-]=C([H])[H] | RMSD: 0.6626 | 2492.00 to state    1 from traj    1 on state    2
C     -1.640857     0.199541    -0.066939
H     -1.064619    -0.570943     0.215074
H     -2.690603     0.324923     0.489898
C     -0.824086     1.338293    -0.095533
H     -2.078648     2.953209     0.378459
H     -0.526378     1.723303     0.849256
6
Family_1 [H+].[H][C-]=C([H])[H] | RMSD: 0.3149 | 576.00 to state    1 from traj    1 on state    2
C     -1.640285     0.169241    -0.043886
H     -1.359080    -0.870304    -0.098263
H     -2.778263     0.049691     0.333645
C     -0.836254     1.413804     0.039901
H     -2.388351     3.404625    -0.125954
H      0.303617     1.307757    -0.065221
6
Family_1 [H+].[H][C-]=C([H])[H] | RMSD: 0.3533 | 2240.00 to state    1 from traj    1 on state    2
C     -1.630078     0.203898     0.037052
H     -1.385083    -0.841984    -0.425594
H     -2.710571     0.611677     0.021996
C     -0.808678     1.393587     0.015045
H     -2.699283     2.794826    -0.142586
H      0.122653     1.155185    -0.077870
6
Family_1 [H+].[H][C-]=C([H])[H] | RMSD: 0.3535 | 2312.00 to state    1 from traj    1 on state    2
C     -1.609879     0.185628     0.043076
H     -1.531633    -0.797856    -0.451679
H     -2.727458     0.565098    -0.008199
C     -0.829669     1.417413     0.011765
H     -2.601734     2.789845    -0.141986
H      0.197974     1.096415    -0.054882
6
Family_1 [H+].[H][C-]=C([H])[H] | RMSD: 0.5390 | 4568.00 to state    1 from traj    1 on state    2
C     -1.606122     0.092327    -0.065941
H     -1.074770    -0.908999    -0.195347
H     -2.451809     0.039008     0.578780
C     -0.975374     1.510277     0.046862
H     -1.458635     3.495231    -0.237579
H      0.013786     1.033474     0.078203
6
Family_1 [H+].[H][C-]=C([H])[H] | RMSD: 0.9568 | 8768.00 to state    1 from traj    1 on state    2
C     -1.727723     0.232270    -0.010846
H     -1.448486    -0.210978    -0.857980
H     -2.409540    -0.064242     0.932547
C     -0.706504     1.346479    -0.063421
H     -2.373189     2.405025    -0.200766
H     -0.495028     1.813146     1.007854
6
Family_1 [H+].[H][C-]=C([H])[H] | RMSD: 1.0517 | 1264.00 to state    1 from traj    1 on state    2
C     -1.436471     0.225110    -0.001446
H     -1.477495    -1.222910     0.577344
H     -2.379998    -0.332441    -0.668880
C     -1.088062     1.623516     0.039689
H     -1.032094     2.629826     0.269453
H     -0.760612    -0.347276    -0.636884
6
Family_1 [H+].[H][C-]=C([H])[H] | RMSD: 1.1105 | 2240.00 to state    1 from traj    1 on state    2
C     -1.371531     0.210874    -0.001584
H     -1.636406    -0.836474     0.485288
H     -2.226831    -0.099142    -0.654429
C     -1.152457     1.608390     0.090764
H     -1.220283     2.837524     0.054502
H     -0.573161    -0.824843    -0.951282
6
Family_1 [H+].[H][C-]=C([H])[H] | RMSD: 0.9984 | 5244.00 to state    1 from traj    1 on state    2
C     -1.299804     0.225415    -0.063070
H     -1.658628    -0.649336     0.727523
H     -2.825538     0.432154    -0.352745
C     -1.155700     1.533416     0.099354
H     -1.505351     2.712341     0.032311
H     -0.483200    -0.698003    -0.842711
6
Family_1 [H+].[H][C-]=C([H])[H] | RMSD: 0.7336 | 1888.00 to state    1 from traj    1 on state    2
C     -1.589039     0.205257     0.114353
H     -1.034567    -0.682464    -0.329927
H     -2.451266     0.223380    -0.834252
C     -0.954250     1.307400     0.061644
H     -1.572386     3.336980    -0.100284
H     -0.368481     1.852591    -0.835946
6
Family_1 [H+].[H][C-]=C([H])[H] | RMSD: 0.6914 | 2036.00 to state    1 from traj    1 on state    2
C     -1.603148     0.199380     0.092900
H     -0.999018    -0.578905    -0.263727
H     -2.137632     0.259943    -0.679111
C     -0.955593     1.307023     0.050267
H     -1.653812     3.427872    -0.059691
H     -0.452117     1.696099    -0.706677
6
Family_1 [H+].[H][C-]=C([H])[H] | RMSD: 0.9271 | 1972.00 to state    1 from traj    1 on state    2
C     -1.660376     0.073103    -0.025149
H     -1.284992    -0.653198    -0.549679
H     -2.421613     0.206181     0.876043
C     -0.857220     1.584961    -0.134629
H     -1.561969     2.457196     0.131250
H     -0.464272     0.987697     1.442956
6
Family_1 [H+].[H][C-]=C([H])[H] | RMSD: 0.9951 | 2188.00 to state    1 from traj    1 on state    2
C     -1.693735     0.048469    -0.059247
H     -1.859470    -0.607102     0.966495
H     -2.413012     0.805976    -0.438172
C     -0.699533     1.542324     0.086346
H     -2.341593     1.971055     0.149516
H     -0.600230     1.629515    -1.004014
6
Family_1 [H+].[H][C-]=C([H])[H] | RMSD: 0.3700 | 492.00 to state    1 from traj    1 on state    2
C     -1.609614     0.156533    -0.019627
H     -1.349356    -0.993757    -0.278130
H     -2.682973     0.382810     0.273172
C     -0.881135     1.389055     0.050910
H     -2.404881     3.563923    -0.220994
H      0.384464     1.385118    -0.150086
6
Family_1 [H+].[H][C-]=C([H])[H] | RMSD: 0.9328 | 7084.00 to state    1 from traj    1 on state    2
C     -1.603778     0.254797     0.189777
H     -1.150400    -0.620320    -0.204601
H     -1.728119     0.613903    -1.395107
C     -0.987696     1.354472    -0.016601
H     -1.589202     2.355565     0.265561
H     -0.384813     1.230140    -0.732654
6
Family_1 [H+].[H][C-]=C([H])[H] | RMSD: 0.2213 | 380.00 to state    1 from traj    1 on state    2
C     -1.634379     0.157703    -0.014572
H     -1.313594    -0.841938    -0.136335
H     -2.711358     0.243781     0.176013
C     -0.836363     1.415653     0.012136
H     -2.415954     3.346543    -0.030421
H      0.149767     1.258834     0.016486
6
Family_1 [H+].[H][C-]=C([H])[H] | RMSD: 0.2988 | 568.00 to state    1 from traj    1 on state    2
C     -1.604200     0.178204    -0.007984
H     -1.396194    -0.940748    -0.159292
H     -2.700416     0.371188     0.104497
C     -0.864671     1.374646     0.031413
H     -2.556193     3.519901    -0.083404
H      0.339364     1.301221    -0.144253
6
Family_1 [H+].[H][C-]=C([H])[H] | RMSD: 0.3777 | 1988.00 to state    1 from traj    1 on state    2
C     -1.669154     0.257535    -0.014669
H     -1.302401    -0.690899    -0.154276
H     -2.633598     0.378219     0.186542
C     -0.790752     1.343868     0.039401
H     -2.932786     2.894954    -0.131023
H      0.448512     1.090740    -0.199227
6
Family_1 [H+].[H][C-]=C([H])[H] | RMSD: 0.3667 | 2128.00 to state    1 from traj    1 on state    2
C     -1.673654     0.231350    -0.016930
H     -1.342684    -0.865104    -0.213347
H     -2.752569     0.334214     0.260627
C     -0.760755     1.364882     0.029968
H     -2.893014     2.969577    -0.131364
H      0.264196     1.295947    -0.074551
6
Family_1 [H+].[H][C-]=C([H])[H] | RMSD: 0.9516 | 3496.00 to state    1 from traj    1 on state    2
C     -1.402809     0.241517    -0.071851
H     -1.385985    -0.399986     0.733579
H     -3.357424    -0.338712    -0.288509
C     -1.058862     1.520793     0.086668
H     -1.186460     2.583696     0.075914
H     -0.469360    -0.089295    -0.700819
6
Family_1 [H+].[H][C-]=C([H])[H] | RMSD: 1.0226 | 4852.00 to state    1 from traj    1 on state    2
C     -1.406145     0.187325    -0.027761
H     -1.138880    -0.164282     0.789007
H     -3.152468     0.109370    -0.655810
C     -1.089990     1.525932     0.075928
H     -1.109831     2.589340     0.172548
H     -0.587391    -0.194217    -0.882966
6
Family_1 [H+].[H][C-]=C([H])[H] | RMSD: 0.9057 | 5672.00 to state    1 from traj    1 on state    2
C     -1.391570     0.130190    -0.041742
H     -1.693225    -0.676521     0.666647
H     -2.849477     0.417469    -0.489528
C     -1.073421     1.582821     0.116732
H     -1.354330     2.619299    -0.036004
H     -0.462633    -0.017104    -1.037942
6
Family_1 [H+].[H][C-]=C([H])[H] | RMSD: 0.1797 | 448.00 to state    1 from traj    1 on state    2
C     -1.671302     0.160331     0.015919
H     -1.316352    -0.833915    -0.084487
H     -2.646025     0.149298    -0.088196
C     -0.824832     1.457102    -0.004677
H     -2.380284     3.057222     0.084018
H      0.354074     1.109405    -0.048571
6
Family_1 [H+].[H][C-]=C([H])[H] | RMSD: 0.2879 | 532.00 to state    1 from traj    1 on state    2
C     -1.615426     0.245716    -0.020141
H     -1.383370    -0.794258    -0.256018
H     -2.596472     0.162102     0.278122
C     -0.849807     1.363221     0.044326
H     -2.607071     3.186601    -0.189284
H      0.230117     1.028796    -0.124282
6
Family_1 [H+].[H][C-]=C([H])[H] | RMSD: 0.8792 | 2824.00 to state    1 from traj    1 on state    2
C     -1.614835     0.156306     0.015027
H     -1.094432    -0.080556     0.985696
H     -2.308031    -0.164087    -0.853873
C     -0.984299     1.411333    -0.119957
H     -1.327970     3.150251     0.968667
H     -0.030836     1.169738     0.146540
6
Family_1 [H+].[H][C-]=C([H])[H] | RMSD: 0.9994 | 8900.00 to state    1 from traj    1 on state    2
C     -1.346421     0.219491    -0.001943
H     -1.907212    -0.475038     0.651760
H     -3.100105     0.037909    -0.590498
C     -1.056802     1.578159    -0.038837
H     -1.585028     2.350209     0.491509
H     -0.503335    -0.578481    -0.070135
6
Family_1 [H+].[H][C-]=C([H])[H] | RMSD: 0.3235 | 520.00 to state    1 from traj    1 on state    2
C     -1.620284     0.219322    -0.001485
H     -1.371093    -0.732743    -0.235008
H     -2.745544     0.218081     0.132972
C     -0.818562     1.332902     0.023213
H     -2.802938     3.517073    -0.081079
H      0.248369     1.256613    -0.079070
6
Family_1 [H+].[H][C-]=C([H])[H] | RMSD: 0.9952 | 16112.00 to state    1 from traj    1 on state    2
C     -1.483802     0.235359    -0.014126
H     -1.161608    -0.727330     0.581057
H     -2.423230    -0.258019    -0.578358
C     -1.133751     1.565342     0.064428
H     -0.831952     2.458625     0.156359
H     -0.125013    -0.175025    -0.761718
6
Family_1 [H+].[H][C-]=C([H])[H] | RMSD: 0.8211 | 2072.00 to state    1 from traj    1 on state    2
C     -1.696376     0.328890    -0.028092
H     -1.308469    -0.286509     0.776919
H     -2.482068    -0.207755    -0.551012
C     -0.782922     1.334733     0.063139
H     -2.211379     2.078094     0.237349
H     -0.187281     1.347800    -0.884141
6
Family_1 [H+].[H][C-]=C([H])[H] | RMSD: 0.9495 | 4116.00 to state    1 from traj    1 on state    2
C     -1.641239     0.132591    -0.075106
H     -0.949496    -0.634472     0.176128
H     -2.530282     0.141504     0.695637
C     -0.884360     1.515317    -0.163959
H     -1.401733     2.549419     0.534675
H     -0.755971     1.062428     1.438901
6
Family_1 [H+].[H][C-]=C([H])[H] | RMSD: 0.4957 | 3272.00 to state    1 from traj    1 on state    2
C     -1.649889     0.086209    -0.004785
H     -1.400456    -0.805814     0.534669
H     -2.612745    -0.080767    -0.414057
C     -0.888026     1.501095    -0.050060
H     -1.800188     3.363897     0.515046
H      0.322660     1.363704     0.014572
6
Family_1 [H+].[H][C-]=C([H])[H] | RMSD: 0.4369 | 4396.00 to state    1 from traj    1 on state    2
C     -1.669804     0.082764     0.053088
H     -0.919666    -0.714643     0.001312
H     -2.723404    -0.205846    -0.476980
C     -0.885657     1.512285    -0.025501
H     -1.649253     3.532225     0.258753
H      0.010657     1.136997    -0.115089
6
Family_1 [H+].[H][C-]=C([H])[H] | RMSD: 0.9434 | 1764.00 to state    1 from traj    1 on state    2
C     -1.445596     0.076316    -0.107928
H     -2.151247    -0.423260     0.247878
H     -2.557086     1.442040     0.658194
C     -0.999772     1.366155     0.011444
H     -1.818907     2.610865    -0.076787
H     -0.066260     1.937160     0.317105
6
Family_1 [H+].[H][C-]=C([H])[H] | RMSD: 0.9739 | 5260.00 to state    1 from traj    1 on state    2
C     -1.364786     0.198078    -0.033655
H     -1.776329    -0.865536     1.009643
H     -2.584446     0.450934    -0.796129
C     -1.114681     1.512995     0.072028
H     -1.331215     2.622199     0.301099
H     -0.495188     0.158633    -0.975137
6
Family_1 [H+].[H][C-]=C([H])[H] | RMSD: 1.0158 | 4592.00 to state    1 from traj    1 on state    2
C     -1.401009     0.209383    -0.100309
H     -1.813714    -0.861782     1.084528
H     -2.282594    -0.088909    -0.283655
C     -1.143007     1.565412     0.050084
H     -0.981789     2.575320     0.330752
H     -0.339941    -0.017687    -0.536436
6
Family_1 [H+].[H][C-]=C([H])[H] | RMSD: 0.9512 | 5664.00 to state    1 from traj    1 on state    2
C     -1.423583     0.258707    -0.126821
H     -1.686442    -0.958469     1.111507
H     -2.628491    -0.051744    -0.122921
C     -1.014498     1.541870     0.083076
H     -1.679520     2.535698     0.217968
H     -0.685869    -0.225757    -0.688574
6
Family_1 [H+].[H][C-]=C([H])[H] | RMSD: 1.0060 | 3160.00 to state    1 from traj    1 on state    2
C     -1.619476     0.270937    -0.036112
H     -1.042906    -0.819954    -0.428600
H     -2.146369     0.329919     0.890297
C     -0.915962     1.421383    -0.151339
H     -1.700403     2.173090     0.246434
H     -0.630572     0.906622     1.522193
6
Family_1 [H+].[H][C-]=C([H])[H] | RMSD: 0.6280 | 4280.00 to state    1 from traj    1 on state    2
C     -1.564645     0.082814     0.035463
H     -0.922715    -0.878555     0.026872
H     -2.526890     0.044801    -0.395366
C     -1.051234     1.496271    -0.012813
H     -1.025057     3.633922     0.201007
H     -0.087081     1.138791    -0.105682
6
Family_1 [H+].[H][C-]=C([H])[H] | RMSD: 0.4885 | 3220.00 to state    1 from traj    1 on state    2
C     -1.630536     0.199927    -0.024695
H     -1.781811    -0.768083     0.393570
H     -2.722900     0.422815    -0.105944
C     -0.790113     1.408375    -0.031972
H     -2.735934     2.648437     0.329245
H      0.352610     1.287643     0.055083
6
Family_1 [H+].[H][C-]=C([H])[H] | RMSD: 0.4845 | 3320.00 to state    1 from traj    1 on state    2
C     -1.636916     0.189973    -0.026815
H     -1.829436    -0.885850     0.350678
H     -2.708099     0.328812    -0.051826
C     -0.770456     1.426643    -0.036068
H     -2.714886     2.694809     0.323803
H      0.206170     1.353975     0.123359
6
Family_1 [H+].[H][C-]=C([H])[H] | RMSD: 0.2893 | 596.00 to state    1 from traj    1 on state    2
C     -1.600054     0.177804    -0.008733
H     -1.156245    -0.845166     0.419480
H     -2.750621     0.536385    -0.249298
C     -0.890396     1.403143    -0.051829
H     -2.368354     3.202293     0.443501
H      0.218912     1.023249     0.104674
6
Family_1 [H+].[H][C-]=C([H])[H] | RMSD: 0.2087 | 388.00 to state    1 from traj    1 on state    2
C     -1.615795     0.154733     0.004839
H     -1.177905    -0.733448     0.120057
H     -2.608692     0.263217    -0.167082
C     -0.902925     1.407648    -0.018442
H     -2.221549     3.499013     0.223600
H      0.288694     1.109215    -0.017761
6
Family_1 [H+].[H][C-]=C([H])[H] | RMSD: 0.3095 | 588.00 to state    1 from traj    1 on state    2
C     -1.614878     0.169045     0.002866
H     -1.182538    -0.957165     0.162747
H     -2.744658     0.234490    -0.196596
C     -0.864934     1.375131    -0.021802
H     -2.404150     3.723569     0.271705
H      0.148271     1.354030    -0.015509
6
Family_1 [H+].[H][C-]=C([H])[H] | RMSD: 0.5358 | 5976.00 to state    1 from traj    1 on state    2
C     -1.563932     0.204795    -0.006039
H     -1.448048    -0.626346    -0.711882
H     -2.553567    -0.003555     0.450292
C     -0.917478     1.385086     0.097010
H     -2.053610     3.331300    -0.568290
H     -0.108804     1.108921    -0.257383
6
Family_1 [H+].[H][C-]=C([H])[H] | RMSD: 0.9034 | 2228.00 to state    1 from traj    1 on state    2
C     -1.630250     0.203600     0.040752
H     -1.153893    -0.735981     0.107323
H     -2.415902     0.031414    -0.717342
C     -0.884185     1.460982     0.156894
H     -1.530108     2.437433    -0.296420
H     -0.670619     1.187335    -1.451933
6
Family_1 [H+].[H][C-]=C([H])[H] | RMSD: 0.9852 | 2348.00 to state    1 from traj    1 on state    2
C     -1.631073     0.271570     0.066290
H     -1.208644    -0.836956     0.038945
H     -2.169661     0.088834    -0.853584
C     -0.886573     1.432071     0.152592
H     -1.655504     2.132867    -0.282116
H     -0.698442     1.070039    -1.514652
6
Family_1 [H+].[H][C-]=C([H])[H] | RMSD: 0.2451 | 448.00 to state    1 from traj    1 on state    2
C     -1.640075     0.120639     0.015200
H     -1.046542    -0.826322    -0.217535
H     -2.734745     0.269032    -0.005213
C     -0.881977     1.429377     0.009696
H     -2.149461     3.578715    -0.019582
H      0.251002     1.263901    -0.057608
6
Family_1 [H+].[H][C-]=C([H])[H] | RMSD: 0.4474 | 1836.00 to state    1 from traj    1 on state    2
C     -1.658143     0.319693     0.012421
H     -1.331021    -0.742922    -0.161363
H     -2.835256     0.221953     0.001991
C     -0.780485     1.365158     0.012276
H     -2.810438     2.308225    -0.025523
H      0.302918     0.891426    -0.112663
6
Family_1 [H+].[H][C-]=C([H])[H] | RMSD: 0.1941 | 620.00 to state    1 from traj    1 on state    2
C     -1.616649     0.138616     0.007539
H     -1.329338    -0.967219     0.061827
H     -2.904253     0.224389    -0.157418
C     -0.850050     1.454746    -0.012387
H     -2.259846     3.294115     0.173815
H      0.154111     1.217561    -0.023739
6
Family_1 [H+].[H][C-]=C([H])[H] | RMSD: 0.3367 | 332.00 to state    1 from traj    1 on state    2
C     -1.604628     0.167075    -0.007865
H     -1.185374    -0.693392     0.413710
H     -2.707725     0.053480    -0.282135
C     -0.927170     1.433999    -0.049146
H     -2.018739     3.372891     0.449930
H      0.348216     0.943965     0.094536
6
Family_1 [H+].[H][C-]=C([H])[H] | RMSD: 0.3003 | 1636.00 to state    1 from traj    1 on state    2
C     -1.601969     0.261790     0.006320
H     -1.359037    -0.884084     0.227954
H     -2.580305     0.451005    -0.212942
C     -0.858470     1.362736    -0.044513
H     -2.714793     2.949234     0.352320
H      0.240225     0.881345     0.084480
6
Family_1 [H+].[H][C-]=C([H])[H] | RMSD: 0.1699 | 2844.00 to state    1 from traj    1 on state    2
C     -1.603918     0.258857     0.007058
H     -1.077657    -0.861224    -0.238580
H     -2.661465     0.222119     0.070240
C     -0.873777     1.368794     0.019602
H     -2.518820     3.225478    -0.062853
H      0.049645     0.773893    -0.089752
6
Family_1 [H+].[H][C-]=C([H])[H] | RMSD: 0.2788 | 612.00 to state    1 from traj    1 on state    2
C     -1.607124     0.173408     0.005593
H     -1.270972    -0.889372     0.227757
H     -2.658447     0.194421    -0.239188
C     -0.888734     1.394358    -0.044534
H     -2.282636     3.539581     0.369508
H      0.220179     1.229194     0.102652
6
Family_1 [H+].[H][C-]=C([H])[H] | RMSD: 0.4736 | 4596.00 to state    1 from traj    1 on state    2
C     -1.582263     0.067338    -0.000767
H     -1.117491    -0.777281    -0.179955
H     -2.713042     0.020655     0.044925
C     -0.980775     1.500038     0.020542
H     -1.405026     3.659437    -0.060189
H      0.044191     1.175664    -0.043703
6
Family_1 [H+].[H][C-]=C([H])[H] | RMSD: 1.0996 | 6324.00 to state    1 from traj    1 on state    2
C     -1.532342     0.281346     0.034346
H     -1.176567    -0.568251    -0.679666
H     -2.397448    -0.146907     0.535358
C     -0.999010     1.522398    -0.188132
H     -1.593010     2.275096     0.340562
H     -0.401921    -0.297947     1.632931
6
Family_1 [H+].[H][C-]=C([H])[H] | RMSD: 0.8548 | 7120.00 to state    1 from traj    1 on state    2
C     -1.352913     0.214352     0.038476
H     -1.996241    -0.328855    -0.642335
H     -2.932401     0.415213     0.143489
C     -1.038000     1.511561     0.013560
H     -1.916786     2.418952    -0.288100
H     -0.396927    -0.315907     0.163621
6
Family_1 [H+].[H][C-]=C([H])[H] | RMSD: 0.9471 | 3020.00 to state    1 from traj    1 on state    2
C     -1.469358     0.097464    -0.044199
H     -2.123652    -0.654665    -0.693492
H     -2.397657     0.930993     0.965415
C     -1.010021     1.475950    -0.015943
H     -1.635878     2.451089    -0.363906
H     -0.031046     1.279116     0.805333
6
Family_1 [H+].[H][C-]=C([H])[H] | RMSD: 0.9100 | 3176.00 to state    1 from traj    1 on state    2
C     -1.702226     0.216570     0.181906
H     -1.129654    -0.770414    -0.080786
H     -1.949964     0.404288    -1.420582
C     -0.883298     1.404773    -0.022778
H     -1.701328     2.223116     0.340332
H     -0.142505     1.578442    -0.738357
6
Family_1 [H+].[H][C-]=C([H])[H] | RMSD: 0.3792 | 616.00 to state    1 from traj    1 on state    2
C     -1.641328     0.248385    -0.002532
H     -1.556620    -0.788649    -0.008345
H     -2.729924     0.379983     0.009528
C     -0.776040     1.361781    -0.000674
H     -2.916020     2.776321     0.076161
H      0.275432     1.200947    -0.042419
6
Family_1 [H+].[H][C-]=C([H])[H] | RMSD: 0.4020 | 1936.00 to state    1 from traj    1 on state    2
C     -1.647702     0.285289    -0.004437
H     -1.272680    -0.839816    -0.005836
H     -2.550865     0.625354     0.054385
C     -0.798210     1.322929    -0.008856
H     -3.064873     2.804666     0.102921
H      0.301405     1.001606     0.003649
6
Family_1 [H+].[H][C-]=C([H])[H] | RMSD: 0.3407 | 2124.00 to state    1 from traj    1 on state    2
C     -1.649848     0.275115     0.009236
H     -1.255622    -0.680052    -0.061582
H     -2.861902     0.405693    -0.019096
C     -0.784798     1.339201    -0.012678
H     -2.940054     2.765744     0.102373
H      0.336320     1.027775     0.016031
6
Family_1 [H+].[H][C-]=C([H])[H] | RMSD: 0.3296 | 616.00 to state    1 from traj    1 on state    2
C     -1.628583     0.233612     0.011081
H     -1.107935    -0.778511    -0.185572
H     -2.650943     0.353096     0.005448
C     -0.833275     1.308702     0.014933
H     -2.899031     3.681655    -0.003923
H      0.260896     1.120859    -0.129210
6
Family_1 [H+].[H][C-]=C([H])[H] | RMSD: 0.2827 | 944.00 to state    1 from traj    1 on state    2
C     -1.642388     0.215462    -0.001794
H     -1.295686    -0.916989    -0.070504
H     -2.680753     0.296546     0.028788
C     -0.808625     1.350300     0.004076
H     -2.803432     3.435467     0.061459
H      0.253640     1.282692    -0.050219
6
Family_1 [H+].[H][C-]=C([H])[H] | RMSD: 0.4796 | 1304.00 to state    1 from traj    1 on state    2
C     -1.584336     0.162138    -0.001348
H     -1.268774    -0.728077     0.534571
H     -2.654942    -0.048224    -0.431470
C     -0.935618     1.409116    -0.067806
H     -1.869895     3.579493     0.588133
H      0.088854     1.229078     0.129498
6
Family_1 [H+].[H][C-]=C([H])[H] | RMSD: 0.5050 | 2536.00 to state    1 from traj    1 on state    2
C     -1.605310     0.157923     0.028821
H     -1.204317    -0.567663     0.454284
H     -2.496614    -0.005556    -0.576215
C     -0.933046     1.391351    -0.084028
H     -1.912344     3.615786     0.636371
H      0.127797     1.251611     0.140101
6
Family_1 [H+].[H][C-]=C([H])[H] | RMSD: 0.2631 | 496.00 to state    1 from traj    1 on state    2
C     -1.671139     0.172021    -0.015179
H     -1.221207    -0.895006    -0.152316
H     -2.816357     0.276602     0.179222
C     -0.795834     1.406941     0.029563
H     -2.589095     3.228727    -0.092734
H      0.290605     1.330095    -0.108855
6
Family_1 [H+].[H][C-]=C([H])[H] | RMSD: 0.4663 | 3304.00 to state    1 from traj    1 on state    2
C     -1.623013     0.215707    -0.020143
H     -1.434903    -0.717414    -0.523086
H     -2.579698    -0.136321     0.418015
C     -0.869895     1.392089     0.092661
H     -2.260667     3.280798    -0.467768
H      0.248243     1.169783    -0.294545
6
Family_1 [H+].[H][C-]=C([H])[H] | RMSD: 0.8762 | 7704.00 to state    1 from traj    1 on state    2
C     -1.523508     0.257962     0.008551
H     -0.903736    -0.564579    -0.533374
H     -2.466781    -0.446516     0.321660
C     -1.107274     1.514203    -0.015650
H     -0.987305     2.764317    -0.120608
H     -0.026347    -0.114948     0.413625
6
Family_1 [H+].[H][C-]=C([H])[H] | RMSD: 1.0977 | 24308.00 to state    1 from traj    4 on state    2
C     -1.728050     0.458181     0.035389
H     -1.519800    -0.457922     0.817069
H     -2.426445     0.132780    -0.976401
C     -0.642946     1.204464    -0.004543
H     -3.113221     1.560057     0.549083
H     -0.420224     1.708373    -0.760587
6
Family_1 [H+].[H][C-]=C([H])[H] | RMSD: 1.2077 | 8180.00 to state    1 from traj    1 on state    2
C     -1.414729     0.214381    -0.107525
H     -1.485210    -1.368893     1.109653
H     -2.483798     0.253641    -0.261995
C     -0.989910     1.637985     0.078203
H     -1.652697     2.418006     0.251978
H     -1.457095    -0.620129    -0.753531
6
Family_1 [H+].[H][C-]=C([H])[H] | RMSD: 0.3076 | 476.00 to state    1 from traj    1 on state    2
C     -1.611343     0.119955    -0.002303
H     -1.352988    -1.005337     0.045427
H     -2.674813     0.256238    -0.086678
C     -0.901552     1.437350     0.000759
H     -2.121448     3.573495     0.120630
H      0.360388     1.374088    -0.064261
6
Family_1 [H+].[H][C-]=C([H])[H] | RMSD: 0.2665 | 668.00 to state    1 from traj    1 on state    2
C     -1.591341     0.145481     0.001378
H     -1.289979    -0.916078     0.017175
H     -2.671871     0.217196    -0.090058
C     -0.896256     1.409725    -0.003430
H     -2.173278     3.642206     0.129297
H      0.044816     1.280170    -0.035241
6
Family_1 [H+].[H][C-]=C([H])[H] | RMSD: 0.1970 | 3064.00 to state    1 from traj    1 on state    2
C     -1.650617     0.228373    -0.006329
H     -1.087162    -0.662877    -0.154895
H     -2.786412     0.215455     0.135793
C     -0.827524     1.377165     0.013182
H     -2.632793     3.142628    -0.031191
H      0.303387     0.928543    -0.034646
6
Family_1 [H+].[H][C-]=C([H])[H] | RMSD: 0.2641 | 4100.00 to state    1 from traj    1 on state    2
C     -1.651112     0.222716    -0.001920
H     -1.324782    -0.704075    -0.049636
H     -2.698350     0.336757     0.038565
C     -0.812314     1.404209     0.001836
H     -2.647093     2.770522     0.043721
H      0.291911     0.965711    -0.034932
6
Family_1 [H+].[H][C-]=C([H])[H] | RMSD: 1.0568 | 9948.00 to state    1 from traj    1 on state    2
C     -1.371126     0.251581     0.027081
H     -1.811276    -0.643025    -0.714912
H     -2.726146    -0.353963     0.427671
C     -1.061087     1.521571    -0.104235
H     -1.259758     2.683325     0.065680
H     -0.953063    -0.059822     1.137619
6
Family_1 [H+].[H][C-]=C([H])[H] | RMSD: 1.0474 | 18804.00 to state    1 from traj    1 on state    2
C     -1.526418     0.046869     0.063375
H     -2.150686    -0.605646     0.592331
H     -1.512151     1.653755    -0.889082
C     -0.973178     1.389663    -0.083595
H     -2.343840     2.996498     0.658764
H      0.059348     1.592962    -0.124350
6
Family_1 [H+].[H][C-]=C([H])[H] | RMSD: 0.8651 | 5296.00 to state    1 from traj    1 on state    2
C     -1.644198     0.051909     0.165111
H     -1.275268    -0.727283    -0.514960
H     -2.101262     0.921196    -0.999269
C     -0.914202     1.546604     0.049998
H     -1.569206     2.310077    -0.170036
H     -0.300906     1.203473    -0.882192
6
Family_1 [H+].[H][C-]=C([H])[H] | RMSD: 0.9956 | 1408.00 to state    1 from traj    1 on state    2
C     -1.410751     0.168458     0.051091
H     -1.358822    -1.042670    -0.869086
H     -2.493462     0.090203     0.276618
C     -1.132464     1.618312    -0.034691
H     -0.936486     2.707678    -0.201063
H     -0.638810    -0.290955     0.594827
6
Family_1 [H+].[H][C-]=C([H])[H] | RMSD: 0.4127 | 3344.00 to state    1 from traj    1 on state    2
C     -1.660089     0.291347     0.039286
H     -1.438460    -0.753648     0.112987
H     -2.657389     0.222318    -0.349389
C     -0.781758     1.351266    -0.064097
H     -2.877957     2.647417     0.397351
H      0.338355     1.065884     0.131409
6
Family_1 [H+].[H][C-]=C([H])[H] | RMSD: 0.8884 | 1112.00 to state    1 from traj    1 on state    2
C     -1.731664     0.202020     0.012283
H     -1.647423    -0.536493    -0.829737
H     -2.479999     0.131341     0.684669
C     -0.721799     1.442861    -0.038282
H     -2.264193     1.895213    -0.254197
H     -0.105427     1.664891     0.705776
6
Family_1 [H+].[H][C-]=C([H])[H] | RMSD: 0.3263 | 576.00 to state    1 from traj    1 on state    2
C     -1.663656     0.217612     0.004146
H     -1.217206    -0.641647     0.381728
H     -2.621894     0.239472    -0.305540
C     -0.825876     1.401076    -0.053628
H     -2.505833     2.864314     0.447830
H      0.277675     1.004926     0.062317
6
Family_1 [H+].[H][C-]=C([H])[H] | RMSD: 0.8978 | 3924.00 to state    1 from traj    1 on state    2
C     -1.441645     0.154458     0.050105
H     -1.641706    -0.886530    -0.682183
H     -2.404864     0.431456     0.264957
C     -1.064811     1.609606    -0.100187
H     -1.541690     2.503504     0.070284
H     -0.277325    -0.313623     0.940422
6
Family_1 [H+].[H][C-]=C([H])[H] | RMSD: 1.0553 | 6660.00 to state    1 from traj    1 on state    2
C     -1.369292     0.262594    -0.019491
H     -1.266135    -1.021232     0.565650
H     -2.363502     0.583569    -0.559722
C     -1.142041     1.530641     0.104642
H     -1.512373     2.547704     0.006807
H     -0.665461    -0.722829    -1.030647
6
Family_1 [H+].[H][C-]=C([H])[H] | RMSD: 0.2754 | 400.00 to state    1 from traj    1 on state    2
C     -1.588441     0.138343    -0.003636
H     -1.311477    -0.960695     0.074011
H     -2.739625     0.243742    -0.073928
C     -0.907209     1.420124    -0.020225
H     -2.146675     3.622913     0.199989
H      0.203425     1.278672     0.080969
6
Family_1 [H+].[H][C-]=C([H])[H] | RMSD: 0.8066 | 3020.00 to state    1 from traj    1 on state    2
C     -1.547056     0.154682    -0.026976
H     -1.316587    -0.948309    -0.542787
H     -2.331328     0.053713     0.710929
C     -0.955410     1.509741    -0.055478
H     -1.435472     2.974564    -0.065605
H     -0.829744     0.842130     0.876675
6
Family_1 [H+].[H][C-]=C([H])[H] | RMSD: 0.6525 | 2316.00 to state    1 from traj    1 on state    2
C     -1.606162     0.181631    -0.074103
H     -1.267845    -0.397044     0.762376
H     -2.615354     0.632070    -0.172929
C     -0.860277     1.321733     0.075665
H     -2.171850     2.907970     0.109412
H     -0.287367     1.698220    -0.720754
6
Family_1 [H+].[H][C-]=C([H])[H] | RMSD: 0.2277 | 508.00 to state    1 from traj    1 on state    2
C     -1.618921     0.165788     0.018531
H     -1.299695    -0.894041    -0.222176
H     -2.677462     0.394032    -0.011838
C     -0.843865     1.390032     0.003408
H     -2.513801     3.432884     0.000443
H      0.105009     1.283307    -0.031129
6
Family_1 [H+].[H][C-]=C([H])[H] | RMSD: 0.1860 | 1432.00 to state    1 from traj    1 on state    2
C     -1.658511     0.141422    -0.009121
H     -1.197001    -0.748991    -0.133829
H     -2.733554     0.042331     0.123705
C     -0.847927     1.478761     0.015323
H     -2.179428     3.169556    -0.036086
H      0.244177     0.986351    -0.030968
6
Family_1 [H+].[H][C-]=C([H])[H] | RMSD: 0.2822 | 392.00 to state    1 from traj    1 on state    2
C     -1.622658     0.167563     0.009419
H     -1.076295    -0.791993    -0.356911
H     -2.680241     0.305303     0.128464
C     -0.881348     1.378773     0.034285
H     -2.363741     3.618532    -0.167099
H      0.225498     1.197338    -0.128499
6
Family_1 [H+].[H][C-]=C([H])[H] | RMSD: 0.3893 | 556.00 to state    1 from traj    1 on state    2
C     -1.601915     0.169632    -0.004335
H     -1.195454    -0.707154    -0.295755
H     -2.656571     0.394458     0.184752
C     -0.871281     1.332021     0.038007
H     -2.598536     3.866876    -0.161133
H      0.188654     1.307422    -0.132369
6
Family_1 [H+].[H][C-]=C([H])[H] | RMSD: 0.8085 | 3580.00 to state    1 from traj    1 on state    2
C     -1.567961     0.226117    -0.024727
H     -1.277234    -0.688467    -0.582029
H     -2.535572    -0.020871     0.775281
C     -0.909036     1.420286    -0.081974
H     -1.669423     2.769312    -0.005464
H     -0.734383     1.076840     1.080351
6
Family_1 [H+].[H][C-]=C([H])[H] | RMSD: 0.8787 | 1480.00 to state    1 from traj    1 on state    2
C     -1.470564     0.183872    -0.231173
H     -1.860753    -0.682673     0.607218
H     -2.790896     0.388322     1.221795
C     -1.010608     1.450679     0.080244
H     -1.475883     2.427849    -0.224942
H     -0.039339     1.144539     0.191065
6
Family_1 [H+].[H][C-]=C([H])[H] | RMSD: 0.7186 | 2104.00 to state    1 from traj    1 on state    2
C     -1.577690     0.155996    -0.066843
H     -1.348697    -1.003414     0.263434
H     -2.585007     0.570212     0.071299
C     -0.888184     1.353626     0.135177
H     -1.894362     3.207765    -0.292321
H     -0.521091     1.992097    -0.859946
6
Family_1 [H+].[H][C-]=C([H])[H] | RMSD: 1.1002 | 3528.00 to state    1 from traj    1 on state    2
C     -1.592360     0.375394    -0.035385
H     -1.751472    -0.383039     0.798366
H     -2.592589     0.388438    -0.479982
C     -0.739016     1.202536     0.047333
H     -2.465033     1.828376     0.256659
H     -1.142686     2.118942    -0.720706
6
Family_1 [H+].[H][C-]=C([H])[H] | RMSD: 0.9824 | 4156.00 to state    1 from traj    1 on state    2
C     -1.450939     0.199326    -0.027826
H     -1.486753    -0.818820     0.904859
H     -2.228698     0.218425    -0.746383
C     -1.110694     1.559092     0.079694
H     -1.337138     2.627799     0.247708
H     -0.155524    -0.225316    -1.027516
6
Family_1 [H+].[H][C-]=C([H])[H] | RMSD: 0.9431 | 6560.00 to state    1 from traj    1 on state    2
C     -1.553250     0.300314     0.006378
H     -1.135029    -0.640789     0.542200
H     -2.426140    -0.082847    -0.798090
C     -0.984931     1.430985     0.139751
H     -1.471514     2.321247    -0.062398
H     -0.454884     0.527612    -1.426222
6
Family_1 [H+].[H][C-]=C([H])[H] | RMSD: 1.0433 | 13164.00 to state    1 from traj    1 on state    2
C     -1.524812     0.126705     0.157325
H     -1.798206    -0.999896     0.122272
H     -1.532600     1.418004    -1.181892
C     -1.041868     1.366986    -0.160795
H     -1.753870     2.776135     0.803074
H     -0.063304     1.762245     0.294609
6
Family_1 [H+].[H][C-]=C([H])[H] | RMSD: 0.6593 | 6660.00 to state    1 from traj    1 on state    2
C     -1.661512     0.286464    -0.027756
H     -1.105681    -0.565752    -0.095565
H     -2.911735     0.327150     0.091585
C     -0.752417     1.270557     0.133624
H     -2.543668     2.643913    -0.419530
H     -0.407029     1.796557    -0.841255
6
Family_1 [H+].[H][C-]=C([H])[H] | RMSD: 0.8786 | 1072.00 to state    1 from traj    1 on state    2
C     -1.521685     0.265357     0.251081
H     -1.793889    -0.522417    -0.818831
H     -2.739650     0.077165    -1.356897
C     -0.981586     1.399557    -0.069744
H     -1.556948     2.160519     0.193754
H      0.186947     1.200974    -0.182062
6
Family_1 [H+].[H][C-]=C([H])[H] | RMSD: 0.4749 | 1980.00 to state    1 from traj    1 on state    2
C     -1.661510     0.309135     0.023721
H     -1.210329    -0.735709     0.198141
H     -2.797540     0.507106    -0.260619
C     -0.761322     1.313490    -0.073792
H     -3.138345     2.647295     0.442338
H      0.284184     1.001450     0.213490
6
Family_1 [H+].[H][C-]=C([H])[H] | RMSD: 0.4890 | 2012.00 to state    1 from traj    1 on state    2
C     -1.661323     0.308201     0.019702
H     -1.257509    -0.702517     0.247007
H     -2.777651     0.493036    -0.272075
C     -0.757414     1.312974    -0.071417
H     -3.155325     2.636533     0.453517
H      0.279661     1.010374     0.184495
6
Family_1 [H+].[H][C-]=C([H])[H] | RMSD: 0.2590 | 640.00 to state    1 from traj    1 on state    2
C     -1.617853     0.117736     0.058757
H     -1.307919    -0.961964    -0.234589
H     -2.826326     0.319076    -0.321737
C     -0.861600     1.441368    -0.016595
H     -2.237310     3.458342     0.107984
H      0.184206     1.361587    -0.057327
6
Family_1 [H+].[H][C-]=C([H])[H] | RMSD: 1.0659 | 6940.00 to state    1 from traj    1 on state    2
C     -1.439548     0.108782    -0.005701
H     -1.576604    -1.036925     0.703733
H     -2.736064    -0.150395    -0.817776
C     -1.029776     1.675999     0.093202
H     -1.083056     2.783639     0.142064
H     -0.912323    -0.108376    -1.073932
6
Family_1 [H+].[H][C-]=C([H])[H] | RMSD: 0.1739 | 332.00 to state    1 from traj    1 on state    2
C     -1.654866     0.189604     0.005169
H     -1.236038    -0.747488    -0.004525
H     -2.697095     0.188232    -0.062089
C     -0.824309     1.392530    -0.010534
H     -2.546846     3.285903     0.137710
H      0.289319     1.175984    -0.010448
6
Family_1 [H+].[H][C-]=C([H])[H] | RMSD: 0.8533 | 2488.00 to state    1 from traj    1 on state    2
C     -1.515006     0.213445    -0.014499
H     -1.257732    -0.812542     0.646699
H     -2.372003    -0.272416    -0.567337
C     -1.067836     1.571637     0.025868
H     -1.220884     2.709860     0.321180
H     -0.104781    -0.140546    -0.539292
6
Family_1 [H+].[H][C-]=C([H])[H] | RMSD: 0.8376 | 2496.00 to state    1 from traj    1 on state    2
C     -1.595309     0.273504    -0.033827
H     -0.999092    -0.549750    -0.375215
H     -2.408749    -0.286514     0.673689
C     -0.978249     1.501110    -0.075951
H     -1.615305     2.470497     0.074088
H     -0.042876    -0.025134     0.932235
6
Family_1 [H+].[H][C-]=C([H])[H] | RMSD: 0.7429 | 692.00 to state    1 from traj    1 on state    2
C     -1.598939     0.144670     0.014314
H     -1.277905    -0.561795     0.854364
H     -2.292970     0.032557    -0.779501
C     -0.989470     1.420136    -0.096534
H     -1.456550     3.279326     0.839183
H      0.138359     1.359009     0.062376
6
Family_1 [H+].[H][C-]=C([H])[H] | RMSD: 0.9103 | 12132.00 to state    1 from traj    1 on state    2
C     -1.645745     0.228870     0.006596
H     -1.827205    -0.711208     0.622146
H     -2.292544     0.106640    -0.733476
C     -0.745101     1.383745     0.073618
H     -2.323699     2.402847     0.173946
H     -0.799715     1.741141    -1.021705
6
Family_1 [H+].[H][C-]=C([H])[H] | RMSD: 0.4762 | 404.00 to state    1 from traj    1 on state    2
C     -1.587714     0.135087     0.004331
H     -1.441776    -0.808229     0.590971
H     -2.617216     0.183993    -0.511781
C     -0.913132     1.436145    -0.067687
H     -1.963579     3.354869     0.606066
H      0.090130     1.301892     0.066393
6
Family_1 [H+].[H][C-]=C([H])[H] | RMSD: 0.6088 | 1732.00 to state    1 from traj    1 on state    2
C     -1.678279     0.292180     0.060736
H     -1.265787    -0.591589    -0.392795
H     -2.725218     0.472753    -0.006660
C     -0.754086     1.280565    -0.106386
H     -2.698362     2.415035     0.270927
H     -0.059071     1.718309     0.669189
6
Family_1 [H+].[H][C-]=C([H])[H] | RMSD: 0.6061 | 1780.00 to state    2 from traj    3 on state    1
C     -1.679438     0.296557     0.060893
H     -1.279625    -0.539705    -0.284380
H     -2.730473     0.476924    -0.089632
C     -0.737836     1.258486    -0.113889
H     -2.850958     2.540348     0.354924
H     -0.067197     1.747864     0.647283
6
Family_1 [H+].[H][C-]=C([H])[H] | RMSD: 0.8873 | 2948.00 to state    1 from traj    1 on state    2
C     -1.599585     0.282717    -0.030956
H     -1.834468    -0.812814    -0.103239
H     -2.062842     1.264528     0.395083
C     -0.814822     1.201388    -0.013548
H     -2.998891     2.530931    -0.010025
H     -0.066219     2.088061     0.245190
6
Family_1 [H+].[H][C-]=C([H])[H] | RMSD: 0.9644 | 2356.00 to state    1 from traj    1 on state    2
C     -1.468086     0.156819     0.039915
H     -1.767207    -0.678739     0.456570
H     -2.163441    -0.172117    -0.914613
C     -1.072935     1.601953     0.062904
H     -1.263778     2.767762     0.173629
H     -0.259303    -0.119040    -0.944023
6
Family_1 [H+].[H][C-]=C([H])[H] | RMSD: 0.2581 | 536.00 to state    1 from traj    1 on state    2
C     -1.640207     0.244519     0.035317
H     -1.349991    -0.764694    -0.209109
H     -2.744174     0.253030    -0.140455
C     -0.800909     1.391926    -0.001135
H     -2.665407     2.772905     0.030818
H      0.115409     0.994232    -0.091839
6
Family_1 [H+].[H][C-]=C([H])[H] | RMSD: 0.2800 | 4492.00 to state    1 from traj    1 on state    2
C     -1.631227     0.178452     0.020004
H     -0.999742    -0.690380    -0.376857
H     -2.800616     0.121211     0.047107
C     -0.868515     1.379947     0.036424
H     -2.311934     3.599805    -0.164970
H      0.166698     1.154809    -0.180932
6
Family_1 [H+].[H][C-]=C([H])[H] | RMSD: 0.5231 | 1120.00 to state    1 from traj    1 on state    2
C     -1.553568     0.113928    -0.036970
H     -1.377501    -0.893302    -0.299682
H     -2.582141     0.042017     0.384829
C     -0.983438     1.443846     0.060336
H     -1.601546     3.711638    -0.283329
H      0.059625     1.332539    -0.083528
6
Family_1 [H+].[H][C-]=C([H])[H] | RMSD: 0.5952 | 1316.00 to state    1 from traj    1 on state    2
C     -1.596853     0.087473     0.020591
H     -1.203446    -0.853876    -0.606792
H     -2.646325     0.032265     0.178069
C     -0.952291     1.428970     0.056839
H     -1.643530     3.915708    -0.342546
H      0.136365     1.591278    -0.154643
6
Family_1 [H+].[H][C-]=C([H])[H] | RMSD: 0.7612 | 5844.00 to state    1 from traj    1 on state    2
C     -1.787097     0.249142     0.132674
H     -0.646327     0.056002    -0.424328
H     -2.324004    -0.361810    -0.665835
C     -0.813099     1.294762    -0.060511
H     -1.786905     2.817271     0.243008
H      0.008616     1.846695    -0.016007
6
Family_1 [H+].[H][C-]=C([H])[H] | RMSD: 0.3156 | 408.00 to state    1 from traj    1 on state    2
C     -1.644850     0.125257    -0.011738
H     -1.363596    -0.760764     0.350187
H     -2.810366     0.189304    -0.205115
C     -0.840014     1.439951    -0.032210
H     -2.286552     3.317822     0.350702
H      0.337641     1.357947     0.024616
6
Family_1 [H+].[H][C-]=C([H])[H] | RMSD: 0.3534 | 624.00 to state    1 from traj    1 on state    2
C     -1.663985     0.160766     0.008452
H     -1.305948    -0.959503     0.302144
H     -2.673038     0.132154    -0.321854
C     -0.813009     1.406011    -0.041234
H     -2.456023     3.450044     0.403428
H      0.218360     1.462920     0.003617
6
Family_1 [H+].[H][C-]=C([H])[H] | RMSD: 0.3001 | 1620.00 to state    1 from traj    1 on state    2
C     -1.648193     0.243195     0.030115
H     -1.382951    -1.028130     0.075118
H     -2.603141     0.266005    -0.290321
C     -0.821019     1.414816    -0.038510
H     -2.591612     2.756523     0.289950
H      0.268319     1.004095     0.022002
6
Family_1 [H+].[H][C-]=C([H])[H] | RMSD: 1.0563 | 16792.00 to state    2 from traj    6 on state    1
C     -1.398446     0.261713     0.075058
H     -1.500297    -0.898857    -1.015948
H     -2.556067    -0.022514     0.237920
C     -1.044251     1.565843    -0.051610
H     -1.593362     2.558394    -0.180884
H     -0.975594    -0.658765     0.676227
6
Family_1 [H+].[H][C-]=C([H])[H] | RMSD: 0.2154 | 276.00 to state    1 from traj    1 on state    2
C     -1.621475     0.160839    -0.002603
H     -1.186749    -0.670285    -0.218524
H     -2.599235     0.141750     0.122679
C     -0.882471     1.420449     0.025579
H     -2.195405     3.399605    -0.095431
H      0.085887     1.041637    -0.085788
6
Family_1 [H+].[H][C-]=C([H])[H] | RMSD: 1.0184 | 4008.00 to state    1 from traj    1 on state    2
C     -1.654000     0.353173    -0.006449
H     -2.003002    -0.524857    -0.684086
H     -2.513970     0.286987     0.640708
C     -0.730110     1.270449     0.005883
H     -2.620599     1.630352    -0.339652
H     -0.185856     2.015780     0.386490
6
Family_1 [H+].[H][C-]=C([H])[H] | RMSD: 0.9182 | 3484.00 to state    1 from traj    1 on state    2
C     -1.522017    -0.086726     0.139692
H     -1.819152    -0.947103    -0.273742
H     -1.857490     1.492665    -0.829347
C     -1.042408     1.567550    -0.072819
H     -1.358170     3.036600     0.280416
H     -0.140048     1.527636     0.022545
6
Family_1 [H+].[H][C-]=C([H])[H] | RMSD: 0.9691 | 8500.00 to state    1 from traj    1 on state    2
C     -1.519528     0.265235     0.033784
H     -1.003165    -0.436753    -0.811535
H     -2.472912     0.268326     0.598777
C     -1.029654     1.417346    -0.145827
H     -1.383235     2.391729     0.124269
H     -0.497176     0.482429     1.420277
6
Family_1 [H+].[H][C-]=C([H])[H] | RMSD: 1.0904 | 2936.00 to state    1 from traj    1 on state    2
C     -1.409857     0.176958    -0.088821
H     -1.335638    -0.881740     1.181268
H     -2.499667    -0.065797    -0.454020
C     -1.141197     1.615516     0.043116
H     -0.953330     2.805488     0.424966
H     -0.545540    -0.461679    -0.610884
6
Family_1 [H+].[H][C-]=C([H])[H] | RMSD: 0.1574 | 404.00 to state    1 from traj    1 on state    2
C     -1.633449     0.172205     0.014202
H     -1.307331    -0.894861    -0.085660
H     -2.732503     0.390509    -0.076752
C     -0.830118     1.424156    -0.001565
H     -2.496432     3.100166     0.066919
H      0.159624     1.137290    -0.058373
6
Family_1 [H+].[H][C-]=C([H])[H] | RMSD: 0.9124 | 2196.00 to state    1 from traj    1 on state    2
C     -1.429955     0.263423    -0.051770
H     -1.841264    -1.171096     0.746041
H     -2.381530    -0.179803    -0.440723
C     -1.022389     1.540866     0.078617
H     -1.616745     2.651699     0.167286
H     -0.670822    -0.045295    -0.795796
6
Family_1 [H+].[H][C-]=C([H])[H] | RMSD: 0.9517 | 2296.00 to state    1 from traj    1 on state    2
C     -1.436956     0.257686    -0.023994
H     -1.793751    -1.389734     0.556150
H     -2.314108    -0.061935    -0.507720
C     -1.026249     1.577752     0.082136
H     -1.588166     2.503101     0.094785
H     -0.684936    -0.167099    -0.839298
6
Family_1 [H+].[H][C-]=C([H])[H] | RMSD: 0.2737 | 400.00 to state    1 from traj    1 on state    2
C     -1.598227     0.156655    -0.028801
H     -1.259906    -1.002949    -0.100965
H     -2.640795     0.492367     0.244830
C     -0.899564     1.403295     0.023249
H     -2.342342     3.470118    -0.066394
H      0.274197     1.207423    -0.014605
6
Family_1 [H+].[H][C-]=C([H])[H] | RMSD: 0.2731 | 628.00 to state    1 from traj    1 on state    2
C     -1.606806     0.173052    -0.008611
H     -1.457294    -0.809209    -0.130626
H     -2.664431     0.218522     0.107182
C     -0.848907     1.384104     0.015289
H     -2.503667     3.501288    -0.020847
H      0.155166     1.289652    -0.038565
6
Family_1 [H+].[H][C-]=C([H])[H] | RMSD: 0.8916 | 19040.00 to state    1 from traj    6 on state    2
C     -1.529609     0.273934     0.007383
H     -1.188836    -0.639165     0.446312
H     -2.289983     0.354851    -0.702982
C     -0.998487     1.422284     0.140836
H     -1.642851     2.342186    -0.130646
H     -0.486069     0.485370    -1.382096
6
Family_1 [H+].[H][C-]=C([H])[H] | RMSD: 0.9272 | 1324.00 to state    1 from traj    1 on state    2
C     -1.590512     0.213603    -0.041410
H     -1.306536    -0.427628     0.791547
H     -2.604666     0.038184    -0.638503
C     -0.920411     1.448757     0.166621
H     -1.621255     2.403788    -0.102887
H     -0.279902     0.932334    -1.545417
6
Family_1 [H+].[H][C-]=C([H])[H] | RMSD: 0.9787 | 3600.00 to state    1 from traj    1 on state    2
C     -1.427289     0.170973     0.038259
H     -1.367018    -0.170816    -1.007417
H     -3.226144     0.063047     0.387436
C     -1.062257     1.560445     0.056028
H     -1.220257     2.401620    -0.605577
H     -0.253668    -0.170048     0.098785
6
Family_1 [H+].[H][C-]=C([H])[H] | RMSD: 0.3810 | 656.00 to state    1 from traj    1 on state    2
C     -1.615522     0.170469    -0.002307
H     -1.030172    -0.923521    -0.260893
H     -2.679277     0.147027     0.133897
C     -0.889462     1.362307     0.026455
H     -2.298289     3.940858    -0.088087
H      0.124608     1.326396    -0.075933
6
Family_1 [H+].[H][C-]=C([H])[H] | RMSD: 0.5937 | 3120.00 to state    1 from traj    1 on state    2
C     -1.657204     0.171235    -0.011892
H     -1.683598    -0.654806    -0.589220
H     -2.697060     0.185395     0.409591
C     -0.775236     1.399531     0.111959
H     -2.564464     2.941473    -0.581271
H      0.197579     1.566023    -0.434738
6
Family_1 [H+].[H][C-]=C([H])[H] | RMSD: 0.9292 | 10472.00 to state    1 from traj    1 on state    2
C     -1.384059     0.279834    -0.090613
H     -1.886952    -1.014770     0.579930
H     -2.512000     0.168703     0.008934
C     -1.021076     1.521185     0.104739
H     -1.800117     2.382701    -0.080045
H     -0.873828    -0.242167    -0.680412
6
Family_1 [H+].[H][C-]=C([H])[H] | RMSD: 0.2857 | 616.00 to state    1 from traj    1 on state    2
C     -1.626832     0.175399    -0.004790
H     -1.154096    -0.891647     0.147568
H     -2.683334     0.005129    -0.121382
C     -0.886222     1.400065    -0.024462
H     -2.209590     3.651111     0.264913
H      0.260053     1.217506     0.054182
6
Family_1 [H+].[H][C-]=C([H])[H] | RMSD: 0.3182 | 2100.00 to state    1 from traj    1 on state    2
C     -1.617992     0.243928     0.010461
H     -1.379848    -0.728733     0.316445
H     -2.701237     0.227383    -0.308049
C     -0.826392     1.354700    -0.062108
H     -2.673733     3.105390     0.463561
H      0.149597     1.102050     0.140166
6
Family_1 [H+].[H][C-]=C([H])[H] | RMSD: 0.2739 | 424.00 to state    1 from traj    1 on state    2
C     -1.654824     0.143460    -0.028083
H     -1.176360    -0.831618    -0.100979
H     -2.615379     0.173621     0.241049
C     -0.854531     1.417575     0.022449
H     -2.288739     3.509459    -0.054579
H      0.249431     1.302574    -0.021640
6
Family_1 [H+].[H][C-]=C([H])[H] | RMSD: 0.7833 | 3272.00 to state    1 from traj    1 on state    2
C     -1.314954     0.195912     0.050316
H     -1.732557    -0.772445     0.104889
H     -2.080890     1.301111    -0.550530
C     -1.197528     1.409269    -0.009404
H     -1.724808     2.994090     0.189752
H     -0.255527     0.105250    -0.234883
6
Family_1 [H+].[H][C-]=C([H])[H] | RMSD: 1.0270 | 4972.00 to state    1 from traj    1 on state    2
C     -1.405758     0.193867    -0.052137
H     -1.501834    -0.535297     0.801630
H     -2.878655    -0.272340    -0.510992
C     -1.087944     1.579535     0.090187
H     -1.027215     2.645853     0.128333
H     -0.609857    -0.214680    -0.875642
6
Family_1 [H+].[H][C-]=C([H])[H] | RMSD: 0.9990 | 9920.00 to state    1 from traj    1 on state    2
C     -1.424719     0.216511    -0.110435
H     -1.608546    -1.009454     1.035421
H     -2.589347    -0.226691    -0.225702
C     -1.029497     1.585100     0.093057
H     -1.441856     2.789179     0.183641
H     -0.848316    -0.265619    -0.789570
6
Family_1 [H+].[H][C-]=C([H])[H] | RMSD: 0.9127 | 5844.00 to state    1 from traj    1 on state    2
C     -1.575020     0.173760    -0.095496
H     -1.437800    -0.820963    -0.226866
H     -2.666011     0.026896     1.014268
C     -0.870933     1.515120    -0.047184
H     -1.548645     2.389909    -0.052269
H     -0.934062     1.034829     0.961716
6
Family_1 [H+].[H][C-]=C([H])[H] | RMSD: 0.7008 | 2440.00 to state    1 from traj    1 on state    2
C     -1.675863     0.304425     0.111317
H     -1.214807    -0.579159    -0.395096
H     -2.533155     0.095675    -0.372764
C     -0.785753     1.293177    -0.158200
H     -2.231136     2.424501     0.512028
H     -0.420782     1.777291     0.811194
6
Family_1 [H+].[H][C-]=C([H])[H] | RMSD: 0.6396 | 3596.00 to state    1 from traj    1 on state    2
C     -1.657108     0.232804    -0.047952
H     -0.945708    -0.640190     0.120592
H     -2.577667     0.278303     0.440455
C     -0.813846     1.345551    -0.109090
H     -2.166033     2.839469     0.404650
H     -0.599203     1.470061     0.902288
6
Family_1 [H+].[H][C-]=C([H])[H] | RMSD: 0.7881 | 5064.00 to state    1 from traj    1 on state    2
C     -1.786773     0.202576     0.051482
H     -1.204770    -0.636643     0.167222
H     -2.708090    -0.253998    -0.354884
C     -0.679212     1.413710    -0.158089
H     -2.122532     2.357799     0.715007
H     -0.312425     2.028521     0.739675
6
Family_1 [H+].[H][C-]=C([H])[H] | RMSD: 0.7617 | 5612.00 to state    1 from traj    1 on state    2
C     -1.588679     0.209042    -0.046191
H     -0.831596    -0.493839     0.265991
H     -2.534805     0.529661     0.328221
C     -0.909288     1.308188    -0.133821
H     -1.815362     3.085934     0.546292
H     -0.784975     1.554242     1.001174
6
Family_1 [H+].[H][C-]=C([H])[H] | RMSD: 0.7125 | 1164.00 to state    1 from traj    1 on state    2
C     -1.724588     0.290607     0.033470
H     -1.265933    -0.317892    -0.757846
H     -2.488757    -0.206940     0.465385
C     -0.758296     1.383516    -0.061801
H     -2.390192     2.214952    -0.081083
H     -0.001590     1.116389     0.707836
6
Family_1 [H+].[H][C-]=C([H])[H] | RMSD: 0.7318 | 1244.00 to state    1 from traj    1 on state    2
C     -1.729699     0.293073     0.026613
H     -1.283683    -0.414606    -0.885011
H     -2.487031    -0.257755     0.596342
C     -0.747142     1.370606    -0.042172
H     -2.437757     2.351798    -0.204911
H     -0.009999     1.251527     0.675694
6
Family_1 [H+].[H][C-]=C([H])[H] | RMSD: 0.4325 | 1604.00 to state    1 from traj    1 on state    2
C     -1.639658     0.261280    -0.002958
H     -1.400859    -0.787492     0.495029
H     -2.711481     0.144875    -0.324809
C     -0.820218     1.396904    -0.074406
H     -2.552249     2.662935     0.561973
H      0.243960     0.976129     0.186374
6
Family_1 [H+].[H][C-]=C([H])[H] | RMSD: 0.2508 | 368.00 to state    1 from traj    1 on state    2
C     -1.713072     0.187869     0.007732
H     -0.969103    -0.747839     0.053124
H     -2.725671     0.378568    -0.087383
C     -0.791119     1.435946    -0.017663
H     -2.538279     2.758066     0.167075
H      0.340478     1.017171    -0.017763
6
Family_1 [H+].[H][C-]=C([H])[H] | RMSD: 0.2260 | 564.00 to state    1 from traj    1 on state    2
C     -1.650059     0.230478     0.012416
H     -1.294946    -0.779475     0.053169
H     -2.773145     0.261734    -0.153249
C     -0.795775     1.386912    -0.016899
H     -2.680567     2.910649     0.185266
H      0.160721     1.089614    -0.035056
6
Family_1 [H+].[H][C-]=C([H])[H] | RMSD: 1.0017 | 5936.00 to state    1 from traj    1 on state    2
C     -1.586036     0.202951     0.194508
H     -1.460640    -0.787994    -0.279717
H     -1.908002     0.668707    -1.422109
C     -0.995474     1.365645     0.006055
H     -1.393484     2.394800     0.156444
H     -0.209135     1.788423    -0.847747
6
Family_1 [H+].[H][C-]=C([H])[H] | RMSD: 0.9991 | 6052.00 to state    1 from traj    1 on state    2
C     -1.504567     0.176443     0.164784
H     -1.766282    -0.812477    -0.131099
H     -1.891859     0.901933    -1.330786
C     -1.040563     1.381366     0.020042
H     -1.427111     2.494381     0.137278
H     -0.319512     1.608628    -0.881007
6
Family_1 [H+].[H][C-]=C([H])[H] | RMSD: 0.8918 | 2872.00 to state    1 from traj    1 on state    2
C     -1.624159     0.125295     0.024726
H     -1.329001    -0.710054    -0.713282
H     -2.599515     0.062407     0.594770
C     -0.859598     1.508184    -0.149981
H     -1.581925     2.659035     0.183706
H     -0.625613     1.279427     1.424021
6
Family_1 [H+].[H][C-]=C([H])[H] | RMSD: 0.8974 | 6644.00 to state    1 from traj    1 on state    2
C     -1.640035     0.182000    -0.009524
H     -1.152894    -0.665387     0.449387
H     -2.640431    -0.025789    -0.578180
C     -0.852936     1.399296     0.138221
H     -1.514994     2.767841    -0.127335
H     -0.717950     1.835945    -1.280671
6
Family_1 [H+].[H][C-]=C([H])[H] | RMSD: 0.3123 | 660.00 to state    1 from traj    1 on state    2
C     -1.653354     0.129954    -0.010676
H     -1.125878    -0.670558    -0.268752
H     -2.963001    -0.028115     0.200752
C     -0.835142     1.443190     0.040794
H     -2.174896     3.454099    -0.176471
H      0.184177     1.254324    -0.117689
6
Family_1 [H+].[H][C-]=C([H])[H] | RMSD: 0.3665 | 1676.00 to state    1 from traj    1 on state    2
C     -1.699057     0.182550     0.003331
H     -1.296713    -0.896834    -0.380810
H     -2.703320     0.347954     0.250787
C     -0.772552     1.436344     0.025673
H     -2.599245     2.748970    -0.191576
H      0.318463     1.264517    -0.027284
6
Family_1 [H+].[H][C-]=C([H])[H] | RMSD: 0.2006 | 420.00 to state    1 from traj    1 on state    2
C     -1.608183     0.161262    -0.009438
H     -1.383578    -0.953230     0.165974
H     -2.746001     0.338477    -0.081895
C     -0.872306     1.439385    -0.021140
H     -2.347295     3.203753     0.225968
H      0.301875     1.093033     0.051025
6
Family_1 [H+].[H][C-]=C([H])[H] | RMSD: 1.0188 | 1536.00 to state    1 from traj    1 on state    2
C     -1.459871     0.039419    -0.015791
H     -1.149216    -0.850395    -0.565147
H     -2.723728     0.598370     0.693881
C     -1.005394     1.645328    -0.085105
H     -1.272179     2.891482    -0.017397
H     -1.211288     0.040463     1.087620
6
Family_1 [H+].[H][C-]=C([H])[H] | RMSD: 1.0662 | 2172.00 to state    1 from traj    1 on state    2
C     -1.651558     0.362344     0.125925
H     -1.939302    -0.604288     0.245643
H     -2.440797     0.670045    -0.964181
C     -0.723298     1.308715    -0.179243
H     -3.027630     1.391390     0.874220
H     -0.025965     1.385883     0.476359
6
Family_1 [H+].[H][C-]=C([H])[H] | RMSD: 1.0739 | 2572.00 to state    1 from traj    1 on state    2
C     -1.560562     0.023921     0.180339
H     -2.015637    -0.698565    -0.215897
H     -1.400461     1.634196    -1.200572
C     -0.997574     1.460954    -0.056713
H     -1.945132     2.610559     0.312344
H      0.111439     1.515349    -0.372244
6
Family_1 [H+].[H][C-]=C([H])[H] | RMSD: 0.9402 | 4540.00 to state    1 from traj    1 on state    2
C     -1.366934     0.201268    -0.039566
H     -1.921339    -0.373172     0.835236
H     -2.999167    -0.189266    -0.444633
C     -1.075792     1.557768    -0.040477
H     -1.406178     2.641592     0.551532
H     -0.298288    -0.284437     0.008348
6
Family_1 [H+].[H][C-]=C([H])[H] | RMSD: 0.2928 | 532.00 to state    1 from traj    1 on state    2
C     -1.650744     0.156751    -0.010674
H     -1.441383    -0.951163     0.106707
H     -2.905232     0.373022    -0.014772
C     -0.795327     1.466062    -0.012027
H     -2.489481     2.788981     0.147806
H      0.250977     1.207071     0.027478
6
Family_1 [H+].[H][C-]=C([H])[H] | RMSD: 0.2982 | 664.00 to state    1 from traj    1 on state    2
C     -1.611260     0.203674    -0.012167
H     -1.589905    -0.912458     0.090414
H     -2.777206     0.315670     0.002670
C     -0.824646     1.433617    -0.011186
H     -2.558691     2.799363     0.141938
H      0.219559     1.042816     0.039969
6
Family_1 [H+].[H][C-]=C([H])[H] | RMSD: 0.2978 | 2100.00 to state    1 from traj    1 on state    2
C     -1.658951     0.212369    -0.018085
H     -1.116370    -0.668661    -0.103273
H     -2.523106     0.529203     0.206711
C     -0.816953     1.347326     0.016926
H     -2.801573     3.205382    -0.040242
H      0.211408     1.104080    -0.052662
6
Family_1 [H+].[H][C-]=C([H])[H] | RMSD: 0.3629 | 3768.00 to state    1 from traj    1 on state    2
C     -1.657257     0.215414     0.010901
H     -1.375023    -0.872330    -0.292271
H     -2.767672     0.482254     0.110031
C     -0.786384     1.401668     0.025230
H     -2.708802     2.678968    -0.139372
H      0.237421     1.197301    -0.112192
6
Family_1 [H+].[H][C-]=C([H])[H] | RMSD: 0.4992 | 664.00 to state    1 from traj    1 on state    2
C     -1.626290     0.080804    -0.023902
H     -1.054673    -0.805792     0.078050
H     -2.807602    -0.079619     0.033730
C     -0.907659     1.441723     0.007360
H     -1.761140     3.978300     0.102430
H      0.085415     1.519987    -0.020391
6
Family_1 [H+].[H][C-]=C([H])[H] | RMSD: 0.7990 | 1996.00 to state    1 from traj    1 on state    2
C     -1.563746     0.117655    -0.001970
H     -0.889380    -0.547951     0.560662
H     -2.503708    -0.154358    -0.438693
C     -1.058170     1.401638    -0.088679
H     -1.071893     3.956406     0.668015
H     -0.024821     1.397316     0.286877
6
Family_1 [H+].[H][C-]=C([H])[H] | RMSD: 0.3246 | 520.00 to state    1 from traj    1 on state    2
C     -1.657624     0.171122     0.050891
H     -1.500925    -0.852683    -0.312752
H     -2.676648     0.425992    -0.181410
C     -0.789780     1.419171     0.003345
H     -2.658503     2.918579    -0.021455
H      0.266839     1.313515    -0.133928
6
Family_1 [H+].[H][C-]=C([H])[H] | RMSD: 0.2894 | 2108.00 to state    1 from traj    1 on state    2
C     -1.624755     0.218081    -0.015685
H     -1.200834    -0.767159     0.156462
H     -2.680868     0.639801    -0.007049
C     -0.836031     1.346767    -0.009075
H     -2.815576     3.158369     0.170711
H      0.287499     1.077586    -0.028372
6
Family_1 [H+].[H][C-]=C([H])[H] | RMSD: 0.4340 | 21068.00 to state    1 from traj    1 on state    2
C     -1.672122     0.271634    -0.006057
H     -1.231619    -0.576739     0.382940
H     -2.757918     0.209583    -0.205752
C     -0.780652     1.381677    -0.056885
H     -2.663501     2.468848     0.434137
H      0.147791     0.952809     0.135388
6
Family_1 [H+].[H][C-]=C([H])[H] | RMSD: 0.3801 | 344.00 to state    1 from traj    1 on state    2
C     -1.629055     0.187308     0.013977
H     -1.402180    -0.745085    -0.555971
H     -2.628369     0.258477     0.241460
C     -0.842538     1.377695     0.054009
H     -2.530147     3.313125    -0.332585
H      0.279686     1.280232    -0.166293
6
Family_1 [H+].[H][C-]=C([H])[H] | RMSD: 0.5299 | 576.00 to state    1 from traj    1 on state    2
C     -1.617293     0.221851    -0.019701
H     -1.513554    -0.737637    -0.497323
H     -2.661567     0.290432     0.437091
C     -0.803111     1.307861     0.076237
H     -2.935531     3.552083    -0.403008
H      0.219696     1.422387    -0.213717
6
Family_1 [H+].[H][C-]=C([H])[H] | RMSD: 0.8617 | 772.00 to state    1 from traj    1 on state    2
C     -1.598354     0.141059     0.254614
H     -1.528104    -0.385434    -0.855738
H     -2.544133     0.244749    -1.286539
C     -0.965942     1.453745    -0.096844
H     -1.347925     2.417745     0.249652
H      0.243771     1.474596     0.009413
6
Family_1 [H+].[H][C-]=C([H])[H] | RMSD: 0.8562 | 848.00 to state    1 from traj    1 on state    2
C     -1.594136     0.148758     0.248796
H     -1.476683    -0.254690    -0.893141
H     -2.454372     0.319652    -1.200715
C     -0.972623     1.435298    -0.093549
H     -1.362781     2.392034     0.206531
H      0.146800     1.422736     0.034171
6
Family_1 [H+].[H][C-]=C([H])[H] | RMSD: 0.3559 | 352.00 to state    1 from traj    1 on state    2
C     -1.633328     0.112190    -0.037881
H     -1.180456    -0.805867    -0.139276
H     -2.650968     0.091625     0.319865
C     -0.891285     1.443840     0.036850
H     -1.999014     3.612293    -0.132998
H      0.181197     1.315629    -0.038583
6
Family_1 [H+].[H][C-]=C([H])[H] | RMSD: 0.4110 | 1924.00 to state    1 from traj    1 on state    2
C     -1.636786     0.288904    -0.018013
H     -1.286860    -0.622680     0.275427
H     -2.703733     0.482476    -0.032085
C     -0.793074     1.310223    -0.042657
H     -3.061757     2.867174     0.331044
H      0.274061     0.973180     0.145259
6
Family_1 [H+].[H][C-]=C([H])[H] | RMSD: 0.4569 | 2040.00 to state    1 from traj    1 on state    2
C     -1.644954     0.295776    -0.018075
H     -1.286880    -0.843106     0.336997
H     -2.737282     0.557867    -0.080763
C     -0.773648     1.307035    -0.045713
H     -3.158867     2.853236     0.376583
H      0.270606     1.088245     0.123980
6
Family_1 [H+].[H][C-]=C([H])[H] | RMSD: 0.8856 | 3636.00 to state    1 from traj    1 on state    2
C     -1.549594     0.276807    -0.016040
H     -1.345308    -0.544098     0.436306
H     -2.379598     0.149642    -0.564362
C     -0.951226     1.404066     0.180550
H     -1.787382     2.416299    -0.281645
H     -0.420450     0.704245    -1.553831
6
Family_1 [H+].[H][C-]=C([H])[H] | RMSD: 0.8914 | 3804.00 to state    1 from traj    1 on state    2
C     -1.694640     0.334598     0.040521
H     -1.562508    -0.512944     0.800606
H     -2.496859    -0.003495    -0.788205
C     -0.768629     1.349621    -0.165886
H     -2.511908     1.901095     1.035644
H      0.191093     1.301561     0.442487
6
Family_1 [H+].[H][C-]=C([H])[H] | RMSD: 0.4446 | 564.00 to state    1 from traj    1 on state    2
C     -1.631892     0.121937    -0.030708
H     -1.347992    -0.804934    -0.496260
H     -2.557146     0.293918     0.557989
C     -0.874910     1.444656     0.057682
H     -2.138232     3.290767    -0.388158
H      0.181900     1.308054     0.001737
6
Family_1 [H+].[H][C-]=C([H])[H] | RMSD: 1.0581 | 1332.00 to state    1 from traj    1 on state    2
C     -1.636881     0.270740     0.018747
H     -1.872130    -0.451736    -0.848247
H     -2.682730     0.559126     0.586518
C     -0.710165     1.299656     0.000396
H     -2.503281     1.778446    -0.390574
H     -0.706917     2.156665     0.420916
6
Family_1 [H+].[H][C-]=C([H])[H] | RMSD: 1.0398 | 7612.00 to state    1 from traj    1 on state    2
C     -1.352670     0.263613    -0.091648
H     -1.803445    -0.725843     0.990792
H     -2.532840     0.303072    -0.361989
C     -1.034390     1.482129     0.121669
H     -1.890242     2.681910     0.075606
H     -1.061748    -0.306011    -1.065407
6
Family_1 [H+].[H][C-]=C([H])[H] | RMSD: 0.1817 | 468.00 to state    1 from traj    1 on state    2
C     -1.648339     0.157664     0.010890
H     -1.145147    -0.783602     0.109939
H     -2.622567     0.517106    -0.179076
C     -0.842605     1.424198    -0.017567
H     -2.444384     3.089848     0.203100
H      0.161666     1.082512    -0.057689
6
Family_1 [H+].[H][C-]=C([H])[H] | RMSD: 0.1877 | 656.00 to state    1 from traj    1 on state    2
C     -1.659474     0.203277    -0.000578
H     -1.066299    -0.792089     0.165116
H     -2.744690     0.368031    -0.137839
C     -0.826159     1.388188    -0.017700
H     -2.594910     3.143106     0.230510
H      0.292186     1.072394    -0.043278
6
Family_1 [H+].[H][C-]=C([H])[H] | RMSD: 0.2442 | 2140.00 to state    1 from traj    1 on state    2
C     -1.631150     0.161660     0.035864
H     -1.319424    -0.862172     0.096734
H     -2.720775     0.048306    -0.400551
C     -0.876414     1.455069    -0.028452
H     -2.190784     3.255388     0.287336
H      0.378593     1.048879    -0.075112
6
Family_1 [H+].[H][C-]=C([H])[H] | RMSD: 0.7784 | 3312.00 to state    1 from traj    1 on state    2
C     -1.603199     0.042093     0.015955
H     -0.940105    -0.747802     0.449596
H     -2.628064    -0.057662    -0.548870
C     -1.024329     1.500187    -0.045163
H     -0.873385     3.634951     0.481823
H      0.018611     1.548017    -0.037803
6
Family_1 [H+].[H][C-]=C([H])[H] | RMSD: 0.2030 | 620.00 to state    1 from traj    1 on state    2
C     -1.618284     0.150866    -0.017464
H     -1.301529    -0.748008    -0.151660
H     -2.821325     0.134344     0.182137
C     -0.857132     1.444783     0.027474
H     -2.242710     3.270625    -0.094223
H      0.130115     1.084618    -0.058815
6
Family_1 [H+].[H][C-]=C([H])[H] | RMSD: 0.9353 | 4560.00 to state    1 from traj    1 on state    2
C     -1.409819     0.175638     0.055114
H     -1.452289    -0.249587    -1.087200
H     -2.885225     0.254823     0.488683
C     -1.089437     1.494817    -0.056491
H     -1.234723     2.661313    -0.273597
H     -0.379138     0.183678     0.885244
6
Family_1 [H+].[H][C-]=C([H])[H] | RMSD: 1.0504 | 9908.00 to state    1 from traj    1 on state    2
C     -1.405476     0.245989     0.082639
H     -1.522257    -1.065073    -0.967049
H     -2.553424    -0.218474     0.173278
C     -1.096497     1.557940    -0.096759
H     -0.994235     2.575395    -0.003287
H     -0.849088    -0.032071     0.962030
6
Family_1 [H+].[H][C-]=C([H])[H] | RMSD: 0.2135 | 432.00 to state    1 from traj    1 on state    2
C     -1.607833     0.136423    -0.031326
H     -1.262357    -1.017923     0.112290
H     -2.677357     0.360206     0.104465
C     -0.889464     1.450178     0.005001
H     -2.193497     3.370196     0.092420
H      0.158489     1.136913     0.001215
6
Family_1 [H+].[H][C-]=C([H])[H] | RMSD: 1.0594 | 12968.00 to state    1 from traj    1 on state    2
C     -1.474586     0.097584    -0.089794
H     -1.100521    -1.171208     0.903161
H     -2.404082     0.269395    -0.257280
C     -1.077432     1.684234     0.097639
H     -0.976221     2.726110     0.101905
H     -0.841869    -0.301050    -0.844540
6
Family_1 [H+].[H][C-]=C([H])[H] | RMSD: 0.8898 | 2604.00 to state    1 from traj    1 on state    2
C     -1.670778     0.106344    -0.007699
H     -1.237029    -0.690818     0.564543
H     -2.494314    -0.031632    -0.695515
C     -0.848401     1.550801     0.152363
H     -1.528186     2.565932    -0.122657
H     -0.454461     1.165344    -1.473421
6
Family_1 [H+].[H][C-]=C([H])[H] | RMSD: 0.9604 | 3400.00 to state    1 from traj    1 on state    2
C     -1.649025     0.225368     0.217873
H     -1.148747    -0.916102    -0.196303
H     -1.833342     0.519359    -1.595026
C     -0.968966     1.423893    -0.047213
H     -1.519787     2.235347     0.406169
H     -0.034694     1.264155    -0.651659
6
Family_1 [H+].[H][C-]=C([H])[H] | RMSD: 0.3180 | 536.00 to state    1 from traj    1 on state    2
C     -1.686881     0.125025    -0.027469
H     -1.460602    -0.868198     0.197379
H     -2.585572     0.363834     0.055454
C     -0.789996     1.491213    -0.006586
H     -2.438078     2.786219     0.150739
H      0.266213     1.214396    -0.001059
6
Family_1 [H+].[H][C-]=C([H])[H] | RMSD: 1.0233 | 4372.00 to state    1 from traj    1 on state    2
C     -1.601646     0.064174     0.199881
H     -2.061742    -0.400855    -0.668167
H     -1.367322     1.093879    -0.963989
C     -0.949236     1.404183    -0.071038
H     -1.892021     2.696965     0.170919
H     -0.015136     1.868365    -0.077301
6
Family_1 [H+].[H][C-]=C([H])[H] | RMSD: 0.8860 | 1868.00 to state    1 from traj    1 on state    2
C     -1.566096     0.093620     0.104835
H     -1.936548     0.157269    -1.060458
H     -2.765991     0.061599    -0.083474
C     -0.912892     1.422707     0.049253
H     -1.530713     2.718782    -0.519630
H      0.040361     1.749114    -0.175783
6
Family_1 [H+].[H][C-]=C([H])[H] | RMSD: 0.1481 | 348.00 to state    1 from traj    1 on state    2
C     -1.646948     0.164286    -0.007011
H     -1.225564    -0.861961    -0.110363
H     -2.667673     0.314479     0.111654
C     -0.841670     1.443195     0.006429
H     -2.384305     3.098438     0.001000
H      0.199405     1.049640     0.001357
6
Family_1 [H+].[H][C-]=C([H])[H] | RMSD: 0.9173 | 2304.00 to state    1 from traj    1 on state    2
C     -1.580385     0.233240    -0.040473
H     -1.190518    -0.629464    -0.372442
H     -1.975017    -0.164008     0.739446
C     -1.019362     1.473318    -0.086649
H     -1.182825     2.569107     0.092136
H     -0.405605     0.644393     1.052319
6
Family_1 [H+].[H][C-]=C([H])[H] | RMSD: 0.3495 | 476.00 to state    1 from traj    1 on state    2
C     -1.696375     0.112566    -0.019416
H     -1.454519    -0.839489    -0.252760
H     -2.665586     0.188042     0.324113
C     -0.779677     1.516850     0.024098
H     -2.337272     2.791445    -0.159408
H      0.229508     1.199218     0.028978
6
Family_1 [H+].[H][C-]=C([H])[H] | RMSD: 0.2949 | 492.00 to state    1 from traj    1 on state    2
C     -1.628918     0.098921     0.014875
H     -1.247182    -0.901667     0.048294
H     -2.750159     0.241411    -0.190638
C     -0.876557     1.447604    -0.023758
H     -2.092390     3.572653     0.215956
H      0.212452     1.414532     0.028960
6
Family_1 [H+].[H][C-]=C([H])[H] | RMSD: 0.3147 | 712.00 to state    1 from traj    1 on state    2
C     -1.601750     0.136280    -0.006509
H     -1.251241    -0.938846     0.178327
H     -2.614647     0.281426    -0.128269
C     -0.908065     1.407972    -0.023900
H     -2.155549     3.681863     0.262606
H      0.195868     1.329567     0.046393
6
Family_1 [H+].[H][C-]=C([H])[H] | RMSD: 0.8290 | 11684.00 to state    1 from traj    1 on state    2
C     -1.558507     0.269361     0.035397
H     -0.864223    -0.375453    -0.791842
H     -2.606177     0.169307     0.484049
C     -1.009515     1.456239    -0.084200
H     -1.659095     2.387891    -0.043756
H     -0.002496     0.011384     0.929782
6
Family_1 [H+].[H][C-]=C([H])[H] | RMSD: 0.1974 | 3552.00 to state    1 from traj    1 on state    2
C     -1.634118     0.168861     0.013145
H     -1.284371    -0.831991    -0.317781
H     -2.720103     0.197235     0.097945
C     -0.837698     1.439406     0.015609
H     -2.324369     3.125584    -0.101468
H      0.050490     1.100403    -0.024605
6
Family_1 [H+].[H][C-]=C([H])[H] | RMSD: 0.2754 | 30312.00 to state    1 from traj    1 on state    2
C     -1.703402     0.137594     0.003318
H     -1.086314    -0.775564     0.332061
H     -2.746948     0.163646    -0.293100
C     -0.810482     1.489003    -0.031364
H     -2.263026     2.928936     0.351485
H      0.319212     1.055801    -0.059540
6
Family_1 [H+].[H][C-]=C([H])[H] | RMSD: 1.0004 | 42652.00 to state    1 from traj    1 on state    2
C     -1.372113     0.271540    -0.059032
H     -1.411332    -0.497273     0.822504
H     -3.115986    -0.137243    -0.493731
C     -1.061778     1.486089     0.104704
H     -1.367185     2.636419     0.089272
H     -0.835747    -0.190410    -0.965534
6
Family_1 [H+].[H][C-]=C([H])[H] | RMSD: 0.8912 | 2920.00 to state    1 from traj    1 on state    2
C     -1.647254     0.186531     0.202649
H     -1.067818    -0.946414    -0.327819
H     -2.067043     0.403784    -1.437957
C     -0.948630     1.412990    -0.005845
H     -1.438453     2.643259     0.205564
H     -0.226686     1.594808    -0.788123
6
Family_1 [H+].[H][C-]=C([H])[H] | RMSD: 0.6025 | 724.00 to state    1 from traj    1 on state    2
C     -1.596516     0.158959    -0.015008
H     -1.548461    -0.825832    -0.749717
H     -2.470149     0.039591     0.555574
C     -0.924375     1.430673     0.100883
H     -1.915622     3.273964    -0.616708
H      0.240655     1.325557    -0.215690
6
Family_1 [H+].[H][C-]=C([H])[H] | RMSD: 0.9301 | 14576.00 to state    1 from traj    1 on state    2
C     -1.476506     0.297038    -0.041737
H     -1.088295    -1.087794     0.684796
H     -2.404030     0.130261    -0.378298
C     -1.033816     1.527250     0.042007
H     -1.564839     2.367985     0.245827
H     -0.762352    -0.393256    -0.558833
6
Family_1 [H+].[H][C-]=C([H])[H] | RMSD: 0.3470 | 640.00 to state    1 from traj    1 on state    2
C     -1.634828     0.143982    -0.017144
H     -1.309587    -0.999681     0.172251
H     -2.667489     0.180190    -0.034055
C     -0.869636     1.407590    -0.022709
H     -2.302646     3.642158     0.246912
H      0.390405     1.444121     0.086491
6
Family_1 [H+].[H][C-]=C([H])[H] | RMSD: 0.9763 | 10432.00 to state    1 from traj    1 on state    2
C     -1.373878     0.210090     0.003392
H     -1.515960    -0.684216    -0.283852
H     -2.501402     0.904148     0.357411
C     -1.115167     1.524844    -0.119093
H     -1.653928     2.313228     0.241062
H     -0.401759    -0.451255     1.060749
6
Family_1 [H+].[H][C-]=C([H])[H] | RMSD: 0.9017 | 14636.00 to state    1 from traj    1 on state    2
C     -1.517534     0.243486    -0.007311
H     -0.978799    -0.391110     0.616105
H     -2.386139     0.133884    -0.714156
C     -1.053572     1.434950     0.120254
H     -1.320441     2.669487     0.006113
H     -0.409865     0.342855    -1.257137
6
Family_1 [H+].[H][C-]=C([H])[H] | RMSD: 0.2379 | 572.00 to state    1 from traj    1 on state    2
C     -1.614494     0.202686    -0.017955
H     -1.368402    -0.990241     0.035269
H     -2.796245     0.148121     0.064774
C     -0.840379     1.388713    -0.004501
H     -2.552087     3.429018     0.120241
H      0.236495     1.205329     0.044005
6
Family_1 [H+].[H][C-]=C([H])[H] | RMSD: 0.4640 | 1968.00 to state    1 from traj    1 on state    2
C     -1.646857     0.207822     0.003669
H     -1.187821    -0.657513     0.613519
H     -2.733220     0.401134    -0.434809
C     -0.825594     1.364471    -0.100072
H     -2.543009     3.025817     0.705901
H      0.193270     1.250448     0.260820
6
Family_1 [H+].[H][C-]=C([H])[H] | RMSD: 0.5108 | 2144.00 to state    1 from traj    1 on state    2
C     -1.643040     0.222247    -0.002544
H     -1.513182    -0.613128     0.578691
H     -2.556447     0.252867    -0.346080
C     -0.809900     1.365688    -0.105129
H     -2.608658     2.904347     0.695234
H      0.175012     1.289416     0.351875
6
Family_1 [H+].[H][C-]=C([H])[H] | RMSD: 0.4668 | 3484.00 to state    1 from traj    1 on state    2
C     -1.680749     0.254615    -0.020807
H     -1.351494    -0.741679    -0.449016
H     -2.762760     0.121349     0.422741
C     -0.759667     1.367511     0.076653
H     -2.780844     2.808998    -0.399989
H      0.242587     1.237422    -0.242466
6
Family_1 [H+].[H][C-]=C([H])[H] | RMSD: 0.9092 | 5968.00 to state    1 from traj    1 on state    2
C     -1.555448     0.328410     0.050124
H     -0.714595    -0.802941    -0.424163
H     -2.533170     0.044003     0.129232
C     -1.011547     1.485563    -0.149913
H     -1.682204     2.271469     0.387869
H     -0.214256    -0.372420     1.092829
6
Family_1 [H+].[H][C-]=C([H])[H] | RMSD: 1.0089 | 6472.00 to state    1 from traj    1 on state    2
C     -1.405104     0.114364    -0.025084
H     -1.302929    -0.459630     0.852500
H     -2.965676     0.076612    -0.640650
C     -1.099239     1.628329     0.009618
H     -1.028930     2.779852     0.418528
H     -0.593232    -0.407386    -0.449379
6
Family_1 [H+].[H][C-]=C([H])[H] | RMSD: 0.9547 | 7372.00 to state    1 from traj    1 on state    2
C     -1.348207     0.233550     0.078135
H     -1.410665    -0.302069    -0.759080
H     -2.915964     0.302204     0.025768
C     -1.091283     1.497826    -0.069162
H     -1.507530     2.622134    -0.026335
H     -0.829373    -0.497952     0.649443
6
Family_1 [H+].[H][C-]=C([H])[H] | RMSD: 0.9212 | 9176.00 to state    1 from traj    1 on state    2
C     -1.555397     0.175373     0.023480
H     -1.025737    -1.313210     0.339948
H     -2.404295    -0.232178    -0.617676
C     -1.001382     1.651362     0.025083
H     -1.112756     2.603625     0.225101
H     -0.723174    -0.070200    -0.529311
6
Family_1 [H+].[H][C-]=C([H])[H] | RMSD: 0.2995 | 576.00 to state    1 from traj    1 on state    2
C     -1.633514     0.221478    -0.016736
H     -1.358840    -0.704838    -0.297712
H     -2.719209     0.213665     0.302634
C     -0.821457     1.379406     0.039682
H     -2.610227     3.064693    -0.204828
H      0.209217     1.105680    -0.076796
6
Family_1 [H+].[H][C-]=C([H])[H] | RMSD: 0.3180 | 6052.00 to state    1 from traj    1 on state    2
C     -1.678875     0.257363    -0.009132
H     -1.257366    -0.737734     0.100118
H     -2.728153     0.230166    -0.015326
C     -0.775323     1.387455    -0.006479
H     -2.734107     2.636130     0.141188
H      0.231348     1.027140    -0.043256
6
Family_1 [H+].[H][C-]=C([H])[H] | RMSD: 0.6943 | 452.00 to state    1 from traj    1 on state    2
C     -1.637563     0.147065    -0.022077
H     -1.527075    -0.578122    -0.787644
H     -2.372670    -0.231082     0.662331
C     -0.888655     1.424549     0.092712
H     -1.849100     3.345741    -0.616200
H      0.118732     1.491435    -0.103429
6
Family_1 [H+].[H][C-]=C([H])[H] | RMSD: 0.7913 | 1644.00 to state    1 from traj    1 on state    2
C     -1.593755     0.180435     0.013569
H     -1.006582    -0.521421     0.540184
H     -2.534666    -0.045527    -0.493315
C     -0.994965     1.580698    -0.087022
H     -1.382139     2.365799     0.617342
H      0.038026    -0.029131     0.207742
6
Family_1 [H+].[H][C-]=C([H])[H] | RMSD: 0.9001 | 3968.00 to state    1 from traj    1 on state    2
C     -1.519634     0.039486    -0.070824
H     -1.873220    -0.251016     0.860879
H     -2.366698     0.866781    -0.321119
C     -0.925976     1.455049     0.098445
H     -1.716014     2.791181     0.051567
H     -0.634671     1.539481    -0.923724
6
Family_1 [H+].[H][C-]=C([H])[H] | RMSD: 0.9389 | 2152.00 to state    1 from traj    1 on state    2
C     -1.432876     0.131754    -0.035752
H     -1.187677    -1.057172    -0.287782
H     -2.734896     0.677471     0.593246
C     -1.032286     1.581396    -0.070618
H     -1.342386     2.628819     0.056583
H     -1.092678     0.092362     0.902138
6
Family_1 [H+].[H][C-]=C([H])[H] | RMSD: 0.2785 | 596.00 to state    1 from traj    1 on state    2
C     -1.681769     0.169310    -0.000333
H     -1.390051    -0.988998    -0.151534
H     -2.735198     0.188276     0.069446
C     -0.788119     1.444569     0.019499
H     -2.537345     3.020531    -0.043996
H      0.361268     1.304551    -0.105573
6
Family_1 [H+].[H][C-]=C([H])[H] | RMSD: 0.3590 | 2220.00 to state    1 from traj    1 on state    2
C     -1.657343     0.183650    -0.002004
H     -1.298692    -0.767175     0.008757
H     -2.789222     0.710104     0.026818
C     -0.779828     1.379096    -0.013083
H     -2.847154     2.894582     0.107975
H      0.243901     1.296134     0.032942
6
Family_1 [H+].[H][C-]=C([H])[H] | RMSD: 0.3525 | 3304.00 to state    1 from traj    1 on state    2
C     -1.636984     0.231271     0.000808
H     -1.539965    -0.782627     0.033909
H     -2.806210     0.380325    -0.046787
C     -0.787713     1.378339    -0.008561
H     -2.826461     2.789470     0.123357
H      0.332835     1.188064    -0.021381
6
Family_1 [H+].[H][C-]=C([H])[H] | RMSD: 0.3357 | 4540.00 to state    1 from traj    1 on state    2
C     -1.646479     0.210975    -0.021913
H     -1.433054    -0.665396     0.118837
H     -2.822889     0.411908     0.071605
C     -0.793911     1.380231    -0.006079
H     -2.777522     2.862138     0.123263
H      0.380655     1.185870     0.016559
6
Family_1 [H+].[H][C-]=C([H])[H] | RMSD: 0.3563 | 392.00 to state    1 from traj    1 on state    2
C     -1.696290     0.264829     0.022655
H     -1.289814    -0.867678    -0.098107
H     -2.683461     0.276688    -0.089932
C     -0.751612     1.377448    -0.016745
H     -2.851130     2.611813     0.119263
H      0.261097     1.165154    -0.004928
6
Family_1 [H+].[H][C-]=C([H])[H] | RMSD: 0.5965 | 2356.00 to state    1 from traj    1 on state    2
C     -1.673690     0.122453     0.002394
H     -1.809854    -0.741969     0.595881
H     -2.681172     0.346035    -0.450584
C     -0.751497     1.461714    -0.067904
H     -2.531470     2.678852     0.573482
H      0.188532     1.595484     0.058539
6
Family_1 [H+].[H][C-]=C([H])[H] | RMSD: 1.0240 | 5276.00 to state    1 from traj    1 on state    2
C     -1.440801     0.237070    -0.078760
H     -1.196908    -0.851770     0.959750
H     -2.666241    -0.070407    -0.369326
C     -1.081080     1.584333     0.068271
H     -1.257927     2.524240     0.247752
H     -0.560715    -0.550495    -0.716470
6
Family_1 [H+].[H][C-]=C([H])[H] | RMSD: 0.9277 | 7760.00 to state    1 from traj    1 on state    2
C     -1.460244     0.262186    -0.027083
H     -1.283372    -0.404400     0.621644
H     -2.304128    -0.088978    -0.547093
C     -1.110727     1.468764     0.101255
H     -1.182304     2.634079     0.044284
H     -0.327049    -0.011315    -1.005928
6
Family_1 [H+].[H][C-]=C([H])[H] | RMSD: 0.9491 | 7804.00 to state    2 from traj    3 on state    1
C     -1.475913     0.278159    -0.035517
H     -1.173290    -0.591614     0.671193
H     -2.406980    -0.096026    -0.564719
C     -1.088580     1.467835     0.129280
H     -1.208260     2.573366    -0.021490
H     -0.385514     0.064398    -1.205520
6
Family_1 [H+].[H][C-]=C([H])[H] | RMSD: 0.8757 | 1768.00 to state    1 from traj    1 on state    2
C     -1.660399     0.359613     0.028186
H     -1.555654    -0.230550    -0.885054
H     -2.448984    -0.178139     0.569951
C     -0.813370     1.295430    -0.037696
H     -2.181792     1.953682    -0.238476
H     -0.068651     1.488878     0.663613
6
Family_1 [H+].[H][C-]=C([H])[H] | RMSD: 0.3356 | 2028.00 to state    1 from traj    1 on state    2
C     -1.679169     0.233763    -0.001667
H     -1.215555    -0.598890     0.154923
H     -2.762322     0.303204    -0.092429
C     -0.770199     1.340886    -0.028840
H     -2.961016     3.119924     0.259750
H      0.393054     1.167571     0.037980
6
Family_1 [H+].[H][C-]=C([H])[H] | RMSD: 0.2284 | 4796.00 to state    1 from traj    1 on state    2
C     -1.622403     0.184516    -0.009164
H     -1.206693    -0.986681    -0.014223
H     -2.542821     0.451459     0.044418
C     -0.861227     1.381273     0.003240
H     -2.533980     3.444741     0.074014
H      0.145924     1.187866    -0.036911
6
Family_1 [H+].[H][C-]=C([H])[H] | RMSD: 0.2914 | 584.00 to state    1 from traj    1 on state    2
C     -1.635591     0.222393    -0.024447
H     -1.457910    -0.971372    -0.099213
H     -2.667992     0.271366     0.224517
C     -0.821693     1.402413     0.019324
H     -2.644283     2.981284    -0.049375
H      0.318673     1.112888    -0.018163
6
Family_1 [H+].[H][C-]=C([H])[H] | RMSD: 0.2150 | 3412.00 to state    1 from traj    1 on state    2
C     -1.644612     0.202474    -0.001085
H     -1.348839    -0.837585     0.164682
H     -2.654435     0.212530    -0.131418
C     -0.831334     1.426602    -0.024475
H     -2.472698     2.946816     0.246512
H      0.246841     1.021514     0.021506
6
Family_1 [H+].[H][C-]=C([H])[H] | RMSD: 0.6003 | 22952.00 to state    1 from traj    1 on state    2
C     -1.618599     0.209017    -0.009764
H     -1.494772    -0.512784    -0.750224
H     -2.607653     0.177357     0.553444
C     -0.858592     1.434721     0.100108
H     -2.272256     2.612055    -0.638535
H      0.160383     0.891948    -0.244478
6
Family_1 [H+].[H][C-]=C([H])[H] | RMSD: 0.2396 | 556.00 to state    1 from traj    1 on state    2
C     -1.671827     0.200612     0.034861
H     -1.170439    -0.716705     0.094347
H     -2.646318     0.352535    -0.323994
C     -0.811125     1.406480    -0.043511
H     -2.561379     2.900308     0.311187
H      0.232486     1.069090     0.018250
6
Family_1 [H+].[H][C-]=C([H])[H] | RMSD: 0.4674 | 1624.00 to state    1 from traj    1 on state    2
C     -1.569437     0.175633     0.000689
H     -0.976235    -0.803694     0.255273
H     -2.630037    -0.078388    -0.246945
C     -0.990572     1.392777    -0.049732
H     -1.715963     3.870285     0.409978
H      0.094765     1.077948     0.162799
6
Family_1 [H+].[H][C-]=C([H])[H] | RMSD: 0.5496 | 1916.00 to state    1 from traj    1 on state    2
C     -1.589826     0.145120     0.025366
H     -0.919471    -0.620005     0.182183
H     -2.555341    -0.112937    -0.385967
C     -0.989776     1.385203    -0.049867
H     -1.638713     4.026088     0.407012
H      0.119513     1.226836     0.085436
6
Family_1 [H+].[H][C-]=C([H])[H] | RMSD: 0.5484 | 2012.00 to state    1 from traj    1 on state    2
C     -1.611163     0.117764     0.024296
H     -0.883556    -0.741552     0.199849
H     -2.632215    -0.078077    -0.393505
C     -0.976859     1.419218    -0.047526
H     -1.553796     3.934174     0.401844
H      0.175899     1.326086     0.065328
6
Family_1 [H+].[H][C-]=C([H])[H] | RMSD: 0.2870 | 632.00 to state    1 from traj    1 on state    2
C     -1.603377     0.139693    -0.017948
H     -1.220259    -0.960915     0.195930
H     -2.808903     0.309836    -0.048121
C     -0.879126     1.409432    -0.022928
H     -2.256996     3.614186     0.249208
H      0.135150     1.332833     0.086771
6
Family_1 [H+].[H][C-]=C([H])[H] | RMSD: 0.2784 | 1548.00 to state    1 from traj    1 on state    2
C     -1.639281     0.235983     0.010988
H     -1.217986    -0.814429     0.227783
H     -2.821447     0.203509    -0.274167
C     -0.836000     1.426829    -0.032560
H     -2.493910     2.760896     0.316914
H      0.296275     0.791314    -0.016764
6
Family_1 [H+].[H][C-]=C([H])[H] | RMSD: 0.3207 | 4540.00 to state    1 from traj    1 on state    2
C     -1.650580     0.238085     0.001807
H     -1.382252    -0.859621    -0.357066
H     -2.594839    -0.113973     0.183575
C     -0.824925     1.427791     0.040611
H     -2.420032     2.942030    -0.198103
H      0.162727     0.936344    -0.137136
6
Family_1 [H+].[H][C-]=C([H])[H] | RMSD: 0.2970 | 372.00 to state    1 from traj    1 on state    2
C     -1.683106     0.163464    -0.014775
H     -1.317970    -0.889649    -0.220075
H     -2.693473     0.263789     0.256573
C     -0.795966     1.474258     0.024457
H     -2.442651     2.776258    -0.131120
H      0.262210     1.089860    -0.024027
6
Family_1 [H+].[H][C-]=C([H])[H] | RMSD: 0.2367 | 452.00 to state    1 from traj    1 on state    2
C     -1.656467     0.178409    -0.009919
H     -1.342328    -0.857648    -0.061634
H     -2.798097     0.288262     0.084904
C     -0.793168     1.408641     0.011583
H     -2.617459     3.125386     0.010261
H      0.215232     1.288049    -0.056630
6
Family_1 [H+].[H][C-]=C([H])[H] | RMSD: 0.2827 | 636.00 to state    1 from traj    1 on state    2
C     -1.641271     0.204580    -0.009922
H     -1.347046    -0.844240    -0.159807
H     -2.831651     0.316282     0.149311
C     -0.807582     1.374377     0.023046
H     -2.729131     3.209651    -0.069313
H      0.355865     1.258793    -0.079849
6
Family_1 [H+].[H][C-]=C([H])[H] | RMSD: 0.2369 | 1564.00 to state    1 from traj    1 on state    2
C     -1.640091     0.186090     0.003661
H     -1.477334    -0.847723    -0.110377
H     -2.644230     0.174072     0.025317
C     -0.838424     1.452218     0.001352
H     -2.443625     2.929958     0.031335
H      0.366660     0.976968    -0.009285
6
Family_1 [H+].[H][C-]=C([H])[H] | RMSD: 0.3386 | 6968.00 to state    1 from traj    1 on state    2
C     -1.651513     0.217403    -0.021034
H     -1.317239    -0.613913     0.445755
H     -2.618072     0.066056    -0.169560
C     -0.828792     1.383421    -0.051693
H     -2.524934     3.137929     0.454828
H      0.283041     1.089846     0.132281
6
Family_1 [H+].[H][C-]=C([H])[H] | RMSD: 0.3510 | 10528.00 to state    1 from traj    1 on state    2
C     -1.624707     0.242251     0.016430
H     -1.569372    -0.798271    -0.296231
H     -2.740648     0.191733     0.046480
C     -0.811559     1.412178     0.025564
H     -2.636271     2.683327    -0.124644
H      0.244336     0.964387    -0.129271
6
Family_1 [H+].[H][C-]=C([H])[H] | RMSD: 0.8345 | 4296.00 to state    1 from traj    1 on state    2
C     -1.634299     0.256115     0.023247
H     -1.401214    -0.776785     0.461673
H     -2.490217    -0.202471    -0.769946
C     -0.785545     1.370714     0.075501
H     -2.037138     2.750158     0.138877
H     -0.969068     1.599153    -1.010547
6
Family_1 [H+].[H][C-]=C([H])[H] | RMSD: 0.9465 | 6248.00 to state    1 from traj    1 on state    2
C     -1.526816     0.224917    -0.035028
H     -1.292217    -0.646713    -0.184196
H     -2.130691    -0.156144     0.593162
C     -1.052130     1.512697    -0.136595
H     -1.220530     2.637215     0.347717
H     -0.358391     0.215619     1.285039
6
Family_1 [H+].[H][C-]=C([H])[H] | RMSD: 0.9435 | 6352.00 to state    1 from traj    1 on state    2
C     -1.513757     0.247884    -0.020898
H     -1.245166    -0.894743    -0.402722
H     -2.380806    -0.006608     0.669885
C     -1.035996     1.496669    -0.143271
H     -1.303916     2.523435     0.274189
H     -0.419788     0.345213     1.411557
6
Family_1 [H+].[H][C-]=C([H])[H] | RMSD: 0.9608 | 6672.00 to state    1 from traj    1 on state    2
C     -1.516585     0.243833     0.044635
H     -1.227307    -0.306511    -0.722710
H     -2.350101     0.424531     0.495715
C     -1.006046     1.417928    -0.177397
H     -1.639030     2.385152     0.270414
H     -0.456415     0.450638     1.535255
6
Family_1 [H+].[H][C-]=C([H])[H] | RMSD: 0.2045 | 1612.00 to state    1 from traj    1 on state    2
C     -1.586985     0.131348     0.025323
H     -1.477827    -0.931257    -0.052970
H     -2.740423     0.196760    -0.206697
C     -0.902691     1.486180    -0.015394
H     -2.115870     3.253033     0.145243
H      0.268583     0.962349    -0.007175
6
Family_1 [H+].[H][C-]=C([H])[H] | RMSD: 0.2002 | 2716.00 to state    1 from traj    1 on state    2
C     -1.604027     0.171571     0.037838
H     -1.414618    -0.912309    -0.075563
H     -2.571997     0.430519    -0.260132
C     -0.862783     1.424495    -0.019931
H     -2.405876     3.129276     0.160710
H      0.054493     1.089125    -0.041669
6
Family_1 [H+].[H][C-]=C([H])[H] | RMSD: 0.2142 | 4520.00 to state    1 from traj    1 on state    2
C     -1.678020     0.118556    -0.019282
H     -1.268862    -0.935132    -0.040280
H     -2.858633     0.151399     0.142043
C     -0.804030     1.501724     0.009524
H     -2.275504     3.050130     0.008442
H      0.246596     1.181695     0.002790
6
Family_1 [H+].[H][C-]=C([H])[H] | RMSD: 0.9769 | 1816.00 to state    1 from traj    1 on state    2
C     -1.523937     0.186355    -0.040038
H     -1.017724    -1.336945     0.649925
H     -2.364365    -0.101057    -0.364071
C     -1.019679     1.657755     0.034349
H     -1.261610     2.645330     0.266102
H     -0.779100    -0.426322    -0.487449
6
Family_1 [H+].[H][C-]=C([H])[H] | RMSD: 1.0689 | 4616.00 to state    1 from traj    1 on state    2
C     -1.416182     0.211900    -0.075431
H     -1.641957    -1.046871     1.043910
H     -2.693060    -0.337071    -0.539885
C     -1.030000     1.589229     0.092285
H     -1.274349     2.782398     0.241584
H     -0.974422    -0.105300    -0.949726
6
Family_1 [H+].[H][C-]=C([H])[H] | RMSD: 1.0420 | 6440.00 to state    1 from traj    1 on state    2
C     -1.381749     0.086854    -0.047584
H     -1.428651    -0.231152     0.971639
H     -2.983271     0.455111    -0.596195
C     -1.121913     1.614941     0.051411
H     -1.082561     2.611117     0.288717
H     -0.404401    -0.358293    -0.713045
6
Family_1 [H+].[H][C-]=C([H])[H] | RMSD: 1.0405 | 3016.00 to state    1 from traj    1 on state    2
C     -1.551428     0.291158     0.077846
H     -0.902931    -0.892875    -1.082186
H     -2.333156    -0.265886     0.194252
C     -1.003001     1.575555     0.019794
H     -1.472231     2.277758    -0.417532
H     -0.585633    -0.607324     0.138744
6
Family_1 [H+].[H][C-]=C([H])[H] | RMSD: 0.2484 | 452.00 to state    1 from traj    1 on state    2
C     -1.604153     0.161443    -0.000623
H     -1.287861    -0.769892     0.255641
H     -2.572582     0.337575    -0.197303
C     -0.903261     1.409541    -0.043405
H     -2.265417     3.379143     0.355218
H      0.271681     1.088656     0.107792
6
Family_1 [H+].[H][C-]=C([H])[H] | RMSD: 0.5744 | 5624.00 to state    1 from traj    1 on state    2
C     -1.561179     0.077268    -0.008845
H     -0.883796    -0.634519     0.241045
H     -2.776367     0.188714    -0.175642
C     -1.020512     1.428804    -0.031072
H     -1.356854     3.922210     0.302795
H      0.047899     1.332551     0.104159
6
Family_1 [H+].[H][C-]=C([H])[H] | RMSD: 0.3783 | 544.00 to state    1 from traj    1 on state    2
C     -1.651769     0.207514    -0.033561
H     -1.413247    -0.762572    -0.023867
H     -2.678997     0.508071     0.269759
C     -0.801187     1.415273     0.016896
H     -2.660182     2.600336    -0.047811
H      0.249347     1.072388    -0.002779
6
Family_1 [H+].[H][C-]=C([H])[H] | RMSD: 0.2952 | 3692.00 to state    1 from traj    1 on state    2
C     -1.594650     0.174890    -0.002318
H     -0.975458    -0.569067    -0.327946
H     -2.726527     0.289106     0.193235
C     -0.904057     1.374069     0.039483
H     -2.228642     3.572338    -0.193166
H     -0.027300     1.005545    -0.118243
6
Family_1 [H+].[H][C-]=C([H])[H] | RMSD: 0.4608 | 4972.00 to state    1 from traj    1 on state    2
C     -1.666264     0.316351    -0.000582
H     -1.310708    -0.579756    -0.250462
H     -2.723997     0.169014     0.146355
C     -0.769766     1.349704     0.043097
H     -2.828736     2.396343    -0.181722
H      0.158679     0.917041    -0.224054
6
Family_1 [H+].[H][C-]=C([H])[H] | RMSD: 0.3350 | 732.00 to state    1 from traj    1 on state    2
C     -1.580256     0.202519     0.005348
H     -1.406711    -0.846911     0.260993
H     -2.673876     0.168303    -0.255434
C     -0.888299     1.356753    -0.056127
H     -2.441996     3.626030     0.428051
H      0.205385     1.227614     0.168171
6
Family_1 [H+].[H][C-]=C([H])[H] | RMSD: 0.2554 | 1228.00 to state    1 from traj    1 on state    2
C     -1.618401     0.143262     0.007452
H     -1.318226    -0.815222    -0.065909
H     -2.800189     0.351507    -0.057117
C     -0.849464     1.393245     0.001048
H     -2.464757     3.542422     0.071423
H      0.257744     1.367597    -0.052959
6
Family_1 [H+].[H][C-]=C([H])[H] | RMSD: 1.0006 | 17020.00 to state    1 from traj    1 on state    2
C     -1.405163     0.190852     0.004477
H     -1.623419    -0.481605     0.791992
H     -2.796669     0.093937    -0.837578
C     -1.060450     1.551377     0.016109
H     -1.174845     2.360140     0.402443
H     -0.757321     0.022511    -0.605434
6
Family_1 [H+].[H][C-]=C([H])[H] | RMSD: 0.3272 | 728.00 to state    1 from traj    1 on state    2
C     -1.603635     0.159050    -0.002041
H     -1.317759    -0.911501    -0.364108
H     -2.671163     0.211839     0.196057
C     -0.888018     1.402267     0.048190
H     -2.254064     3.560985    -0.228928
H      0.201007     1.289359    -0.156202
6
Family_1 [H+].[H][C-]=C([H])[H] | RMSD: 0.3330 | 1684.00 to state    1 from traj    1 on state    2
C     -1.642440     0.264716    -0.041432
H     -1.333069    -0.852190    -0.170919
H     -2.667421     0.070466     0.386753
C     -0.821939     1.394269     0.046077
H     -2.591988     2.855871    -0.186692
H      0.225513     0.912744    -0.087769
6
Family_1 [H+].[H][C-]=C([H])[H] | RMSD: 0.5045 | 368.00 to state    1 from traj    1 on state    2
C     -1.571879     0.113114    -0.033937
H     -1.383276    -0.895576    -0.357837
H     -2.490138     0.168175     0.416133
C     -0.954203     1.432302     0.066320
H     -1.783637     3.681387    -0.330243
H      0.025320     1.386156    -0.117198
6
Family_1 [H+].[H][C-]=C([H])[H] | RMSD: 0.2143 | 632.00 to state    1 from traj    1 on state    2
C     -1.614952     0.138789    -0.002860
H     -1.396446    -0.896079    -0.171279
H     -2.795994     0.230203     0.088726
C     -0.849400     1.447458     0.019119
H     -2.287578     3.296112    -0.058105
H      0.112727     1.223374    -0.056358
6
Family_1 [H+].[H][C-]=C([H])[H] | RMSD: 0.3407 | 1836.00 to state    1 from traj    1 on state    2
C     -1.658641     0.261265    -0.013789
H     -1.184348    -0.824291    -0.100673
H     -2.646507     0.292859     0.173432
C     -0.813599     1.417076     0.009893
H     -2.577482     2.520378    -0.022947
H      0.135039     0.767306    -0.006668
6
Family_1 [H+].[H][C-]=C([H])[H] | RMSD: 0.9990 | 2952.00 to state    1 from traj    1 on state    2
C     -1.668668     0.339338     0.027957
H     -1.902794    -0.872911     0.494230
H     -2.549774     0.448471    -0.650388
C     -0.702164     1.287227    -0.007954
H     -2.682741     1.651568     0.362274
H     -0.346333     2.146063    -0.447754
6
Family_1 [H+].[H][C-]=C([H])[H] | RMSD: 0.4385 | 576.00 to state    1 from traj    1 on state    2
C     -1.629485     0.183256    -0.042331
H     -1.108340    -0.607320    -0.196105
H     -2.626506    -0.048909     0.370930
C     -0.876258     1.347698     0.057637
H     -2.359732     3.909657    -0.207181
H      0.220493     1.259043    -0.153305
6
Family_1 [H+].[H][C-]=C([H])[H] | RMSD: 0.9629 | 1344.00 to state    1 from traj    1 on state    2
C     -1.534907     0.183426    -0.026561
H     -1.411006    -0.798118    -0.329087
H     -2.429079     0.411174     0.684827
C     -0.963049     1.474909    -0.144582
H     -1.383543     2.329628     0.272301
H     -0.743237     1.051958     1.407958
6
Family_1 [H+].[H][C-]=C([H])[H] | RMSD: 0.4058 | 1144.00 to state    1 from traj    1 on state    2
C     -1.637052     0.174500    -0.019913
H     -1.170602    -0.741505    -0.466045
H     -2.573169     0.009103     0.416361
C     -0.881910     1.399905     0.063400
H     -2.159658     3.504295    -0.348970
H      0.186863     1.222825    -0.122803
6
Family_1 [H+].[H][C-]=C([H])[H] | RMSD: 0.4242 | 1168.00 to state    1 from traj    1 on state    2
C     -1.640189     0.178235    -0.019118
H     -1.158982    -0.777137    -0.492837
H     -2.603234    -0.000430     0.415572
C     -0.880927     1.398055     0.073739
H     -2.149759     3.488908    -0.391939
H      0.221074     1.260920    -0.184920
6
Family_1 [H+].[H][C-]=C([H])[H] | RMSD: 0.8781 | 7552.00 to state    1 from traj    1 on state    2
C     -1.441277     0.218671     0.062074
H     -1.525724    -0.603257    -0.653565
H     -2.509690     0.117070     0.118027
C     -1.081791     1.556775    -0.093666
H     -1.467481     2.471804     0.091840
H     -0.164743    -0.386435     0.816862
6
Family_1 [H+].[H][C-]=C([H])[H] | RMSD: 0.9014 | 2624.00 to state    1 from traj    1 on state    2
C     -1.427674     0.094052     0.080974
H     -1.328559    -0.528995    -0.853948
H     -3.042918     0.128088     0.065327
C     -1.064179     1.634554    -0.061391
H     -1.147929     2.804577    -0.093598
H     -0.520183    -0.246358     0.645596
6
Family_1 [H+].[H][C-]=C([H])[H] | RMSD: 1.0288 | 3432.00 to state    1 from traj    1 on state    2
C     -1.480689     0.185597     0.028622
H     -1.237363    -0.758640    -0.671495
H     -2.265114     0.355300     0.528545
C     -1.054933     1.579003    -0.152655
H     -1.625484     2.649993     0.219053
H     -0.390088    -0.518222     1.398549
6
Family_1 [H+].[H][C-]=C([H])[H] | RMSD: 0.9841 | 5236.00 to state    1 from traj    1 on state    2
C     -1.425598     0.217246     0.046260
H     -1.953209    -1.036918    -1.038733
H     -2.467610     0.053856     0.526733
C     -1.040913     1.572699    -0.067496
H     -1.530204     2.425387    -0.198149
H     -0.390538    -0.015916     0.959908
6
Family_1 [H+].[H][C-]=C([H])[H] | RMSD: 0.7364 | 5996.00 to state    1 from traj    1 on state    2
C     -1.537095     0.154729     0.012340
H     -1.099623    -0.781599     0.213446
H     -2.412297     0.261712    -0.456099
C     -1.042746     1.586081     0.076663
H     -1.484672     2.699604    -0.042283
H      0.005437    -0.167827    -0.778873
6
Family_1 [H+].[H][C-]=C([H])[H] | RMSD: 0.4119 | 500.00 to state    1 from traj    1 on state    2
C     -1.626706     0.087658    -0.030125
H     -1.178515    -1.011221     0.020718
H     -2.681900     0.127805     0.133437
C     -0.916638     1.459741     0.017302
H     -1.841907     3.735011     0.024284
H      0.276281     1.464922    -0.028933
6
Family_1 [H+].[H][C-]=C([H])[H] | RMSD: 0.3971 | 684.00 to state    1 from traj    1 on state    2
C     -1.610574     0.102890    -0.025633
H     -1.145802    -0.860063     0.002391
H     -2.723504     0.086009     0.116926
C     -0.910427     1.431760     0.012082
H     -1.904993     3.826253     0.039861
H      0.082024     1.416228    -0.000990
6
Family_1 [H+].[H][C-]=C([H])[H] | RMSD: 0.6641 | 532.00 to state    1 from traj    1 on state    2
C     -1.582015     0.099801    -0.012421
H     -1.130838    -0.820957    -0.529925
H     -2.580670    -0.109902     0.360625
C     -0.993511     1.434545     0.067756
H     -1.384048     3.913751    -0.379077
H      0.052987     1.489158    -0.114261
6
Family_1 [H+].[H][C-]=C([H])[H] | RMSD: 0.6954 | 636.00 to state    1 from traj    1 on state    2
C     -1.584160     0.113376    -0.010949
H     -1.013702    -0.938656    -0.578956
H     -2.696651    -0.104337     0.358363
C     -0.991417     1.422176     0.085123
H     -1.384963     3.952261    -0.448501
H      0.053350     1.548413    -0.218032
6
Family_1 [H+].[H][C-]=C([H])[H] | RMSD: 1.0505 | 4392.00 to state    1 from traj    1 on state    2
C     -1.456710     0.101728    -0.126018
H     -1.247378    -0.277096     1.047145
H     -2.971521    -0.052631    -0.099368
C     -1.067107     1.617284     0.105474
H     -0.830175     2.596460     0.073598
H     -0.609649     0.004888    -0.779862
6
Family_1 [H+].[H][C-]=C([H])[H] | RMSD: 1.0799 | 6952.00 to state    1 from traj    1 on state    2
C     -1.472159     0.132467     0.059942
H     -1.350842    -1.002097    -1.003261
H     -2.317511    -0.223991     0.295778
C     -1.092395     1.694065    -0.016034
H     -0.911612     2.710065    -0.304848
H     -0.593346    -0.493529     0.485858
6
Family_1 [H+].[H][C-]=C([H])[H] | RMSD: 0.1884 | 456.00 to state    1 from traj    1 on state    2
C     -1.668881     0.170357     0.017789
H     -1.247804    -0.861660    -0.051990
H     -2.773437     0.345291    -0.123835
C     -0.799975     1.435635    -0.003524
H     -2.524051     2.957652     0.091188
H      0.231673     1.177050    -0.088633
6
Family_1 [H+].[H][C-]=C([H])[H] | RMSD: 0.2404 | 636.00 to state    1 from traj    1 on state    2
C     -1.644430     0.225794    -0.001618
H     -1.303599    -0.779258    -0.017141
H     -2.660593     0.348515     0.002385
C     -0.813956     1.360232    -0.001110
H     -2.782369     3.156890     0.089039
H      0.308190     1.130102    -0.045056
6
Family_1 [H+].[H][C-]=C([H])[H] | RMSD: 0.3475 | 696.00 to state    1 from traj    1 on state    2
C     -1.576984     0.155154    -0.013996
H     -1.360182    -1.021741     0.386789
H     -2.595595     0.257857    -0.226922
C     -0.920781     1.423458    -0.040368
H     -2.087334     3.500408     0.405698
H      0.073955     1.208061     0.078941
6
Family_1 [H+].[H][C-]=C([H])[H] | RMSD: 0.9592 | 3756.00 to state    1 from traj    1 on state    2
C     -1.623535     0.327597    -0.054529
H     -1.574221    -0.782757    -0.447904
H     -2.127218     0.160723     0.908365
C     -0.817667     1.308648    -0.056400
H     -2.103783     2.175792    -0.065914
H     -0.837918     1.704099     0.923955
6
Family_1 [H+].[H][C-]=C([H])[H] | RMSD: 0.5998 | 1748.00 to state    1 from traj    1 on state    2
C     -1.687446     0.233119     0.061218
H     -0.726218    -0.399578     0.086621
H     -2.390523     0.340732    -0.675749
C     -0.860337     1.288412     0.047931
H     -2.089138     3.055017     0.069366
H     -0.167266     1.628574    -0.784104
6
Family_1 [H+].[H][C-]=C([H])[H] | RMSD: 0.9621 | 3592.00 to state    1 from traj    1 on state    2
C     -1.544653     0.139327     0.011198
H     -1.293864    -0.670720     0.600838
H     -2.212745    -0.057937    -0.798014
C     -1.096441     1.578641     0.072875
H     -0.792268     2.563178     0.161441
H      0.037586     0.449548    -0.969332
6
Family_1 [H+].[H][C-]=C([H])[H] | RMSD: 1.0598 | 2464.00 to state    1 from traj    1 on state    2
C     -1.442659     0.234574    -0.015508
H     -1.566592    -1.129745     0.840498
H     -2.251344     0.181351    -0.828553
C     -1.036560     1.553987     0.097781
H     -1.508527     2.502894     0.187469
H     -0.863676    -0.111590    -1.183025
6
Family_1 [H+].[H][C-]=C([H])[H] | RMSD: 0.3804 | 632.00 to state    1 from traj    1 on state    2
C     -1.659731     0.072332    -0.038124
H     -1.234161    -0.951313    -0.071808
H     -2.838954     0.099033     0.278772
C     -0.842993     1.481534     0.026525
H     -2.039532     3.573825    -0.071001
H      0.202579     1.517905    -0.001038
6
Family_1 [H+].[H][C-]=C([H])[H] | RMSD: 0.3152 | 1508.00 to state    1 from traj    1 on state    2
C     -1.631068     0.123151     0.021875
H     -1.303183    -0.963451     0.303485
H     -2.687463     0.235899    -0.426404
C     -0.870337     1.469985    -0.048433
H     -2.107031     3.266842     0.425262
H      0.171905     1.232241     0.010832
6
Family_1 [H+].[H][C-]=C([H])[H] | RMSD: 0.3595 | 436.00 to state    1 from traj    1 on state    2
C     -1.633411     0.129773    -0.016206
H     -1.294916    -0.889575     0.324545
H     -2.758965     0.202679    -0.156553
C     -0.855138     1.410582    -0.032314
H     -2.289222     3.610019     0.347656
H      0.264142     1.477327     0.059211
6
Family_1 [H+].[H][C-]=C([H])[H] | RMSD: 0.2531 | 1132.00 to state    1 from traj    1 on state    2
C     -1.669002     0.201543     0.010790
H     -1.067919    -0.758659     0.182810
H     -2.640670     0.174280    -0.224849
C     -0.833674     1.371804    -0.041162
H     -2.558243     3.423049     0.345057
H      0.356209     1.168648     0.055603
6
Family_1 [H+].[H][C-]=C([H])[H] | RMSD: 0.3324 | 1704.00 to state    1 from traj    1 on state    2
C     -1.611556     0.252743    -0.008467
H     -1.380791    -1.020241    -0.278659
H     -2.875907     0.378810     0.205209
C     -0.822770     1.375221     0.044137
H     -2.748759     2.939161    -0.195393
H      0.280385     1.058805    -0.159475
6
Family_1 [H+].[H][C-]=C([H])[H] | RMSD: 0.4268 | 3212.00 to state    1 from traj    1 on state    2
C     -1.680862     0.235638    -0.011740
H     -1.476016    -0.904305    -0.047473
H     -2.578843     0.462933     0.130055
C     -0.751134     1.359802     0.001499
H     -3.016063     2.844117     0.041343
H      0.318100     1.341329    -0.005183
6
Family_1 [H+].[H][C-]=C([H])[H] | RMSD: 0.4393 | 4212.00 to state    1 from traj    1 on state    2
C     -1.627851     0.230087    -0.043964
H     -1.671595    -1.110430     0.309757
H     -2.761871     0.363639     0.081348
C     -0.792502     1.408329    -0.010792
H     -2.748690     2.730040     0.214303
H      0.290594     1.248737     0.043762
6
Family_1 [H+].[H][C-]=C([H])[H] | RMSD: 0.3531 | 596.00 to state    1 from traj    1 on state    2
C     -1.646697     0.222226    -0.013165
H     -1.332822    -0.750999    -0.222135
H     -2.703359     0.310913     0.214631
C     -0.797249     1.335391     0.036817
H     -2.894206     3.360100    -0.139188
H      0.319946     1.274746    -0.138411
6
Family_1 [H+].[H][C-]=C([H])[H] | RMSD: 0.2585 | 356.00 to state    1 from traj    1 on state    2
C     -1.623898     0.156134     0.004583
H     -1.148899    -0.859584    -0.101759
H     -2.704046     0.200105    -0.027630
C     -0.885027     1.393452     0.011019
H     -2.283457     3.674503     0.033133
H      0.300237     1.275436    -0.092930
6
Family_1 [H+].[H][C-]=C([H])[H] | RMSD: 0.2443 | 1112.00 to state    1 from traj    1 on state    2
C     -1.585682     0.153356    -0.012105
H     -1.304087    -0.837497     0.098815
H     -2.658248     0.331584    -0.022313
C     -0.925954     1.403890    -0.014229
H     -2.217118     3.556080     0.176275
H      0.375589     1.149010     0.057733
6
Family_1 [H+].[H][C-]=C([H])[H] | RMSD: 0.6684 | 1684.00 to state    1 from traj    1 on state    2
C     -1.587529     0.201172    -0.054376
H     -1.096879    -0.572605    -0.587138
H     -2.429281    -0.069467     0.677515
C     -0.975022     1.350446     0.139194
H     -1.754925     3.636515    -0.687052
H      0.083904     1.271810    -0.417274
6
Family_1 [H+].[H][C-]=C([H])[H] | RMSD: 0.8569 | 2116.00 to state    1 from traj    1 on state    2
C     -1.632781     0.119446    -0.019980
H     -1.644452    -0.429802    -0.903125
H     -2.518489    -0.114890     0.667502
C     -0.868498     1.390430     0.144915
H     -1.823418     3.357220    -0.845601
H      0.059085     1.951099    -0.410739
6
Family_1 [H+].[H][C-]=C([H])[H] | RMSD: 1.0055 | 2956.00 to state    1 from traj    1 on state    2
C     -1.383889     0.205938    -0.068745
H     -1.419911    -1.380554     0.829011
H     -2.484233     0.310915    -0.401555
C     -1.112109     1.586346     0.101007
H     -1.321390     2.817421     0.103695
H     -0.764672    -0.349235    -0.918859
6
Family_1 [H+].[H][C-]=C([H])[H] | RMSD: 0.6099 | 5104.00 to state    1 from traj    1 on state    2
C     -1.530713     0.095609    -0.023216
H     -1.138326    -0.981543    -0.111219
H     -2.540476     0.137247     0.137882
C     -1.062919     1.454079     0.032639
H     -1.154739     3.785022    -0.085775
H      0.006709     1.348506    -0.056458
6
Family_1 [H+].[H][C-]=C([H])[H] | RMSD: 0.3210 | 652.00 to state    1 from traj    1 on state    2
C     -1.642412     0.155559    -0.009749
H     -1.243437    -0.790346     0.394966
H     -2.740546     0.064706    -0.249606
C     -0.857542     1.424203    -0.044941
H     -2.229644     3.399491     0.428753
H      0.270554     1.257040     0.074278
6
Family_1 [H+].[H][C-]=C([H])[H] | RMSD: 0.9959 | 8820.00 to state    1 from traj    1 on state    2
C     -1.552568     0.023468     0.178514
H     -2.002597    -0.654362    -0.334600
H     -1.456368     1.384723    -1.011650
C     -1.002643     1.471227    -0.114522
H     -1.750633     2.689679     0.432643
H     -0.075050     1.524487     0.147817
6
Family_1 [H+].[H][C-]=C([H])[H] | RMSD: 0.4145 | 5444.00 to state    1 from traj    1 on state    2
C     -1.673459     0.116609    -0.031067
H     -1.362299    -0.712435    -0.314619
H     -2.595322     0.337632     0.427268
C     -0.813437     1.417620     0.052025
H     -2.434201     3.329408    -0.278326
H      0.293166     1.518831    -0.087328
6
Family_1 [H+].[H][C-]=C([H])[H] | RMSD: 0.3681 | 5552.00 to state    1 from traj    1 on state    2
C     -1.672001     0.128329    -0.040494
H     -1.177094    -0.830662    -0.285829
H     -2.664529     0.359788     0.475304
C     -0.823915     1.428433     0.054416
H     -2.362476     3.287816    -0.281658
H      0.212918     1.388012    -0.076982
6
Family_1 [H+].[H][C-]=C([H])[H] | RMSD: 0.2904 | 7004.00 to state    1 from traj    1 on state    2
C     -1.575557     0.252632    -0.022298
H     -1.516735    -1.025036     0.011947
H     -2.589347     0.445316     0.114336
C     -0.862805     1.368194     0.012834
H     -2.721157     3.072921     0.032779
H      0.150261     0.948387    -0.049571
6
Family_1 [H+].[H][C-]=C([H])[H] | RMSD: 0.3876 | 8228.00 to state    1 from traj    1 on state    2
C     -1.676470     0.234500     0.015234
H     -1.225474    -0.622951     0.118559
H     -2.693625     0.581121    -0.173707
C     -0.767788     1.340856    -0.034719
H     -3.008327     2.858974     0.263667
H      0.320707     1.166245     0.020375
6
Family_1 [H+].[H][C-]=C([H])[H] | RMSD: 0.3124 | 576.00 to state    1 from traj    1 on state    2
C     -1.614136     0.150553    -0.034805
H     -1.142659    -0.881764     0.064913
H     -2.648410     0.133564     0.153105
C     -0.906572     1.402767     0.009209
H     -2.132430     3.730434     0.071705
H      0.227738     1.263738     0.011984
6
Family_1 [H+].[H][C-]=C([H])[H] | RMSD: 0.3389 | 1816.00 to state    1 from traj    1 on state    2
C     -1.660405     0.203994    -0.021075
H     -1.042298    -0.769800    -0.080016
H     -2.580782     0.189321     0.182019
C     -0.828758     1.336192     0.013957
H     -2.712043     3.755097     0.012533
H      0.263473     1.227841    -0.033002
6
Family_1 [H+].[H][C-]=C([H])[H] | RMSD: 0.2805 | 2300.00 to state    1 from traj    1 on state    2
C     -1.618406     0.216134     0.005810
H     -1.369484    -0.881424    -0.091806
H     -2.575153     0.337522    -0.015534
C     -0.833054     1.344731     0.002318
H     -2.772876     3.480260     0.065546
H      0.196617     1.219703    -0.058335
6
Family_1 [H+].[H][C-]=C([H])[H] | RMSD: 1.0118 | 5296.00 to state    1 from traj    1 on state    2
C     -1.401948     0.158661     0.030744
H     -1.749488    -0.298508    -0.882161
H     -2.457749     0.378615     0.609503
C     -1.093200     1.513582    -0.109186
H     -1.314332     2.605352    -0.048614
H     -0.478759     0.143449     1.252681
6
Family_1 [H+].[H][C-]=C([H])[H] | RMSD: 0.9333 | 6520.00 to state    1 from traj    1 on state    2
C     -1.397721     0.190166     0.094315
H     -1.148171    -0.290773    -0.938023
H     -2.889957     0.646600     0.077879
C     -1.075564     1.500709    -0.070258
H     -1.499150     2.536743    -0.111129
H     -0.723564    -0.285675     0.681336
6
Family_1 [H+].[H][C-]=C([H])[H] | RMSD: 0.9361 | 2096.00 to state    1 from traj    1 on state    2
C     -1.669184     0.140813    -0.056521
H     -0.968240    -0.850788    -0.513082
H     -2.031453    -0.183705     1.012539
C     -0.903784     1.552678    -0.088348
H     -1.470194     2.916508     0.017606
H     -0.603168     0.693706     1.205872
6
Family_1 [H+].[H][C-]=C([H])[H] | RMSD: 0.9161 | 1664.00 to state    1 from traj    1 on state    2
C     -1.628728     0.181535     0.027200
H     -1.229929    -0.462178    -0.691425
H     -2.629915    -0.014583     0.446799
C     -0.829318     1.379566    -0.081322
H     -1.552873     2.718122    -0.005331
H     -1.029716     1.911885     0.891583
6
Family_1 [H+].[H][C-]=C([H])[H] | RMSD: 0.8888 | 2928.00 to state    1 from traj    1 on state    2
C     -1.743417     0.185869    -0.058158
H     -1.210281    -0.677885    -0.331122
H     -2.297688     0.023722     0.908050
C     -0.716231     1.481300    -0.084131
H     -2.125324     2.211611     0.063523
H     -0.790050     1.331924     1.051736
6
Family_1 [H+].[H][C-]=C([H])[H] | RMSD: 0.4028 | 672.00 to state    1 from traj    1 on state    2
C     -1.667552     0.187876    -0.026504
H     -1.312681    -0.802638    -0.334332
H     -2.735365     0.175944     0.381807
C     -0.791404     1.369827     0.059441
H     -2.687888     3.395586    -0.282596
H      0.304356     1.424845    -0.160623
6
Family_1 [H+].[H][C-]=C([H])[H] | RMSD: 0.9387 | 6988.00 to state    1 from traj    1 on state    2
C     -1.592798     0.263083     0.196620
H     -1.295765    -0.645443    -0.170535
H     -1.822653     0.518345    -1.441621
C     -1.014327     1.335714    -0.053259
H     -1.424944     2.325867     0.404344
H     -0.122690     1.505312    -0.503717
6
Family_1 [H+].[H][C-]=C([H])[H] | RMSD: 0.9107 | 9304.00 to state    1 from traj    1 on state    2
C     -1.295035     0.244059     0.038687
H     -1.814452    -0.767706    -0.646187
H     -2.859017     0.579229     0.201793
C     -1.106873     1.502693    -0.037083
H     -1.705739     2.558080    -0.121557
H     -0.732141    -0.428516     0.543562
6
Family_1 [H+].[H][C-]=C([H])[H] | RMSD: 0.2976 | 612.00 to state    1 from traj    1 on state    2
C     -1.659372     0.187194    -0.011797
H     -1.251752    -0.762784    -0.036665
H     -2.683239     0.607643     0.113601
C     -0.797961     1.389645     0.007246
H     -2.737916     2.927246     0.014797
H      0.221987     1.193613    -0.040794
6
Family_1 [H+].[H][C-]=C([H])[H] | RMSD: 0.2941 | 1608.00 to state    1 from traj    1 on state    2
C     -1.687098     0.232284     0.011226
H     -1.140605    -0.792321    -0.184928
H     -2.814813     0.350161     0.043274
C     -0.774811     1.396328     0.007577
H     -2.720065     2.707633    -0.022056
H      0.279084     1.083340    -0.063629
6
Family_1 [H+].[H][C-]=C([H])[H] | RMSD: 0.2923 | 1568.00 to state    1 from traj    1 on state    2
C     -1.645792     0.263794    -0.001825
H     -1.265453    -0.910586     0.052423
H     -2.875341     0.234519    -0.057701
C     -0.783344     1.339396    -0.008001
H     -2.941704     3.177503     0.159145
H      0.295589     1.150299    -0.040066
6
Family_1 [H+].[H][C-]=C([H])[H] | RMSD: 0.2979 | 1824.00 to state    1 from traj    1 on state    2
C     -1.609617     0.262927     0.018358
H     -1.318125    -0.667519    -0.104382
H     -2.761304     0.261423    -0.084178
C     -0.818858     1.306521    -0.013881
H     -2.968490     3.417786     0.126618
H      0.253139     1.042097     0.005320
6
Family_1 [H+].[H][C-]=C([H])[H] | RMSD: 0.2195 | 1984.00 to state    1 from traj    1 on state    2
C     -1.618776     0.232120     0.016479
H     -1.127455    -0.885202    -0.091502
H     -2.859989     0.405184    -0.098048
C     -0.832894     1.342941    -0.001654
H     -2.783035     3.380872     0.088116
H      0.252078     1.086041    -0.078500
6
Family_1 [H+].[H][C-]=C([H])[H] | RMSD: 0.4770 | 2988.00 to state    1 from traj    1 on state    2
C     -1.567137     0.087182    -0.013459
H     -1.130907    -0.828003    -0.018632
H     -2.598606     0.224693     0.026491
C     -0.982148     1.426860     0.012606
H     -1.626551     3.912380     0.037677
H      0.000812     1.404906    -0.038654
6
Family_1 [H+].[H][C-]=C([H])[H] | RMSD: 0.4655 | 3172.00 to state    1 from traj    1 on state    2
C     -1.618468     0.108975     0.004806
H     -0.749600    -0.724266    -0.116157
H     -2.729543     0.059071    -0.035469
C     -0.968443     1.426956     0.012058
H     -1.639203     3.903296     0.023973
H      0.211432     1.215059    -0.076577
6
Family_1 [H+].[H][C-]=C([H])[H] | RMSD: 0.3590 | 560.00 to state    1 from traj    1 on state    2
C     -1.613511     0.182339    -0.030704
H     -1.220673    -0.858984     0.336803
H     -2.702525     0.221944    -0.040541
C     -0.867254     1.355623    -0.036381
H     -2.487727     3.742881     0.358486
H      0.239212     1.323127     0.141334
6
Family_1 [H+].[H][C-]=C([H])[H] | RMSD: 0.7904 | 1224.00 to state    1 from traj    1 on state    2
C     -1.759885     0.275684    -0.066078
H     -0.897462    -0.369008     0.105418
H     -2.711381    -0.078218     0.248015
C     -0.710800     1.340488     0.139316
H     -2.185159     2.197189    -0.396009
H     -0.497815     1.747078    -0.833392
6
Family_1 [H+].[H][C-]=C([H])[H] | RMSD: 0.9787 | 14352.00 to state    1 from traj    1 on state    2
C     -1.729421     0.322370     0.048745
H     -1.488225    -0.363904     0.705255
H     -2.211174     0.234184    -0.977607
C     -0.721527     1.272339    -0.016123
H     -2.516889     1.919397     0.532940
H     -0.310718     1.963107    -0.652585
6
Family_1 [H+].[H][C-]=C([H])[H] | RMSD: 0.2634 | 628.00 to state    1 from traj    1 on state    2
C     -1.631230     0.173255    -0.019862
H     -1.395005    -0.921210    -0.065459
H     -2.656535     0.319685     0.151719
C     -0.826306     1.396427     0.018869
H     -2.561698     3.338051    -0.019687
H      0.164742     1.314467    -0.058026
6
Family_1 [H+].[H][C-]=C([H])[H] | RMSD: 0.3311 | 1556.00 to state    1 from traj    1 on state    2
C     -1.643404     0.226995    -0.015576
H     -1.452438    -0.895941    -0.070656
H     -2.740782     0.227598     0.143193
C     -0.814724     1.445429     0.013199
H     -2.556924     2.609381    -0.019488
H      0.308687     0.885720    -0.028012
6
Family_1 [H+].[H][C-]=C([H])[H] | RMSD: 0.3480 | 1616.00 to state    1 from traj    1 on state    2
C     -1.633985     0.253642    -0.010369
H     -1.512292    -0.895736    -0.089388
H     -2.693022     0.225843     0.117857
C     -0.820445     1.414475     0.010588
H     -2.661189     2.649760    -0.007995
H      0.380980     0.898208    -0.026366
6
Family_1 [H+].[H][C-]=C([H])[H] | RMSD: 0.2665 | 6260.00 to state    1 from traj    1 on state    2
C     -1.648185     0.235222    -0.010801
H     -1.250418    -0.776552     0.199355
H     -2.856768     0.312761    -0.073073
C     -0.800534     1.372974    -0.024866
H     -2.749924     2.968357     0.252724
H      0.303551     1.087511     0.042705
6
Family_1 [H+].[H][C-]=C([H])[H] | RMSD: 0.9215 | 2788.00 to state    1 from traj    1 on state    2
C     -1.655684     0.155310     0.140152
H     -1.251341    -0.737696    -0.188726
H     -1.769487     0.109464    -1.104714
C     -1.024718     1.441279     0.033388
H     -1.080349     2.780184     0.073739
H      0.308279     1.578423    -0.851418
6
Family_1 [H+].[H][C-]=C([H])[H] | RMSD: 0.8523 | 3796.00 to state    1 from traj    1 on state    2
C     -1.675043     0.210185     0.119407
H     -1.227867    -0.890438     0.058899
H     -1.610292     0.138163    -1.007676
C     -0.980798     1.380144    -0.052545
H     -1.353072     2.792931     0.447180
H      0.105668     1.764311    -0.298395
6
Family_1 [H+].[H][C-]=C([H])[H] | RMSD: 0.6391 | 4652.00 to state    1 from traj    1 on state    2
C     -1.722091     0.264147     0.045813
H     -1.106204    -0.464612     0.475439
H     -2.341042     0.137279    -0.815414
C     -0.815053     1.304340     0.005677
H     -2.351132     2.748368     0.377802
H      0.298449     1.644205    -0.654648
6
Family_1 [H+].[H][C-]=C([H])[H] | RMSD: 0.2622 | 504.00 to state    1 from traj    1 on state    2
C     -1.641627     0.110592     0.011669
H     -1.474446    -0.787727    -0.220001
H     -2.766498     0.387582     0.046693
C     -0.824909     1.458892     0.008663
H     -2.391611     3.137138    -0.048498
H      0.291290     1.316356    -0.023740
6
Family_1 [H+].[H][C-]=C([H])[H] | RMSD: 0.3108 | 616.00 to state    1 from traj    1 on state    2
C     -1.625163     0.154253     0.017286
H     -1.534549    -0.979498    -0.268710
H     -2.831320     0.337020     0.013208
C     -0.817748     1.421958     0.018078
H     -2.545991     3.227544    -0.077404
H      0.289090     1.388132    -0.091755
6
Family_1 [H+].[H][C-]=C([H])[H] | RMSD: 0.2741 | 608.00 to state    1 from traj    1 on state    2
C     -1.635028     0.209249    -0.008547
H     -1.354647    -0.960932     0.145880
H     -2.932687     0.248050    -0.067819
C     -0.809264     1.386546    -0.023294
H     -2.665649     3.186129     0.234440
H      0.346665     1.266595     0.063621
6
Family_1 [H+].[H][C-]=C([H])[H] | RMSD: 0.3762 | 2224.00 to state    1 from traj    1 on state    2
C     -1.664590     0.227711     0.017840
H     -1.406243    -0.778312     0.154043
H     -2.723131     0.425361    -0.230812
C     -0.767316     1.354597    -0.044768
H     -2.926702     2.941105     0.326270
H      0.302171     1.312403     0.068083
6
Family_1 [H+].[H][C-]=C([H])[H] | RMSD: 0.6208 | 3020.00 to state    1 from traj    1 on state    2
C     -1.648184     0.278722     0.039104
H     -1.233027    -0.606127    -0.278927
H     -2.716794     0.513484    -0.249085
C     -0.777821     1.260898     0.098297
H     -2.620521     2.697242    -0.314700
H     -0.253878     1.804610    -0.797797
6
Family_1 [H+].[H][C-]=C([H])[H] | RMSD: 0.6108 | 400.00 to state    1 from traj    1 on state    2
C     -1.594223     0.112186    -0.033097
H     -1.573940    -0.630180    -0.643046
H     -2.441684     0.167104     0.646797
C     -0.929099     1.438243     0.086543
H     -1.856311     3.337213    -0.558655
H      0.207314     1.406272    -0.085233
6
Family_1 [H+].[H][C-]=C([H])[H] | RMSD: 0.9185 | 2272.00 to state    1 from traj    1 on state    2
C     -1.464916     0.172832     0.019539
H     -1.879538    -0.945922     0.033422
H     -2.270816     1.299001    -0.194833
C     -0.890740     1.205746    -0.024869
H     -2.691510     3.740976     0.195982
H     -0.820612     2.234081     0.025663
6
Family_1 [H+].[H][C-]=C([H])[H] | RMSD: 0.9426 | 2304.00 to state    1 from traj    1 on state    2
C     -1.462178     0.156900     0.027927
H     -1.921759    -0.978098    -0.011298
H     -2.216575     1.376955    -0.228291
C     -0.893867     1.219659    -0.021103
H     -2.686161     3.729299     0.169136
H     -0.833340     2.224033    -0.014142
6
Family_1 [H+].[H][C-]=C([H])[H] | RMSD: 0.8946 | 3120.00 to state    1 from traj    1 on state    2
C     -1.671964     0.234595    -0.039511
H     -1.421476    -0.969180    -0.191290
H     -2.266556     1.276074     0.533934
C     -0.789761     1.290507     0.001831
H     -2.599521     2.126837    -0.133316
H     -0.111044     2.148471     0.236367
6
Family_1 [H+].[H][C-]=C([H])[H] | RMSD: 0.9233 | 7872.00 to state    1 from traj    1 on state    2
C     -1.580448     0.214725     0.013514
H     -0.786784    -0.332061    -0.458947
H     -2.395263    -0.394145     0.362904
C     -1.041048     1.546433    -0.092295
H     -1.219263     2.751102     0.147534
H     -0.093505    -0.255469     0.883948
6
Family_1 [H+].[H][C-]=C([H])[H] | RMSD: 0.3465 | 576.00 to state    1 from traj    1 on state    2
C     -1.644221     0.144063    -0.002154
H     -1.217990    -0.805307    -0.226817
H     -2.785376    -0.030895     0.113075
C     -0.841773     1.404551     0.021821
H     -2.283580     3.721823    -0.067026
H      0.177545     1.416416    -0.056857
6
Family_1 [H+].[H][C-]=C([H])[H] | RMSD: 1.0034 | 2076.00 to state    1 from traj    1 on state    2
C     -1.600021     0.245925    -0.031439
H     -0.916855    -0.514294    -0.411706
H     -2.478501    -0.072512     0.810081
C     -0.966548     1.503917    -0.149020
H     -1.452842     2.265921     0.257659
H     -0.301106     0.225152     1.490975
6
Family_1 [H+].[H][C-]=C([H])[H] | RMSD: 0.5626 | 444.00 to state    1 from traj    1 on state    2
C     -1.626057     0.130887     0.003365
H     -1.214123    -0.861755     0.593496
H     -2.556965    -0.088686    -0.518287
C     -0.926281     1.436627    -0.068818
H     -1.748729     3.608105     0.631874
H      0.200939     1.419173     0.069555
6
Family_1 [H+].[H][C-]=C([H])[H] | RMSD: 1.0122 | 9956.00 to state    1 from traj    1 on state    2
C     -1.725889     0.310638     0.010588
H     -1.289192    -0.574240     0.630678
H     -2.598304     0.567036    -0.573214
C     -0.642087     1.257655    -0.023140
H     -2.712845     1.846801     0.450045
H     -0.915329     2.227955    -0.361216
6
Family_1 [H+].[H][C-]=C([H])[H] | RMSD: 0.4729 | 456.00 to state    1 from traj    1 on state    2
C     -1.616669     0.087591    -0.020162
H     -1.385553    -0.777249    -0.393012
H     -2.588257     0.079185     0.366265
C     -0.896244     1.450727     0.049756
H     -1.908494     3.645252    -0.281920
H      0.093648     1.477535    -0.047255
6
Family_1 [H+].[H][C-]=C([H])[H] | RMSD: 0.5153 | 688.00 to state    1 from traj    1 on state    2
C     -1.617523     0.142500    -0.040186
H     -1.135342    -0.960566    -0.406501
H     -2.677170     0.029873     0.488506
C     -0.922788     1.410616     0.079702
H     -1.910783     3.741660    -0.389048
H      0.261113     1.437420    -0.167106
6
Family_1 [H+].[H][C-]=C([H])[H] | RMSD: 1.0660 | 2360.00 to state    1 from traj    1 on state    2
C     -1.397688     0.284993    -0.120485
H     -1.603395    -0.864826     0.943036
H     -2.412135     0.158691    -0.006260
C     -1.024390     1.537567     0.080988
H     -1.801379     2.381907     0.136286
H     -1.054107    -0.637989    -0.605713
6
Family_1 [H+].[H][C-]=C([H])[H] | RMSD: 1.0527 | 2520.00 to state    1 from traj    1 on state    2
C     -1.390726     0.201548    -0.124342
H     -1.847308    -0.895702     1.141121
H     -2.488153     0.137534    -0.184164
C     -1.052123     1.598836     0.097683
H     -1.608535     2.551195     0.175879
H     -0.679522    -0.491003    -0.818463
6
Family_1 [H+].[H][C-]=C([H])[H] | RMSD: 0.5150 | 424.00 to state    1 from traj    1 on state    2
C     -1.592911     0.084421     0.009223
H     -1.030985    -0.819027     0.087159
H     -2.632076     0.026244    -0.222545
C     -0.982042     1.453010    -0.012757
H     -1.459558     3.854480     0.205421
H      0.073213     1.373597    -0.031208
6
Family_1 [H+].[H][C-]=C([H])[H] | RMSD: 0.5992 | 636.00 to state    1 from traj    1 on state    2
C     -1.587552     0.115169     0.021121
H     -1.091372    -0.914967    -0.002707
H     -2.618854    -0.164215    -0.251583
C     -0.989143     1.413310    -0.021189
H     -1.506968     4.099033     0.225343
H      0.188546     1.522115     0.026476
6
Family_1 [H+].[H][C-]=C([H])[H] | RMSD: 0.4126 | 1980.00 to state    1 from traj    1 on state    2
C     -1.623668     0.144803     0.038252
H     -0.928002    -0.726695    -0.068237
H     -2.653662     0.330556    -0.268175
C     -0.887211     1.343707    -0.032483
H     -2.399066     4.069733     0.239089
H      0.167850     1.344626     0.025304
6
Family_1 [H+].[H][C-]=C([H])[H] | RMSD: 0.3727 | 6996.00 to state    1 from traj    1 on state    2
C     -1.583618     0.104454     0.043070
H     -1.717356    -0.937481     0.004738
H     -2.673028     0.381707    -0.364972
C     -0.876450     1.447551    -0.038818
H     -2.246485     3.371372     0.265460
H      0.218540     1.446040     0.040827
6
Family_1 [H+].[H][C-]=C([H])[H] | RMSD: 0.1679 | 372.00 to state    1 from traj    1 on state    2
C     -1.636234     0.147037    -0.023275
H     -1.126232    -0.859137    -0.001469
H     -2.705584     0.316627     0.138723
C     -0.873086     1.434004     0.009517
H     -2.266816     3.347591     0.031210
H      0.267163     1.110576    -0.007813
6
Family_1 [H+].[H][C-]=C([H])[H] | RMSD: 0.2936 | 556.00 to state    1 from traj    1 on state    2
C     -1.629821     0.152328    -0.044461
H     -1.277413    -0.834225     0.060195
H     -2.691696     0.285257     0.238294
C     -0.844087     1.391358     0.022026
H     -2.449957     3.552412     0.004473
H      0.165650     1.357317    -0.038911
6
Family_1 [H+].[H][C-]=C([H])[H] | RMSD: 0.4111 | 1664.00 to state    1 from traj    1 on state    2
C     -1.620289     0.287404     0.004604
H     -1.478839    -0.847467    -0.155812
H     -2.666672     0.383729     0.055947
C     -0.827559     1.387899     0.014358
H     -2.750432     2.462455    -0.041879
H      0.331997     0.793735    -0.087489
6
Family_1 [H+].[H][C-]=C([H])[H] | RMSD: 1.0684 | 9044.00 to state    1 from traj    1 on state    2
C     -1.345585     0.082958    -0.069349
H     -1.690828    -0.432409     0.799241
H     -3.119216     0.586946    -0.339533
C     -1.035437     1.635816     0.101102
H     -1.523715     2.596829     0.018352
H     -1.026469    -0.476903    -0.859695
6
Family_1 [H+].[H][C-]=C([H])[H] | RMSD: 0.5952 | 560.00 to state    1 from traj    1 on state    2
C     -1.693376     0.192269     0.000615
H     -1.152730    -0.718580     0.435437
H     -2.526749    -0.077145    -0.532137
C     -0.796262     1.395570     0.069720
H     -2.102141     3.035410     0.111548
H     -0.284367     1.594957    -0.856222
6
Family_1 [H+].[H][C-]=C([H])[H] | RMSD: 0.9460 | 1996.00 to state    1 from traj    1 on state    2
C     -1.503251     0.049745    -0.004119
H     -1.760258    -0.607201     0.747145
H     -2.509943     1.245770    -0.735067
C     -0.953991     1.476773     0.072914
H     -1.666061     2.456286     0.148571
H     -0.515746     1.470465    -0.983671
6
Family_1 [H+].[H][C-]=C([H])[H] | RMSD: 0.3683 | 632.00 to state    1 from traj    1 on state    2
C     -1.633027     0.159259    -0.021236
H     -1.289745    -0.864148    -0.369613
H     -2.730302     0.081394     0.354888
C     -0.854801     1.408143     0.054140
H     -2.287103     3.512647    -0.274989
H      0.219602     1.348273    -0.105635
6
Family_1 [H+].[H][C-]=C([H])[H] | RMSD: 1.0815 | 3216.00 to state    1 from traj    1 on state    2
C     -1.483314     0.180535     0.202292
H     -1.370072    -0.164878    -1.631544
H     -2.482073     0.026224    -0.272883
C     -1.020760     1.566235    -0.038875
H     -1.493696     2.479862    -0.388924
H     -0.548130    -0.400326     0.342839
6
Family_1 [H+].[H][C-]=C([H])[H] | RMSD: 1.0578 | 7728.00 to state    1 from traj    1 on state    2
C     -1.504329     0.171380     0.014996
H     -0.902071    -0.641612    -0.623182
H     -2.537111    -0.004646     0.524524
C     -1.064016     1.620748    -0.114576
H     -1.227140     2.666874     0.114903
H     -0.461820    -0.620220     1.167037
6
Family_1 [H+].[H][C-]=C([H])[H] | RMSD: 0.2988 | 652.00 to state    1 from traj    1 on state    2
C     -1.622303     0.169417    -0.021108
H     -1.219410    -0.798649    -0.247056
H     -2.653170     0.085886     0.264274
C     -0.874672     1.400129     0.043538
H     -2.257494     3.554272    -0.178004
H      0.151517     1.211106    -0.109759
6
Family_1 [H+].[H][C-]=C([H])[H] | RMSD: 0.4321 | 3552.00 to state    1 from traj    1 on state    2
C     -1.667227     0.176753    -0.033666
H     -1.375289    -0.813110    -0.414734
H     -2.681850     0.231240     0.516531
C     -0.797920     1.397297     0.060768
H     -2.557383     3.163790    -0.352014
H      0.256707     1.417035    -0.076001
6
Family_1 [H+].[H][C-]=C([H])[H] | RMSD: 0.7644 | 4724.00 to state    1 from traj    1 on state    2
C     -1.659972     0.229788     0.033148
H     -1.561115    -0.783712    -0.198351
H     -2.599612     0.590665     0.109995
C     -0.744025     1.377584    -0.138719
H     -2.518696     2.130070     0.408295
H     -0.407037     1.664869     0.934731
6
Family_1 [H+].[H][C-]=C([H])[H] | RMSD: 0.9442 | 8700.00 to state    1 from traj    1 on state    2
C     -1.621240     0.225490     0.024602
H     -1.610593    -0.719449     0.663116
H     -2.625124     0.302076    -0.896650
C     -0.771675     1.368234     0.055447
H     -2.106047     2.295782     0.259884
H     -0.876740     1.886116    -0.983467
6
Family_1 [H+].[H][C-]=C([H])[H] | RMSD: 0.3698 | 1152.00 to state    1 from traj    1 on state    2
C     -1.687178     0.249680    -0.040016
H     -1.011192    -0.605247     0.126700
H     -2.715235     0.238298     0.220998
C     -0.786004     1.415033     0.000114
H     -2.581545     2.522872     0.081831
H      0.045896     0.762726     0.042646
6
Family_1 [H+].[H][C-]=C([H])[H] | RMSD: 0.8505 | 2912.00 to state    1 from traj    1 on state    2
C     -1.514539     0.118153     0.005117
H     -2.466830    -1.221395    -0.451435
H     -2.601538     0.033269     0.226711
C     -0.948635     1.552568     0.018676
H     -1.441739     2.467229    -0.225433
H      0.128778     1.567949     0.163366
6
Family_1 [H+].[H][C-]=C([H])[H] | RMSD: 0.6954 | 3232.00 to state    1 from traj    1 on state    2
C     -1.556592     0.097057     0.024083
H     -1.054911    -0.746792    -0.416290
H     -2.593288    -0.167692    -0.014382
C     -1.080181     1.482953     0.043255
H     -0.910569     3.643539    -0.209751
H      0.245995     1.198869    -0.165234
6
Family_1 [H+].[H][C-]=C([H])[H] | RMSD: 0.7605 | 4480.00 to state    1 from traj    1 on state    2
C     -1.549589     0.272177    -0.020903
H     -1.052995    -0.491739     0.606547
H     -2.553895     0.118201    -0.380380
C     -1.012502     1.483862    -0.007715
H     -1.553332     2.171654     0.358338
H     -0.042440     0.032304    -0.246784
6
Family_1 [H+].[H][C-]=C([H])[H] | RMSD: 0.2500 | 364.00 to state    1 from traj    1 on state    2
C     -1.617374     0.162532    -0.010454
H     -1.281553    -1.015960     0.253978
H     -2.634890     0.212449    -0.161287
C     -0.879824     1.428112    -0.020218
H     -2.236429     3.409804     0.282750
H      0.176962     1.194926    -0.013250
6
Family_1 [H+].[H][C-]=C([H])[H] | RMSD: 0.3174 | 572.00 to state    1 from traj    1 on state    2
C     -1.587274     0.167942    -0.017910
H     -1.443547    -0.764042     0.220211
H     -2.736902     0.222735    -0.064336
C     -0.875153     1.372278    -0.026599
H     -2.434173     3.631410     0.274950
H      0.224398     1.311959     0.096247
6
Family_1 [H+].[H][C-]=C([H])[H] | RMSD: 0.4363 | 2148.00 to state    1 from traj    1 on state    2
C     -1.661779     0.216117     0.014310
H     -1.586588    -0.887504     0.017788
H     -2.726750     0.485749    -0.118285
C     -0.747504     1.365482    -0.020992
H     -3.015316     2.887415     0.175698
H      0.305181     1.423334     0.001127
6
Family_1 [H+].[H][C-]=C([H])[H] | RMSD: 0.7314 | 1708.00 to state    1 from traj    1 on state    2
C     -1.717825     0.283967     0.018605
H     -1.476811    -0.754177    -0.381753
H     -2.682004     0.445291     0.304165
C     -0.707135     1.333524    -0.076118
H     -2.787317     2.038402     0.114914
H      0.109464     1.751806     0.644694
6
Family_1 [H+].[H][C-]=C([H])[H] | RMSD: 1.0077 | 2428.00 to state    1 from traj    1 on state    2
C     -1.528374     0.249482     0.179857
H     -1.928400    -0.348147    -0.866215
H     -3.120886    -1.034234    -0.929056
C     -0.955246     1.464256     0.023700
H     -1.201629     2.588175    -0.171117
H      0.113216     1.128675    -0.462411
6
Family_1 [H+].[H][C-]=C([H])[H] | RMSD: 0.3001 | 424.00 to state    1 from traj    1 on state    2
C     -1.635195     0.137629    -0.020801
H     -1.177986    -0.808758    -0.132901
H     -2.587308     0.083793     0.183894
C     -0.893336     1.427208     0.030024
H     -2.101808     3.600629    -0.079851
H      0.264551     1.233069    -0.084331
6
Family_1 [H+].[H][C-]=C([H])[H] | RMSD: 0.3355 | 628.00 to state    1 from traj    1 on state    2
C     -1.624686     0.157591    -0.028285
H     -0.999172    -0.772901    -0.166374
H     -2.820599     0.059310     0.265824
C     -0.897357     1.397554     0.030646
H     -2.136404     3.729421    -0.102667
H      0.276315     1.208393    -0.028196
6
Family_1 [H+].[H][C-]=C([H])[H] | RMSD: 0.6379 | 2520.00 to state    1 from traj    1 on state    2
C     -1.627391     0.171765    -0.002579
H     -0.955536    -0.793769    -0.026646
H     -2.805428     0.170051     0.171685
C     -0.841689     1.387055    -0.120051
H     -1.871747     3.189278     0.436366
H     -0.678232     1.614868     0.876538
6
Family_1 [H+].[H][C-]=C([H])[H] | RMSD: 0.4132 | 1720.00 to state    1 from traj    1 on state    2
C     -1.687470     0.282653    -0.020368
H     -1.340142    -0.748056    -0.214547
H     -2.593633    -0.110236     0.288047
C     -0.787548     1.411887     0.027512
H     -2.580896     2.544132    -0.127868
H      0.274484     0.877387    -0.034049
6
Family_1 [H+].[H][C-]=C([H])[H] | RMSD: 0.3031 | 26672.00 to state    1 from traj    1 on state    2
C     -1.674821     0.129154     0.022896
H     -1.212497    -0.863721    -0.254771
H     -2.593607    -0.128020    -0.047580
C     -0.861924     1.471353     0.010228
H     -2.058935     3.456054    -0.017203
H      0.360370     1.219383    -0.078432
6
Family_1 [H+].[H][C-]=C([H])[H] | RMSD: 0.8644 | 29580.00 to state    1 from traj    1 on state    2
C     -1.502542     0.122958    -0.001516
H     -2.454936    -1.606731     0.067213
H     -2.456171     0.336004    -0.184625
C     -0.954255     1.552229     0.033051
H     -1.524433     2.444960    -0.010191
H     -0.021766     1.619597    -0.251441
6
Family_1 [H+].[H][C-]=C([H])[H] | RMSD: 1.1208 | 3276.00 to state    1 from traj    1 on state    2
C     -1.461267     0.273151    -0.016243
H     -1.429391    -0.757729    -0.518875
H     -2.226749     0.154107     0.763419
C     -1.013311     1.498993    -0.154144
H     -1.606437     2.360832     0.242397
H     -0.982862    -0.118677     1.540052
6
Family_1 [H+].[H][C-]=C([H])[H] | RMSD: 0.2228 | 320.00 to state    1 from traj    1 on state    2
C     -1.677251     0.119329     0.009001
H     -1.342021    -0.912397    -0.113618
H     -2.799085     0.270963    -0.005187
C     -0.796145     1.474332    -0.003291
H     -2.395482     3.083066     0.047172
H      0.277062     1.323642     0.000311
6
Family_1 [H+].[H][C-]=C([H])[H] | RMSD: 0.2080 | 568.00 to state    1 from traj    1 on state    2
C     -1.656513     0.192692     0.007718
H     -1.299247    -0.839858    -0.070400
H     -2.789706     0.162639    -0.035343
C     -0.803912     1.395069    -0.007467
H     -2.603833     3.254029     0.100184
H      0.278707     1.258764    -0.000708
6
Family_1 [H+].[H][C-]=C([H])[H] | RMSD: 0.2589 | 2644.00 to state    1 from traj    1 on state    2
C     -1.674535     0.212024     0.003180
H     -1.094169    -0.613174     0.018222
H     -2.707472     0.098357    -0.048272
C     -0.807039     1.449904    -0.009979
H     -2.407551     2.716784     0.124469
H      0.047118     0.749851    -0.016685
6
Family_1 [H+].[H][C-]=C([H])[H] | RMSD: 1.0055 | 10360.00 to state    1 from traj    1 on state    2
C     -1.394105     0.215520     0.104981
H     -1.108946    -0.519649    -1.012360
H     -3.082125     0.205151     0.015474
C     -1.069473     1.543390    -0.068362
H     -1.326167     2.565565    -0.115193
H     -0.859273    -0.454849     0.672458
6
Family_1 [H+].[H][C-]=C([H])[H] | RMSD: 0.2282 | 532.00 to state    1 from traj    1 on state    2
C     -1.680414     0.210896     0.004458
H     -1.271365    -0.852621    -0.029075
H     -2.721952     0.219583    -0.033377
C     -0.778934     1.403382    -0.003238
H     -2.676452     2.961697     0.094727
H      0.242862     1.190945    -0.050099
6
Family_1 [H+].[H][C-]=C([H])[H] | RMSD: 0.3745 | 1952.00 to state    1 from traj    1 on state    2
C     -1.657866     0.257416     0.010731
H     -1.160570    -0.631538    -0.383776
H     -2.820062     0.424485     0.166137
C     -0.786789     1.342873     0.043211
H     -2.888183     2.856506    -0.230751
H      0.266815     1.036841    -0.197641
6
Family_1 [H+].[H][C-]=C([H])[H] | RMSD: 1.0857 | 4864.00 to state    1 from traj    1 on state    2
C     -1.433654     0.148864     0.098611
H     -1.448935    -0.894009    -1.241139
H     -2.571212    -0.044470     0.265456
C     -1.043379     1.648167    -0.071386
H     -1.307110     2.776452    -0.209526
H     -0.888929    -0.495988     0.857529
6
Family_1 [H+].[H][C-]=C([H])[H] | RMSD: 0.9676 | 5904.00 to state    1 from traj    1 on state    2
C     -1.403156     0.225580    -0.031132
H     -1.254559    -0.733754     0.653218
H     -2.972827     0.060348    -0.524340
C     -1.070937     1.550291     0.077652
H     -1.223098     2.528170     0.115254
H     -0.800729    -0.260650    -0.801729
6
Family_1 [H+].[H][C-]=C([H])[H] | RMSD: 0.9523 | 14552.00 to state    1 from traj    1 on state    2
C     -1.446611     0.277013    -0.079285
H     -1.416661    -0.301326     0.863721
H     -2.573353    -0.292711    -0.372595
C     -1.118431     1.437322     0.122506
H     -1.044886     2.624797     0.030866
H     -0.132596     0.296604    -1.040280
6
Family_1 [H+].[H][C-]=C([H])[H] | RMSD: 0.6984 | 3428.00 to state    1 from traj    1 on state    2
C     -1.541347     0.175332     0.002840
H     -1.253867    -0.675534     0.453175
H     -2.534848     0.288054    -0.567209
C     -1.015349     1.542625     0.068059
H     -1.622745     2.559768     0.085431
H      0.144512     0.111910    -0.819490
6
Family_1 [H+].[H][C-]=C([H])[H] | RMSD: 0.7350 | 3596.00 to state    1 from traj    1 on state    2
C     -1.526368     0.269186    -0.019293
H     -1.141953    -0.740536     0.500134
H     -2.600207     0.004592    -0.399716
C     -1.023260     1.513245     0.042502
H     -1.642099     2.427184     0.174722
H      0.033084    -0.175280    -0.554973
6
Family_1 [H+].[H][C-]=C([H])[H] | RMSD: 1.0375 | 4148.00 to state    1 from traj    1 on state    2
C     -1.442343     0.080728     0.067355
H     -1.798025    -0.874295    -1.097697
H     -2.527561     0.185761     0.445781
C     -1.022453     1.649079    -0.091910
H     -1.193692     2.648198    -0.144724
H     -0.842724     0.183336     1.085945
6
Family_1 [H+].[H][C-]=C([H])[H] | RMSD: 1.0164 | 2700.00 to state    1 from traj    1 on state    2
C     -1.414745     0.218110    -0.033256
H     -1.645017    -0.748942    -0.521033
H     -2.480610    -0.064250     0.784972
C     -1.115845     1.520946    -0.102767
H     -1.041185     2.639589     0.063324
H     -0.411205     0.206403     1.290256
6
Family_1 [H+].[H][C-]=C([H])[H] | RMSD: 0.9814 | 2856.00 to state    2 from traj    3 on state    1
C     -1.381562     0.193361    -0.002147
H     -1.371550    -0.756565     0.487787
H     -2.798001     0.681256    -0.623489
C     -1.050497     1.533874     0.100600
H     -1.572426     2.474576    -0.023578
H     -1.010101    -0.225628    -1.017135
6
Family_1 [H+].[H][C-]=C([H])[H] | RMSD: 0.9706 | 1084.00 to state    1 from traj    1 on state    2
C     -1.561894     0.199556     0.164198
H     -1.868240     0.257363    -1.390334
H     -2.452677     0.259393    -0.186800
C     -0.960404     1.355479    -0.003478
H     -1.662961     2.250163    -0.456150
H      0.307056     1.458608     0.114910
6
Family_1 [H+].[H][C-]=C([H])[H] | RMSD: 0.9464 | 2176.00 to state    1 from traj    1 on state    2
C     -1.361266     0.174958     0.033804
H     -1.800546    -0.763429    -0.578659
H     -2.887639     0.356932     0.278443
C     -1.061004     1.566649    -0.098489
H     -1.378990     2.449089     0.085468
H     -0.801545    -0.040192     0.982227
6
Family_1 [H+].[H][C-]=C([H])[H] | RMSD: 0.3652 | 368.00 to state    1 from traj    1 on state    2
C     -1.635166     0.123292     0.007818
H     -0.987273    -1.070601    -0.200217
H     -2.635488     0.104533     0.024045
C     -0.913027     1.443904     0.007398
H     -1.902741     3.732318     0.004399
H      0.157236     1.314379    -0.012818
6
Family_1 [H+].[H][C-]=C([H])[H] | RMSD: 0.5006 | 580.00 to state    1 from traj    1 on state    2
C     -1.604245     0.082611    -0.019955
H     -1.321881    -0.797230    -0.040411
H     -2.785608     0.107089     0.085933
C     -0.897262     1.405391     0.022292
H     -2.033606     4.037712    -0.002560
H      0.216534     1.676703    -0.074082
6
Family_1 [H+].[H][C-]=C([H])[H] | RMSD: 0.5911 | 2256.00 to state    1 from traj    1 on state    2
C     -1.666818     0.213699    -0.009270
H     -1.620980    -0.989666     0.220488
H     -2.683597     0.820401    -0.053848
C     -0.733802     1.381346    -0.032248
H     -3.063909     2.472852     0.254492
H      0.241791     1.445199     0.070307
6
Family_1 [H+].[H][C-]=C([H])[H] | RMSD: 0.2452 | 396.00 to state    1 from traj    1 on state    2
C     -1.672198     0.161593     0.032300
H     -1.318171    -0.778469    -0.084237
H     -2.672212     0.346569    -0.199467
C     -0.810115     1.409939    -0.015455
H     -2.580306     3.153446     0.136728
H      0.417411     1.307407    -0.057030
6
Family_1 [H+].[H][C-]=C([H])[H] | RMSD: 0.2637 | 656.00 to state    1 from traj    1 on state    2
C     -1.605906     0.187557     0.008266
H     -1.469422    -0.990003     0.013072
H     -2.645064     0.467362    -0.097095
C     -0.841327     1.387052    -0.016268
H     -2.629543     3.262591     0.162332
H      0.172763     1.252343     0.013750
6
Family_1 [H+].[H][C-]=C([H])[H] | RMSD: 0.1808 | 1448.00 to state    1 from traj    1 on state    2
C     -1.639888     0.207496    -0.011429
H     -1.198980    -0.826120     0.143220
H     -2.738050     0.138011    -0.044308
C     -0.829056     1.386900    -0.021124
H     -2.523741     3.318358     0.229243
H      0.148196     1.126261     0.056455
6
Family_1 [H+].[H][C-]=C([H])[H] | RMSD: 0.4342 | 3936.00 to state    1 from traj    1 on state    2
C     -1.648875     0.153657    -0.027813
H     -0.984393    -0.639302    -0.374157
H     -2.669166    -0.202666     0.398198
C     -0.905539     1.454790     0.061630
H     -1.884256     3.478156    -0.307826
H      0.243674     0.952899    -0.122441
6
Family_1 [H+].[H][C-]=C([H])[H] | RMSD: 1.0515 | 2964.00 to state    1 from traj    1 on state    2
C     -1.515241     0.010340     0.207456
H     -2.062797    -0.776834    -0.229882
H     -1.899703     1.520730    -1.438556
C     -1.013053     1.511478    -0.059942
H     -1.693503     2.454752     0.344286
H      0.050630     1.422678    -0.436858
6
Family_1 [H+].[H][C-]=C([H])[H] | RMSD: 0.9594 | 2472.00 to state    1 from traj    1 on state    2
C     -1.331078     0.219310     0.038954
H     -1.907017    -0.588045     0.559850
H     -2.773718     0.326785    -0.918680
C     -1.099252     1.533325     0.008659
H     -1.576458     2.517990     0.359944
H     -0.515501    -0.385744    -0.571730
6
Family_1 [H+].[H][C-]=C([H])[H] | RMSD: 1.0403 | 7656.00 to state    1 from traj    1 on state    2
C     -1.376999     0.244477     0.078055
H     -1.639576    -0.915224     0.373674
H     -2.305671     0.295258    -1.124217
C     -1.106810     1.535853     0.038722
H     -1.423331     2.519572     0.248186
H     -0.766863    -0.358619    -0.892397
6
Family_1 [H+].[H][C-]=C([H])[H] | RMSD: 0.5747 | 12068.00 to state    1 from traj    1 on state    2
C     -1.575864     0.157193    -0.058813
H     -1.022558    -0.700602    -0.297894
H     -2.372171    -0.075288     0.566225
C     -1.011261     1.466862     0.072047
H     -1.466223     3.443681    -0.351704
H     -0.043407     0.735321    -0.077595
6
Family_1 [H+].[H][C-]=C([H])[H] | RMSD: 0.8450 | 4528.00 to state    1 from traj    1 on state    2
C     -1.743514     0.302114     0.199123
H     -1.120190    -0.976958    -1.178683
H     -2.295051    -0.318948    -0.545541
C     -0.836781     1.400179    -0.091195
H     -1.707197     2.144458     0.046381
H      0.136682     1.622304     0.388525
6
Family_1 [H+].[H][C-]=C([H])[H] | RMSD: 0.8886 | 1160.00 to state    1 from traj    1 on state    2
C     -1.624882     0.340370    -0.006926
H     -1.596467    -0.380012     0.928059
H     -2.504843     0.140555    -0.798902
C     -0.841234     1.312210     0.022228
H     -2.214754     1.914722     0.450039
H     -0.030212     1.387946    -0.764809
6
Family_1 [H+].[H][C-]=C([H])[H] | RMSD: 1.0618 | 3568.00 to state    1 from traj    1 on state    2
C     -1.448372     0.133800    -0.062289
H     -1.510734    -0.596909     1.051586
H     -2.389580    -0.071295    -0.597913
C     -1.110132     1.636247     0.078991
H     -1.130235     2.792399     0.275630
H     -0.214848    -0.460675    -0.931598
6
Family_1 [H+].[H][C-]=C([H])[H] | RMSD: 0.2416 | 384.00 to state    1 from traj    1 on state    2
C     -1.667162     0.202192     0.012616
H     -1.146034    -0.809397     0.050096
H     -3.034103     0.249540    -0.162971
C     -0.784375     1.429102    -0.010506
H     -2.541843     2.796506     0.155749
H      0.201987     1.080202    -0.071305
6
Family_1 [H+].[H][C-]=C([H])[H] | RMSD: 0.2972 | 544.00 to state    1 from traj    1 on state    2
C     -1.704033     0.205410    -0.014431
H     -1.300738    -0.867819     0.156033
H     -2.638777     0.202862    -0.015091
C     -0.766821     1.412294    -0.012202
H     -2.680474     2.885484     0.188557
H      0.330175     1.258257    -0.015431
6
Family_1 [H+].[H][C-]=C([H])[H] | RMSD: 0.2589 | 1752.00 to state    1 from traj    1 on state    2
C     -1.590026     0.230521    -0.046950
H     -1.328347    -0.926162     0.268506
H     -2.613938    -0.007307     0.100004
C     -0.896534     1.396376    -0.006704
H     -2.336439     3.403490     0.211432
H      0.176065     0.899220     0.056103
6
Family_1 [H+].[H][C-]=C([H])[H] | RMSD: 0.2564 | 1212.00 to state    1 from traj    1 on state    2
C     -1.644418     0.139986    -0.037893
H     -1.302148    -0.848807     0.044289
H     -2.570064     0.313233     0.223080
C     -0.848962     1.423768     0.011372
H     -2.366324     3.372372     0.029026
H      0.217137     1.284838     0.016339
6
Family_1 [H+].[H][C-]=C([H])[H] | RMSD: 0.3165 | 632.00 to state    1 from traj    1 on state    2
C     -1.663732     0.240596     0.018392
H     -1.201454    -0.711214     0.223122
H     -2.634305     0.114400    -0.298710
C     -0.795029     1.339620    -0.056477
H     -2.775439     3.330518     0.426001
H      0.177288     1.191769     0.100114
6
Family_1 [H+].[H][C-]=C([H])[H] | RMSD: 0.2132 | 3252.00 to state    1 from traj    1 on state    2
C     -1.630872     0.204425     0.021602
H     -1.425359    -0.934953    -0.211392
H     -2.700069     0.259414    -0.035851
C     -0.823116     1.408043    -0.002124
H     -2.578280     3.074168     0.023715
H      0.212935     1.142540    -0.011845
6
Family_1 [H+].[H][C-]=C([H])[H] | RMSD: 0.2664 | 3384.00 to state    1 from traj    1 on state    2
C     -1.599950     0.201374     0.020232
H     -1.507005    -1.004628    -0.210025
H     -2.827151     0.270277    -0.054965
C     -0.830456     1.386440     0.006506
H     -2.627339     3.306873     0.004930
H      0.189713     1.262421    -0.061827
6
Family_1 [H+].[H][C-]=C([H])[H] | RMSD: 0.4047 | 2160.00 to state    1 from traj    1 on state    2
C     -1.654215     0.218971     0.020488
H     -1.427734    -0.743907     0.219699
H     -2.832285     0.471232    -0.292889
C     -0.787353     1.378272    -0.055381
H     -2.763150     2.719960     0.380445
H      0.384400     1.275297     0.105235
6
Family_1 [H+].[H][C-]=C([H])[H] | RMSD: 0.4714 | 3560.00 to state    1 from traj    1 on state    2
C     -1.597322     0.123475     0.000462
H     -1.154579    -0.958748     0.279846
H     -2.585794     0.071289    -0.265660
C     -0.953000     1.420491    -0.043569
H     -1.771832     3.829142     0.394361
H      0.169311     1.415746     0.101822
6
Family_1 [H+].[H][C-]=C([H])[H] | RMSD: 0.7855 | 7148.00 to state    1 from traj    1 on state    2
C     -1.557538     0.263303    -0.013339
H     -1.375573    -0.749422    -0.682560
H     -2.297141     0.137422     0.670581
C     -0.992206     1.493559    -0.003555
H     -1.703799     2.209581    -0.298223
H      0.026733     0.223042     0.508227
6
Family_1 [H+].[H][C-]=C([H])[H] | RMSD: 0.2629 | 384.00 to state    1 from traj    1 on state    2
C     -1.657005     0.193820    -0.021969
H     -1.337178    -0.889869     0.079893
H     -2.734203     0.321256     0.089558
C     -0.799408     1.445047     0.001170
H     -2.522171     2.743339     0.083530
H      0.131668     1.051891    -0.008424
6
Family_1 [H+].[H][C-]=C([H])[H] | RMSD: 0.3209 | 1948.00 to state    1 from traj    1 on state    2
C     -1.674358     0.261473    -0.011691
H     -0.996122    -0.614563     0.004636
H     -2.816224     0.245954     0.066806
C     -0.775283     1.318196     0.003245
H     -3.024959     3.298342     0.085841
H      0.294723     1.002260    -0.059918
6
Family_1 [H+].[H][C-]=C([H])[H] | RMSD: 0.5777 | 2024.00 to state    1 from traj    1 on state    2
C     -1.662298     0.277017     0.005499
H     -1.487109    -0.839907     0.274986
H     -2.614651     0.702611    -0.180791
C     -0.735787     1.305453    -0.063581
H     -3.335950     2.751528     0.422018
H      0.280807     1.284393     0.172594
6
Family_1 [H+].[H][C-]=C([H])[H] | RMSD: 0.3348 | 3540.00 to state    1 from traj    1 on state    2
C     -1.594610     0.259641     0.005689
H     -1.499247    -0.786584     0.059224
H     -2.663685     0.515448    -0.088234
C     -0.839786     1.335663    -0.024957
H     -2.909922     3.014893     0.202280
H      0.348610     1.001944     0.053039
6
Family_1 [H+].[H][C-]=C([H])[H] | RMSD: 0.2257 | 644.00 to state    1 from traj    1 on state    2
C     -1.646136     0.125002     0.001874
H     -1.332392    -0.978948     0.159053
H     -2.757245     0.276744    -0.167006
C     -0.856800     1.487306    -0.020204
H     -2.237931     3.125444     0.231253
H      0.420030     1.119839    -0.008161
6
Family_1 [H+].[H][C-]=C([H])[H] | RMSD: 0.5299 | 1704.00 to state    1 from traj    1 on state    2
C     -1.653832     0.103469    -0.034077
H     -0.960910    -0.915227    -0.202483
H     -2.557414    -0.199903     0.321931
C     -0.915401     1.464662     0.037542
H     -1.630875     3.805349    -0.142093
H      0.031631     1.379258    -0.021927
6
Family_1 [H+].[H][C-]=C([H])[H] | RMSD: 0.9094 | 5300.00 to state    1 from traj    1 on state    2
C     -1.640889     0.255755     0.036087
H     -1.585968    -0.788693     0.573541
H     -2.407822     0.300048    -0.901808
C     -0.780376     1.372814     0.053950
H     -2.169322     2.140526     0.237688
H     -0.717590     1.697431    -0.985555
6
Family_1 [H+].[H][C-]=C([H])[H] | RMSD: 0.2747 | 720.00 to state    1 from traj    1 on state    2
C     -1.619987     0.128749     0.025384
H     -1.356884    -0.995346    -0.159272
H     -2.728304     0.206265    -0.133578
C     -0.868275     1.433703    -0.003485
H     -2.227752     3.542218     0.069762
H      0.230568     1.384012    -0.041138
6
Family_1 [H+].[H][C-]=C([H])[H] | RMSD: 0.8504 | 4608.00 to state    1 from traj    1 on state    2
C     -1.433792     0.217663    -0.032307
H     -1.522838    -0.562537     0.544305
H     -2.541390     0.151311    -0.454373
C     -1.090770     1.514260     0.114301
H     -1.410864     2.613994    -0.055255
H     -0.174758    -0.084988    -1.014968
6
Family_1 [H+].[H][C-]=C([H])[H] | RMSD: 0.9555 | 4280.00 to state    1 from traj    1 on state    2
C     -1.531825     0.155896     0.011140
H     -1.231506    -0.633428     0.605335
H     -2.339008    -0.264399    -0.710643
C     -1.054214     1.642656     0.011764
H     -1.147817     2.619892     0.363263
H     -0.198977    -0.398206    -0.534143
6
Family_1 [H+].[H][C-]=C([H])[H] | RMSD: 1.0792 | 2620.00 to state    1 from traj    1 on state    2
C     -1.483823     0.184313     0.037462
H     -1.245509    -0.512171    -0.686907
H     -2.324082    -0.362551     0.337945
C     -1.085788     1.621876    -0.092591
H     -1.034150     2.666939     0.055692
H     -0.509310    -0.559362     0.946886
6
Family_1 [H+].[H][C-]=C([H])[H] | RMSD: 0.8659 | 5584.00 to state    1 from traj    1 on state    2
C     -1.645102     0.221462    -0.040519
H     -1.259234    -0.733101    -0.383443
H     -2.250250    -0.333197     0.776844
C     -0.933007     1.546478    -0.098169
H     -1.586531     2.386808     0.124976
H      0.084221     0.368110     1.130899
6
Family_1 [H+].[H][C-]=C([H])[H] | RMSD: 0.8240 | 5692.00 to state    1 from traj    1 on state    2
C     -1.596659     0.218185     0.001488
H     -1.343091    -0.731487    -0.587344
H     -2.427959    -0.121938     0.635950
C     -0.953488     1.521480    -0.124472
H     -1.685436     2.491539     0.153329
H      0.111494     0.387427     1.260227
6
Family_1 [H+].[H][C-]=C([H])[H] | RMSD: 0.8980 | 8744.00 to state    1 from traj    1 on state    2
C     -1.522259     0.225751    -0.014036
H     -0.990501    -0.655987    -0.290867
H     -2.466097     0.236478     0.526931
C     -1.025028     1.531669    -0.131639
H     -1.638207     2.544513     0.293443
H     -0.284253    -0.311027     1.203026
6
Family_1 [H+].[H][C-]=C([H])[H] | RMSD: 0.9973 | 6200.00 to state    1 from traj    1 on state    2
C     -1.495630     0.165649    -0.051919
H     -1.042049    -0.649895     0.594601
H     -2.454792     0.199683    -0.327431
C     -1.074474     1.621138     0.125976
H     -1.375144     2.593680    -0.093425
H     -0.235192    -0.679424    -1.059477
6
Family_1 [H+].[H][C-]=C([H])[H] | RMSD: 1.0513 | 7348.00 to state    1 from traj    1 on state    2
C     -1.492582     0.229484     0.031050
H     -1.284731    -0.618414    -0.740925
H     -2.355987     0.042604     0.580286
C     -1.046009     1.521807    -0.170886
H     -1.369995     2.497745     0.245159
H     -0.471972    -0.034926     1.578432
6
Family_1 [H+].[H][C-]=C([H])[H] | RMSD: 1.1617 | 6236.00 to state    1 from traj    1 on state    2
C     -1.345304     0.274506    -0.051176
H     -2.295306    -0.192586    -0.465772
H     -2.881398    -0.246660     0.606160
C     -1.025005     1.554442     0.087977
H     -1.702576     2.014620    -0.542632
H     -0.608592    -0.613702    -0.039539
6
Family_1 [H+].[H][C-]=C([H])[H] | RMSD: 1.0013 | 3168.00 to state    1 from traj    1 on state    2
C     -1.475275     0.218959    -0.053213
H     -1.020814    -0.977267     0.520212
H     -2.425730    -0.103046    -0.288769
C     -1.113330     1.594763     0.125480
H     -1.046143     2.674292    -0.104638
H     -0.394040    -0.450880    -0.991200
6
Family_1 [H+].[H][C-]=C([H])[H] | RMSD: 1.0432 | 4168.00 to state    1 from traj    1 on state    2
C     -1.334195     0.211015    -0.039435
H     -1.950648    -0.803292    -0.476148
H     -2.849241    -0.224636     0.551492
C     -1.117462     1.620342     0.042179
H     -1.203494     2.560247    -0.363203
H     -0.515175    -0.599362     0.251879
6
Family_1 [H+].[H][C-]=C([H])[H] | RMSD: 0.3016 | 664.00 to state    1 from traj    1 on state    2
C     -1.644360     0.271805    -0.007793
H     -1.344350    -0.934787     0.014562
H     -2.819230     0.254855     0.011485
C     -0.783676     1.348526     0.003909
H     -2.911354     2.991759     0.088053
H      0.274914     1.135653    -0.071102
6
Family_1 [H+].[H][C-]=C([H])[H] | RMSD: 0.3819 | 3032.00 to state    1 from traj    1 on state    2
C     -1.631509     0.224716    -0.003863
H     -1.184427    -0.572218     0.474526
H     -2.797990     0.370357    -0.288318
C     -0.851310     1.382517    -0.075082
H     -2.505859     2.856670     0.540898
H      0.341037     0.948742     0.210291
6
Family_1 [H+].[H][C-]=C([H])[H] | RMSD: 0.4780 | 3136.00 to state    1 from traj    1 on state    2
C     -1.652460     0.251038    -0.013411
H     -1.243137    -0.656803     0.609741
H     -2.591137     0.243718    -0.280742
C     -0.840032     1.374129    -0.104082
H     -2.520711     2.792492     0.694605
H      0.323005     1.010459     0.373126
6
Family_1 [H+].[H][C-]=C([H])[H] | RMSD: 0.6804 | 4344.00 to state    1 from traj    1 on state    2
C     -1.652347     0.271407     0.061886
H     -1.626942    -0.529154    -0.860547
H     -2.562316    -0.093094     0.318927
C     -0.776134     1.389656    -0.078191
H     -2.470763     2.416851    -0.040159
H     -0.134698     1.167524     0.772787
6
Family_1 [H+].[H][C-]=C([H])[H] | RMSD: 0.1130 | 384.00 to state    1 from traj    1 on state    2
C     -1.630154     0.174390     0.015494
H     -1.110559    -0.846108    -0.167296
H     -2.718078     0.145918    -0.039080
C     -0.872980     1.427765     0.000667
H     -2.248916     3.352993     0.037473
H      0.172381     1.011255    -0.026938
6
Family_1 [H+].[H][C-]=C([H])[H] | RMSD: 0.2034 | 544.00 to state    1 from traj    1 on state    2
C     -1.638730     0.155520     0.020747
H     -1.158613    -0.735258    -0.151991
H     -2.713423     0.247251    -0.089535
C     -0.847637     1.392860     0.000779
H     -2.410799     3.531884     0.051490
H      0.177878     1.260958    -0.069750
6
Family_1 [H+].[H][C-]=C([H])[H] | RMSD: 0.4416 | 2016.00 to state    1 from traj    1 on state    2
C     -1.648186     0.291184     0.017220
H     -1.539993    -0.928276    -0.239530
H     -2.758714     0.339781     0.016848
C     -0.767091     1.343376     0.015921
H     -3.043226     2.698834    -0.055761
H      0.389887     1.167601    -0.119736
6
Family_1 [H+].[H][C-]=C([H])[H] | RMSD: 0.1895 | 292.00 to state    1 from traj    1 on state    2
C     -1.680979     0.163584     0.032008
H     -1.192020    -0.802351    -0.313677
H     -2.736129     0.067233    -0.042196
C     -0.819350     1.461018     0.005324
H     -2.339653     3.070498    -0.038180
H      0.329194     1.061211    -0.054066
6
Family_1 [H+].[H][C-]=C([H])[H] | RMSD: 0.2135 | 476.00 to state    1 from traj    1 on state    2
C     -1.662403     0.195632     0.030525
H     -1.206036    -0.762365    -0.282884
H     -2.748476     0.065687    -0.081791
C     -0.805004     1.393414     0.017252
H     -2.537359     3.308192    -0.047123
H      0.160989     1.208745    -0.160776
6
Family_1 [H+].[H][C-]=C([H])[H] | RMSD: 0.4014 | 2148.00 to state    1 from traj    1 on state    2
C     -1.719939     0.199603     0.010497
H     -1.402214    -0.867120    -0.303178
H     -2.780206     0.178250     0.139688
C     -0.729908     1.420454     0.012473
H     -2.742234     2.729423    -0.094223
H      0.384531     1.410191    -0.019279
6
Family_1 [H+].[H][C-]=C([H])[H] | RMSD: 0.6386 | 4120.00 to state    1 from traj    1 on state    2
C     -1.578316     0.091150     0.007580
H     -1.043932    -0.878764    -0.338852
H     -2.586544    -0.222559     0.078926
C     -1.028510     1.502286     0.029957
H     -1.073828     3.690677    -0.143886
H      0.034682     1.178610    -0.046742
6
Family_1 [H+].[H][C-]=C([H])[H] | RMSD: 0.7359 | 4324.00 to state    1 from traj    1 on state    2
C     -1.570959     0.065123     0.031535
H     -1.067023    -0.724879    -0.419821
H     -2.687831    -0.208176    -0.067197
C     -1.033189     1.469179     0.035674
H     -0.970362     3.874157    -0.172154
H      0.023699     1.531474    -0.144942
6
Family_1 [H+].[H][C-]=C([H])[H] | RMSD: 0.3638 | 2620.00 to state    1 from traj    1 on state    2
C     -1.648397     0.214395    -0.012463
H     -1.499523    -0.844349     0.274825
H     -2.798882     0.135930    -0.135943
C     -0.812779     1.458330    -0.020682
H     -2.496741     2.609097     0.264530
H      0.390016     0.922496    -0.011750
6
Family_1 [H+].[H][C-]=C([H])[H] | RMSD: 0.9279 | 6280.00 to state    1 from traj    1 on state    2
C     -1.581826     0.279005     0.017268
H     -1.051725    -0.585775     0.347534
H     -2.233875    -0.043737    -0.709977
C     -0.978690     1.418971     0.139542
H     -1.362396     2.377410    -0.148338
H     -0.573422     0.774391    -1.360993
6
Family_1 [H+].[H][C-]=C([H])[H] | RMSD: 0.9917 | 7816.00 to state    1 from traj    4 on state    2
C     -1.426733     0.116256     0.082459
H     -1.147359    -0.426237    -0.812082
H     -3.014756     0.128573     0.043932
C     -1.070825     1.640572    -0.073747
H     -1.218897     2.755088    -0.032182
H     -0.590601    -0.636396     0.693236
6
Family_1 [H+].[H][C-]=C([H])[H] | RMSD: 0.2598 | 624.00 to state    1 from traj    1 on state    2
C     -1.655464     0.253619    -0.012130
H     -1.255765    -0.784268    -0.113757
H     -2.821579     0.179001     0.148937
C     -0.785898     1.366496     0.012545
H     -2.778297     2.976311    -0.015210
H      0.214420     1.079014    -0.028198
6
Family_1 [H+].[H][C-]=C([H])[H] | RMSD: 0.3998 | 2284.00 to state    1 from traj    1 on state    2
C     -1.691610     0.184902     0.008319
H     -1.550112    -1.044296    -0.035601
H     -2.816658     0.262006    -0.059382
C     -0.744108     1.453633    -0.001987
H     -2.666926     2.634571     0.077892
H      0.325217     1.378292    -0.061645
6
Family_1 [H+].[H][C-]=C([H])[H] | RMSD: 0.3959 | 2416.00 to state    1 from traj    1 on state    2
C     -1.702420     0.170430     0.002616
H     -1.557929    -1.051639     0.016648
H     -2.694555     0.199039    -0.053969
C     -0.752448     1.489582    -0.002229
H     -2.545183     2.556280     0.095161
H      0.317379     1.270978    -0.065737
6
Family_1 [H+].[H][C-]=C([H])[H] | RMSD: 0.3538 | 1160.00 to state    1 from traj    1 on state    2
C     -1.639798     0.195262    -0.033516
H     -1.270449    -0.785091    -0.255514
H     -2.608706     0.099185     0.369449
C     -0.841240     1.366755     0.053349
H     -2.508043     3.541430    -0.225266
H      0.218729     1.286801    -0.128268
6
Family_1 [H+].[H][C-]=C([H])[H] | RMSD: 0.7525 | 2380.00 to state    1 from traj    1 on state    2
C     -1.679295     0.216200     0.068020
H     -1.310869    -0.727206    -0.033913
H     -2.395402     0.238492    -0.719958
C     -0.777473     1.383102     0.105863
H     -2.212117     2.558398    -0.170721
H     -0.539274     1.628379    -1.150631
6
Family_1 [H+].[H][C-]=C([H])[H] | RMSD: 0.6309 | 3524.00 to state    1 from traj    1 on state    2
C     -1.576804     0.141588    -0.054123
H     -1.566574    -0.988492    -0.511536
H     -2.379080     0.428195     0.664249
C     -0.915663     1.383920     0.114916
H     -2.160381     3.556387    -0.590902
H      0.073751     1.581267    -0.289479
6
Family_1 [H+].[H][C-]=C([H])[H] | RMSD: 0.3988 | 3964.00 to state    1 from traj    1 on state    2
C     -1.642136     0.188696     0.020113
H     -1.010773    -0.710175    -0.606929
H     -2.718527    -0.171002     0.204822
C     -0.881096     1.434443     0.058140
H     -2.040495     3.358130    -0.347513
H      0.104103     0.937067    -0.186101
6
Family_1 [H+].[H][C-]=C([H])[H] | RMSD: 0.5597 | 10608.00 to state    1 from traj    1 on state    2
C     -1.608775     0.206785     0.000801
H     -1.391174    -0.609106    -0.775795
H     -2.657970     0.178256     0.446882
C     -0.851342     1.339782     0.111403
H     -2.466488     3.390736    -0.635420
H      0.097887     1.366548    -0.375943
6
Family_1 [H+].[H][C-]=C([H])[H] | RMSD: 0.8824 | 3132.00 to state    1 from traj    1 on state    2
C     -1.545798     0.169778    -0.026828
H     -1.522253    -0.221267     1.111923
H     -2.269740     0.728729    -0.775607
C     -1.003495     1.337384     0.009179
H     -1.664380     2.727897     0.535991
H      0.101214     1.560613    -0.665285
6
Family_1 [H+].[H][C-]=C([H])[H] | RMSD: 0.2611 | 340.00 to state    1 from traj    1 on state    2
C     -1.637869     0.183785     0.015220
H     -1.213705    -0.785586     0.271068
H     -2.626352     0.276459    -0.333392
C     -0.860767     1.392081    -0.046296
H     -2.418363     3.314779     0.399723
H      0.299649     1.171658     0.029616
6
Family_1 [H+].[H][C-]=C([H])[H] | RMSD: 0.8379 | 2600.00 to state    1 from traj    1 on state    2
C     -1.558037     0.137749    -0.010940
H     -1.303407    -0.453896    -0.902165
H     -2.304624    -0.181973     0.654264
C     -1.044907     1.458062     0.090465
H     -1.078999     3.257606    -0.669345
H     -0.028847     1.117917    -0.033633
6
Family_1 [H+].[H][C-]=C([H])[H] | RMSD: 0.2098 | 556.00 to state    1 from traj    1 on state    2
C     -1.632145     0.201884    -0.011546
H     -1.334169    -0.736058     0.103189
H     -2.756028     0.266289    -0.020231
C     -0.824034     1.378722    -0.007305
H     -2.630766     3.224359     0.154315
H      0.256289     1.166244    -0.015926
6
Family_1 [H+].[H][C-]=C([H])[H] | RMSD: 0.5374 | 1940.00 to state    1 from traj    1 on state    2
C     -1.651791     0.283193    -0.002529
H     -1.456895    -0.774903    -0.040146
H     -2.687696     0.735731     0.072065
C     -0.747986     1.308656    -0.004339
H     -3.299240     2.647150     0.061258
H      0.307084     1.178884    -0.014632
6
Family_1 [H+].[H][C-]=C([H])[H] | RMSD: 0.5483 | 2108.00 to state    1 from traj    1 on state    2
C     -1.685961     0.271997    -0.022146
H     -1.465808    -0.797847     0.022741
H     -2.692744     0.595728     0.167726
C     -0.716872     1.320047     0.004559
H     -3.312196     2.672569     0.044898
H      0.370420     1.314092    -0.029092
6
Family_1 [H+].[H][C-]=C([H])[H] | RMSD: 0.9104 | 1476.00 to state    1 from traj    1 on state    2
C     -1.617251     0.208514    -0.005194
H     -1.304104    -0.683220     0.582044
H     -2.507540     0.137748    -0.683407
C     -0.848184     1.363461     0.113065
H     -1.697038     2.699728     0.019471
H     -0.845695     1.869411    -1.206747
6
Family_1 [H+].[H][C-]=C([H])[H] | RMSD: 0.8920 | 1624.00 to state    1 from traj    1 on state    2
C     -1.614774     0.133247     0.057220
H     -1.056980    -0.818463     0.252804
H     -2.265899    -0.166057    -0.903948
C     -0.960545     1.565993     0.092216
H     -1.140836     2.778716     0.011423
H     -0.581332     0.713032    -1.144198
6
Family_1 [H+].[H][C-]=C([H])[H] | RMSD: 0.5311 | 5384.00 to state    1 from traj    1 on state    2
C     -1.631062     0.143851     0.026819
H     -1.750127    -0.872899     0.499582
H     -2.639258    -0.116494    -0.640422
C     -0.843574     1.488861    -0.054236
H     -2.097044     2.995757     0.550081
H      0.241679     1.293595    -0.085823
6
Family_1 [H+].[H][C-]=C([H])[H] | RMSD: 0.3333 | 6436.00 to state    1 from traj    1 on state    2
C     -1.670596     0.044754    -0.032491
H     -1.364073    -0.935866     0.357607
H     -2.719539     0.117682    -0.061849
C     -0.837861     1.554185    -0.016575
H     -1.967854     3.249645     0.270921
H      0.209712     1.270927     0.014695
6
Family_1 [H+].[H][C-]=C([H])[H] | RMSD: 0.3132 | 6512.00 to state    1 from traj    1 on state    2
C     -1.679136     0.029488    -0.028585
H     -1.245777    -0.914589     0.330213
H     -2.683938     0.284613    -0.067491
C     -0.840123     1.548007    -0.011284
H     -1.977480     3.278090     0.240099
H      0.194158     1.309788    -0.031037
6
Family_1 [H+].[H][C-]=C([H])[H] | RMSD: 0.9331 | 868.00 to state    1 from traj    1 on state    2
C     -1.663124     0.308814     0.006196
H     -1.429111    -0.304661    -0.824575
H     -2.331096     0.035639     0.736473
C     -0.787652     1.291157    -0.055564
H     -2.133694     2.191074    -0.186183
H     -0.635148     1.768023     0.859258
6
Family_1 [H+].[H][C-]=C([H])[H] | RMSD: 0.5491 | 2044.00 to state    1 from traj    1 on state    2
C     -1.668533     0.213754     0.032090
H     -1.658261    -0.903957    -0.222891
H     -2.642418     0.709806    -0.061908
C     -0.725476     1.360887    -0.005971
H     -3.186829     2.729135     0.018997
H      0.282033     1.456922    -0.048709
6
Family_1 [H+].[H][C-]=C([H])[H] | RMSD: 0.6644 | 4480.00 to state    1 from traj    1 on state    2
C     -1.533650     0.094822    -0.027464
H     -1.053345    -0.754428     0.551332
H     -2.615447     0.337807    -0.240025
C     -1.054767     1.389618    -0.064968
H     -1.386120     3.977422     0.540685
H      0.165943     1.505924     0.246116
6
Family_1 [H+].[H][C-]=C([H])[H] | RMSD: 0.2468 | 496.00 to state    1 from traj    1 on state    2
C     -1.651208     0.113760     0.008509
H     -1.110159    -0.860643    -0.300220
H     -2.756268     0.289701     0.109942
C     -0.864391     1.451221     0.022170
H     -2.177060     3.418972    -0.116686
H      0.286853     1.258992    -0.061879
6
Family_1 [H+].[H][C-]=C([H])[H] | RMSD: 0.9183 | 1636.00 to state    1 from traj    1 on state    2
C     -1.644482     0.279173     0.023239
H     -0.918981    -0.517469     0.262370
H     -2.323162    -0.273936    -0.592947
C     -0.874468     1.314461     0.072112
H     -1.412168     2.762294     0.043860
H     -1.062400     1.794700    -0.852731
6
Family_1 [H+].[H][C-]=C([H])[H] | RMSD: 0.2745 | 444.00 to state    1 from traj    1 on state    2
C     -1.632264     0.115767    -0.013933
H     -1.164194    -0.867437    -0.192108
H     -2.830175     0.181931     0.194972
C     -0.872271     1.448841     0.018985
H     -2.110189     3.509390    -0.077434
H      0.216072     1.287568     0.011084
6
Family_1 [H+].[H][C-]=C([H])[H] | RMSD: 0.3448 | 632.00 to state    1 from traj    1 on state    2
C     -1.629642     0.129590     0.013140
H     -1.303790    -0.851889    -0.317515
H     -2.600676     0.049526     0.063020
C     -0.878050     1.424594     0.023401
H     -2.133776     3.663335    -0.103240
H      0.187386     1.374699    -0.080949
6
Family_1 [H+].[H][C-]=C([H])[H] | RMSD: 0.4374 | 3440.00 to state    1 from traj    1 on state    2
C     -1.623879     0.178193    -0.034572
H     -1.328527    -0.744691     0.573209
H     -2.544935    -0.199279    -0.193474
C     -0.894067     1.445238    -0.055063
H     -2.000240     3.325069     0.522716
H      0.145013     1.029447     0.162326
6
Family_1 [H+].[H][C-]=C([H])[H] | RMSD: 1.0433 | 3320.00 to state    1 from traj    1 on state    2
C     -1.615308     0.159973     0.252481
H     -1.517742    -0.775499    -0.492941
H     -1.764238     0.620581    -1.650397
C     -0.974526     1.437310    -0.034129
H     -1.426650     2.335992     0.247139
H     -0.163451     1.541037    -0.708904
6
Family_1 [H+].[H][C-]=C([H])[H] | RMSD: 1.0583 | 3492.00 to state    1 from traj    1 on state    2
C     -1.320768     0.188636     0.042084
H     -2.405528    -0.050230     0.380979
H     -2.889518     0.705069    -0.722038
C     -1.030430     1.524228    -0.005841
H     -2.030935     2.019413     0.261783
H     -0.389611    -0.329374    -0.355871
6
Family_1 [H+].[H][C-]=C([H])[H] | RMSD: 1.0543 | 3652.00 to state    1 from traj    1 on state    2
C     -1.342013     0.252695     0.040929
H     -2.300345     0.010217     0.371072
H     -2.849108     0.345708    -0.658676
C     -1.036605     1.497519    -0.042618
H     -1.883086     1.888391     0.381156
H     -0.356322    -0.344482    -0.076703
6
Family_1 [H+].[H][C-]=C([H])[H] | RMSD: 0.7445 | 2244.00 to state    1 from traj    1 on state    2
C     -1.752492     0.266833    -0.070815
H     -1.216179    -0.478443     0.431611
H     -2.852032    -0.091804     0.051080
C     -0.693823     1.406682     0.109438
H     -2.389611     1.938361    -0.153344
H     -0.124383     1.445651    -0.792848
6
Family_1 [H+].[H][C-]=C([H])[H] | RMSD: 0.7446 | 2368.00 to state    1 from traj    1 on state    2
C     -1.728315     0.285733    -0.045089
H     -1.199355    -0.628047     0.393684
H     -2.926143     0.164896    -0.107031
C     -0.699231     1.388344     0.096390
H     -2.509095     1.842808    -0.103236
H     -0.171263     1.427398    -0.797993
6
Family_1 [H+].[H][C-]=C([H])[H] | RMSD: 0.8056 | 3108.00 to state    1 from traj    1 on state    2
C     -1.564771     0.162246     0.084975
H     -1.544662    -0.866894     0.144201
H     -1.940959     0.511585    -0.916546
C     -0.986264     1.356725     0.017980
H     -1.550835     3.132581     0.215054
H     -0.297952     1.877981    -0.672770
6
Family_1 [H+].[H][C-]=C([H])[H] | RMSD: 0.9282 | 1196.00 to state    1 from traj    1 on state    2
C     -1.758261     0.258905     0.208210
H     -0.786448    -0.259704    -1.131579
H     -2.152702    -0.379854    -0.605972
C     -0.871231     1.404565    -0.114467
H     -1.376419     2.193185     0.132797
H     -0.083970     1.379822     0.484464
6
Family_1 [H+].[H][C-]=C([H])[H] | RMSD: 1.1014 | 2132.00 to state    1 from traj    1 on state    2
C     -1.446542     0.210157    -0.130723
H     -1.662933    -1.340107     1.310713
H     -2.455590     0.084104    -0.296373
C     -0.999778     1.612518     0.108610
H     -1.566869     2.477544     0.236203
H     -0.896753    -0.185126    -0.990336
6
Family_1 [H+].[H][C-]=C([H])[H] | RMSD: 0.2168 | 444.00 to state    1 from traj    1 on state    2
C     -1.670775     0.187243     0.003274
H     -1.172877    -0.817699    -0.273003
H     -2.743641     0.249795     0.150587
C     -0.805877     1.409707     0.018694
H     -2.553960     3.125405    -0.098327
H      0.249751     1.168585    -0.044303
6
Family_1 [H+].[H][C-]=C([H])[H] | RMSD: 0.3650 | 564.00 to state    1 from traj    1 on state    2
C     -1.643524     0.138276     0.002430
H     -1.196796    -0.750131     0.456801
H     -2.639335     0.196971    -0.362864
C     -0.873595     1.431046    -0.066374
H     -2.148415     3.355159     0.533285
H      0.246017     1.253285     0.131436
6
Family_1 [H+].[H][C-]=C([H])[H] | RMSD: 0.2270 | 428.00 to state    1 from traj    1 on state    2
C     -1.611338     0.130617    -0.006649
H     -1.331297    -0.987799    -0.143979
H     -2.765809     0.206320     0.096228
C     -0.874839     1.457661     0.014399
H     -2.160083     3.398834    -0.028958
H      0.149963     1.212057    -0.018913
6
Family_1 [H+].[H][C-]=C([H])[H] | RMSD: 0.2829 | 596.00 to state    1 from traj    1 on state    2
C     -1.601407     0.127863     0.000276
H     -1.448298    -0.861003    -0.121823
H     -2.757964     0.280346     0.019349
C     -0.877992     1.420211     0.015392
H     -2.278103     3.523558    -0.012477
H      0.296367     1.365574    -0.075031
6
Family_1 [H+].[H][C-]=C([H])[H] | RMSD: 0.3424 | 372.00 to state    1 from traj    1 on state    2
C     -1.672743     0.200868    -0.019535
H     -1.291404    -0.816746    -0.053144
H     -2.654149     0.469652     0.188400
C     -0.792728     1.434391     0.011282
H     -2.591465     2.570976    -0.023887
H      0.183059     1.045724    -0.016315
6
Family_1 [H+].[H][C-]=C([H])[H] | RMSD: 0.9953 | 6464.00 to state    1 from traj    1 on state    2
C     -1.491554     0.073219     0.041605
H     -1.456996    -0.623191    -0.909146
H     -2.942706    -0.319329     0.360243
C     -1.023176     1.701281    -0.012332
H     -0.873064     2.590845    -0.320045
H     -0.494231    -0.037876     0.516852
6
Family_1 [H+].[H][C-]=C([H])[H] | RMSD: 0.9042 | 10472.00 to state    1 from traj    1 on state    2
C     -1.526917     0.229579    -0.085494
H     -0.957064    -0.262794     0.555045
H     -2.549689    -0.096666     0.026904
C     -1.039424     1.541432     0.102391
H     -1.607816     2.649622    -0.077476
H     -0.037444    -0.638140    -0.709098
6
Family_1 [H+].[H][C-]=C([H])[H] | RMSD: 0.9564 | 13500.00 to state    1 from traj    1 on state    2
C     -1.700853     0.469211     0.115409
H     -1.403316    -0.543798     0.025093
H     -2.487649     0.363983    -0.748089
C     -0.726246     1.271682    -0.135543
H     -3.162692     1.321886     0.639961
H      0.242474     0.868841     0.319660
6
Family_1 [H+].[H][C-]=C([H])[H] | RMSD: 0.8196 | 5580.00 to state    1 from traj    1 on state    2
C     -1.472457     0.185563    -0.020858
H     -1.951223    -0.569416     0.897381
H     -2.206349     0.690039    -0.684592
C     -1.015927     1.368018     0.022073
H     -1.742995     2.741635     0.405838
H     -0.180357     1.380590    -0.636397
6
Family_1 [H+].[H][C-]=C([H])[H] | RMSD: 0.1868 | 372.00 to state    1 from traj    1 on state    2
C     -1.638978     0.188103    -0.004624
H     -1.232818    -0.734786    -0.103103
H     -2.731626     0.344731     0.085752
C     -0.833298     1.384742     0.006142
H     -2.585855     3.252811     0.014407
H      0.277426     1.150547    -0.018421
6
Family_1 [H+].[H][C-]=C([H])[H] | RMSD: 0.3253 | 612.00 to state    1 from traj    1 on state    2
C     -1.603042     0.235073    -0.012272
H     -1.541945    -1.017426    -0.070827
H     -2.668917     0.165636     0.092165
C     -0.828587     1.352398     0.007488
H     -2.764968     3.444471     0.043753
H      0.218632     1.246351    -0.011373
6
Family_1 [H+].[H][C-]=C([H])[H] | RMSD: 0.3882 | 1708.00 to state    1 from traj    1 on state    2
C     -1.636105     0.278033     0.005158
H     -1.308800    -0.738446    -0.193376
H     -2.593161     0.592577     0.106382
C     -0.811063     1.335080     0.009825
H     -2.951783     2.725336    -0.044334
H      0.281694     0.954016    -0.050479
6
Family_1 [H+].[H][C-]=C([H])[H] | RMSD: 0.3725 | 2192.00 to state    1 from traj    1 on state    2
C     -1.673119     0.217730     0.008950
H     -1.521944    -0.840953    -0.210121
H     -2.825687     0.212983     0.061388
C     -0.751103     1.397422     0.012696
H     -2.793754     2.800200    -0.047979
H      0.295917     1.336969    -0.064501
6
Family_1 [H+].[H][C-]=C([H])[H] | RMSD: 0.8164 | 4948.00 to state    1 from traj    1 on state    2
C     -1.683141     0.212307     0.017977
H     -1.558677    -0.765887     0.607990
H     -2.403099     0.254503    -0.794743
C     -0.783877     1.491016     0.076050
H     -2.330421     2.007975     0.156667
H     -0.043321     0.961976    -1.093591
6
Family_1 [H+].[H][C-]=C([H])[H] | RMSD: 1.0807 | 5288.00 to state    1 from traj    1 on state    2
C     -1.604771     0.050785     0.196231
H     -1.903786    -0.617601    -0.528744
H     -1.239153     1.111300    -1.049709
C     -1.060488     1.480707    -0.076560
H     -1.387344     2.463271     0.246906
H      0.556938     1.549080    -0.097699
6
Family_1 [H+].[H][C-]=C([H])[H] | RMSD: 1.0496 | 8180.00 to state    1 from traj    1 on state    2
C     -1.503390     0.222066    -0.006111
H     -1.165074    -0.768664     0.511611
H     -2.087487    -0.235867    -0.694078
C     -1.122189     1.515809     0.136407
H     -0.786967     2.750289    -0.073462
H     -0.406631     0.301112    -1.299918
6
Family_1 [H+].[H][C-]=C([H])[H] | RMSD: 0.2687 | 564.00 to state    1 from traj    1 on state    2
C     -1.640307     0.175831    -0.007143
H     -1.476017    -0.816011     0.215948
H     -2.713916     0.148915    -0.139082
C     -0.816347     1.416157    -0.022418
H     -2.498292     3.183086     0.264457
H      0.229209     1.269219     0.007632
6
Family_1 [H+].[H][C-]=C([H])[H] | RMSD: 0.2160 | 728.00 to state    1 from traj    1 on state    2
C     -1.624065     0.224088     0.001077
H     -1.368960    -0.873842     0.161092
H     -2.693881     0.169977    -0.145921
C     -0.836694     1.387821    -0.033280
H     -2.566892     3.167002     0.288581
H      0.219633     1.084692     0.076681
6
Family_1 [H+].[H][C-]=C([H])[H] | RMSD: 0.3466 | 2096.00 to state    1 from traj    1 on state    2
C     -1.617292     0.224239    -0.004708
H     -1.317997    -0.845809     0.041030
H     -2.629929     0.673926     0.011374
C     -0.823316     1.330557    -0.017021
H     -2.968563     3.252092     0.157469
H      0.266268     1.148159     0.045756
6
Family_1 [H+].[H][C-]=C([H])[H] | RMSD: 0.3508 | 2212.00 to state    1 from traj    1 on state    2
C     -1.614340     0.229281    -0.009448
H     -1.479762    -0.881641     0.057522
H     -2.610607     0.543163     0.011550
C     -0.818545     1.339084    -0.005847
H     -2.946358     3.209983     0.128889
H      0.294489     1.195187    -0.018993
6
Family_1 [H+].[H][C-]=C([H])[H] | RMSD: 0.3184 | 360.00 to state    1 from traj    1 on state    2
C     -1.614921     0.099358    -0.000319
H     -1.191873    -0.748631     0.323954
H     -2.833055     0.313902    -0.262615
C     -0.886771     1.447827    -0.046005
H     -2.054736     3.462067     0.391028
H      0.157305     1.291730     0.096333
6
Family_1 [H+].[H][C-]=C([H])[H] | RMSD: 0.9769 | 5884.00 to state    1 from traj    1 on state    2
C     -1.615743     0.258904    -0.007489
H     -1.507728    -0.159100     0.811877
H     -2.392914     0.476811    -0.769078
C     -0.802673     1.308110     0.085532
H     -2.256105     2.182444     0.180238
H     -0.757893     1.582632    -1.156250
6
Family_1 [H+].[H][C-]=C([H])[H] | RMSD: 0.4990 | 1628.00 to state    1 from traj    1 on state    2
C     -1.597402     0.096665     0.005639
H     -1.146273    -0.807227    -0.046220
H     -2.621848     0.061959    -0.078193
C     -0.954704     1.408289    -0.010420
H     -1.769729     4.046396     0.134412
H      0.216207     1.521154     0.043692
6
Family_1 [H+].[H][C-]=C([H])[H] | RMSD: 0.5532 | 1732.00 to state    1 from traj    1 on state    2
C     -1.607863     0.097094    -0.000653
H     -1.002146    -0.794834     0.031139
H     -2.732121     0.070151    -0.099408
C     -0.945279     1.384981    -0.007176
H     -1.854693     4.230930     0.163355
H      0.279665     1.588644    -0.005087
6
Family_1 [H+].[H][C-]=C([H])[H] | RMSD: 0.5365 | 2036.00 to state    1 from traj    1 on state    2
C     -1.580733     0.140673    -0.012802
H     -1.051993    -0.709654     0.111962
H     -2.601094     0.024820    -0.053936
C     -0.958986     1.348799    -0.017724
H     -1.992971     4.302859     0.228717
H      0.176825     1.388721     0.073713
6
Family_1 [H+].[H][C-]=C([H])[H] | RMSD: 0.2097 | 556.00 to state    1 from traj    1 on state    2
C     -1.676999     0.181953     0.002310
H     -1.240129    -0.839158    -0.183859
H     -2.809792     0.174130     0.093379
C     -0.793622     1.436014     0.009532
H     -2.495088     2.973112    -0.030845
H      0.252415     1.167556    -0.023066
6
Family_1 [H+].[H][C-]=C([H])[H] | RMSD: 0.4262 | 1652.00 to state    1 from traj    1 on state    2
C     -1.604155     0.131552    -0.019621
H     -1.567833    -0.934615    -0.304898
H     -2.557692     0.290435     0.294622
C     -0.886783     1.410455     0.049453
H     -2.279433     3.545553    -0.234416
H      0.354465     1.479385    -0.114062
6
Family_1 [H+].[H][C-]=C([H])[H] | RMSD: 0.9924 | 7028.00 to state    1 from traj    1 on state    2
C     -1.480535     0.184037     0.013103
H     -1.328028    -0.562446     0.717699
H     -2.602509    -0.282942    -0.905925
C     -1.042005     1.574115     0.051502
H     -1.128261     2.695772     0.303691
H     -0.615134    -0.045140    -0.888551
6
Family_1 [H+].[H][C-]=C([H])[H] | RMSD: 0.4233 | 732.00 to state    1 from traj    1 on state    2
C     -1.596416     0.123317     0.001418
H     -1.101835    -0.920534    -0.009339
H     -2.594846     0.062801    -0.071400
C     -0.953093     1.417597    -0.011428
H     -1.800805     3.899665     0.152085
H      0.144892     1.351854     0.044638
6
Family_1 [H+].[H][C-]=C([H])[H] | RMSD: 0.2745 | 2032.00 to state    1 from traj    1 on state    2
C     -1.643261     0.193870     0.012926
H     -1.159518    -0.848624     0.028267
H     -2.637508     0.297953    -0.132635
C     -0.835806     1.352396    -0.028755
H     -2.661854     3.608532     0.235125
H      0.266935     1.272155     0.054579
6
Family_1 [H+].[H][C-]=C([H])[H] | RMSD: 0.2716 | 2164.00 to state    1 from traj    1 on state    2
C     -1.629848     0.211539     0.001436
H     -1.168829    -0.714212     0.113359
H     -2.817260     0.254507    -0.124896
C     -0.838752     1.341588    -0.020878
H     -2.717901     3.548266     0.234859
H      0.387322     1.159692     0.005066
6
Family_1 [H+].[H][C-]=C([H])[H] | RMSD: 0.2264 | 3684.00 to state    1 from traj    1 on state    2
C     -1.644718     0.196328    -0.018109
H     -1.239539    -0.819472     0.308389
H     -2.631338     0.235445    -0.108395
C     -0.841575     1.405001    -0.029494
H     -2.473417     3.173687     0.319312
H      0.238442     1.084240     0.044631
6
Family_1 [H+].[H][C-]=C([H])[H] | RMSD: 0.2399 | 624.00 to state    1 from traj    1 on state    2
C     -1.640477     0.162185    -0.011153
H     -1.319877    -0.849569    -0.050029
H     -2.853410     0.113559     0.073784
C     -0.832189     1.413758     0.004454
H     -2.427110     3.412409     0.049551
H      0.332185     1.299994     0.003232
6
Family_1 [H+].[H][C-]=C([H])[H] | RMSD: 0.2367 | 1588.00 to state    1 from traj    1 on state    2
C     -1.655122     0.207466    -0.014181
H     -1.300258    -0.912069    -0.152096
H     -2.578054     0.239017     0.173973
C     -0.816918     1.403651     0.028539
H     -2.570099     3.094050    -0.086162
H      0.172740     1.136276    -0.110087
6
Family_1 [H+].[H][C-]=C([H])[H] | RMSD: 0.3845 | 2968.00 to state    1 from traj    1 on state    2
C     -1.668576     0.263875    -0.006750
H     -1.170139    -0.672138    -0.066922
H     -2.573490     0.590757     0.102639
C     -0.785224     1.341485     0.012839
H     -2.953067     2.710356    -0.007816
H      0.203676     0.996899    -0.103730
6
Family_1 [H+].[H][C-]=C([H])[H] | RMSD: 0.5340 | 4352.00 to state    1 from traj    1 on state    2
C     -1.606023     0.173193    -0.014242
H     -1.165685    -0.722580     0.133549
H     -2.582866    -0.441675    -0.080341
C     -0.932721     1.387007    -0.013838
H     -1.878116     4.066038     0.237313
H      0.145810     1.262194     0.040784
6
Family_1 [H+].[H][C-]=C([H])[H] | RMSD: 1.0584 | 6256.00 to state    1 from traj    1 on state    2
C     -1.468342     0.040653    -0.109747
H     -1.538340    -0.954319     1.138273
H     -2.723601    -0.138055    -0.314637
C     -1.012239     1.721532     0.094029
H     -1.023105     2.913041     0.208911
H     -0.888865    -0.063467    -0.848541
6
Family_1 [H+].[H][C-]=C([H])[H] | RMSD: 0.3051 | 3452.00 to state    1 from traj    1 on state    2
C     -1.705047     0.116642     0.000698
H     -1.348552    -0.871761    -0.137733
H     -2.833619    -0.022061     0.056825
C     -0.781143     1.479073     0.007532
H     -2.325581     3.194585     0.003651
H      0.400685     1.440034    -0.024093
6
Family_1 [H+].[H][C-]=C([H])[H] | RMSD: 0.3678 | 4620.00 to state    1 from traj    1 on state    2
C     -1.722259     0.182429    -0.038573
H     -1.246283    -0.681997     0.184388
H     -2.862815     0.026177     0.143643
C     -0.748900     1.476369     0.002162
H     -2.441385     2.536801     0.106073
H      0.264304     1.108145    -0.003519
6
Family_1 [H+].[H][C-]=C([H])[H] | RMSD: 0.4503 | 7468.00 to state    1 from traj    1 on state    2
C     -1.696325     0.209065    -0.027340
H     -1.311726    -0.613620     0.532280
H     -2.869935     0.208506    -0.178485
C     -0.752684     1.413513    -0.043863
H     -2.626380     2.590753     0.437819
H      0.257932     1.235076     0.053540
6
Family_1 [H+].[H][C-]=C([H])[H] | RMSD: 0.4596 | 7560.00 to state    1 from traj    1 on state    2
C     -1.720403     0.173862    -0.008421
H     -1.406948    -0.696058     0.438772
H     -2.848876     0.175631    -0.249991
C     -0.731131     1.444941    -0.047380
H     -2.606584     2.600180     0.426789
H      0.342390     1.385929     0.046047
6
Family_1 [H+].[H][C-]=C([H])[H] | RMSD: 0.5090 | 660.00 to state    1 from traj    1 on state    2
C     -1.626335     0.116983    -0.008592
H     -1.253854    -0.872335     0.563142
H     -2.623926     0.020558    -0.398490
C     -0.913251     1.440875    -0.060525
H     -1.846114     3.594655     0.568042
H      0.253064     1.449014     0.087593
6
Family_1 [H+].[H][C-]=C([H])[H] | RMSD: 0.8523 | 2276.00 to state    1 from traj    1 on state    2
C     -1.746826     0.285225     0.194116
H     -1.111259    -0.621791    -0.904182
H     -2.287355    -0.065621    -0.658289
C     -0.809038     1.391224    -0.125202
H     -1.796304     1.867234     0.251260
H     -0.081952     1.598981     0.486772
6
Family_1 [H+].[H][C-]=C([H])[H] | RMSD: 0.3368 | 424.00 to state    1 from traj    1 on state    2
C     -1.667551     0.140446     0.009871
H     -1.204130    -0.745289     0.308244
H     -2.638446     0.010674    -0.330475
C     -0.846710     1.431058    -0.047365
H     -2.186336     3.434311     0.420946
H      0.256315     1.329588     0.044766
6
Family_1 [H+].[H][C-]=C([H])[H] | RMSD: 0.3574 | 1128.00 to state    1 from traj    1 on state    2
C     -1.627091     0.144069    -0.012863
H     -1.197139    -0.860660     0.415040
H     -2.696237     0.204051    -0.231442
C     -0.879907     1.410575    -0.052240
H     -2.180957     3.539747     0.457619
H      0.215199     1.347045     0.131250
6
Family_1 [H+].[H][C-]=C([H])[H] | RMSD: 0.9356 | 3396.00 to state    1 from traj    1 on state    2
C     -1.546680     0.287204    -0.058861
H     -1.692023    -0.731688    -0.547794
H     -2.651472     0.202937     0.986159
C     -0.873082     1.406320    -0.038658
H     -1.900923     1.965660    -0.202238
H     -0.654180     1.138421     0.922599
6
Family_1 [H+].[H][C-]=C([H])[H] | RMSD: 0.8730 | 2452.00 to state    1 from traj    1 on state    2
C     -1.617127     0.169474    -0.069618
H     -1.207550    -1.309716    -0.150298
H     -2.301421     0.232038     0.780036
C     -0.878465     1.534041    -0.071842
H     -1.558416     2.475194     0.114282
H     -0.927650     1.058773     0.938281
6
Family_1 [H+].[H][C-]=C([H])[H] | RMSD: 0.4100 | 736.00 to state    1 from traj    1 on state    2
C     -1.612859     0.147585    -0.017739
H     -1.202331    -0.768979     0.494192
H     -2.660437     0.312533    -0.227697
C     -0.899346     1.385921    -0.070092
H     -2.218299     3.592280     0.541626
H      0.283981     1.346221     0.235159
6
Family_1 [H+].[H][C-]=C([H])[H] | RMSD: 0.2895 | 472.00 to state    1 from traj    1 on state    2
C     -1.632007     0.144042    -0.012447
H     -1.266849    -0.937567    -0.329092
H     -2.632824     0.377164     0.287933
C     -0.875144     1.441748     0.040337
H     -2.278431     3.254964    -0.219872
H      0.320802     1.164502    -0.074587
6
Family_1 [H+].[H][C-]=C([H])[H] | RMSD: 1.0406 | 14744.00 to state    1 from traj    1 on state    2
C     -1.712952     0.286854     0.047645
H     -2.038069    -0.643910     0.455674
H     -2.419310     0.270827    -0.706236
C     -0.659506     1.313007    -0.052501
H     -2.668385     1.730546     0.503025
H     -0.336510     2.333935    -0.197879
6
Family_1 [H+].[H][C-]=C([H])[H] | RMSD: 0.8868 | 15408.00 to state    1 from traj    1 on state    2
C     -1.568990     0.078786     0.089333
H     -1.098067    -0.828809     0.461466
H     -1.747156     1.574234    -0.996074
C     -1.051013     1.414386    -0.087606
H     -1.761333     2.990259     0.655341
H      0.093957     1.226982    -0.144594
6
Family_1 [H+].[H][C-]=C([H])[H] | RMSD: 0.3407 | 604.00 to state    1 from traj    1 on state    2
C     -1.672596     0.199643    -0.026332
H     -1.410568    -0.723536     0.244988
H     -2.686772     0.210333    -0.001627
C     -0.798216     1.450285    -0.005337
H     -2.505533     2.604040     0.176547
H      0.312561     1.003976    -0.045833
6
Family_1 [H+].[H][C-]=C([H])[H] | RMSD: 0.8208 | 7872.00 to state    1 from traj    1 on state    2
C     -1.356351     0.274470     0.030706
H     -1.520180    -0.567739    -0.558748
H     -2.984962     0.581587     0.277210
C     -1.086733     1.428228    -0.082409
H     -1.603816     2.376296     0.040981
H     -0.511757     0.075878     0.853343
6
Family_1 [H+].[H][C-]=C([H])[H] | RMSD: 0.9498 | 10928.00 to state    1 from traj    1 on state    2
C     -1.760151     0.468601     0.073818
H     -0.923903    -0.309017     0.623023
H     -2.148448     0.394122    -0.991242
C     -0.738699     1.179418    -0.077967
H     -3.041278     1.752022     0.728995
H      0.157402     1.280437    -0.314619
6
Family_1 [H+].[H][C-]=C([H])[H] | RMSD: 0.8524 | 3872.00 to state    1 from traj    1 on state    2
C     -1.701556     0.370272     0.009019
H     -1.056840    -0.316641     0.653480
H     -2.209218     0.067868    -0.724889
C     -0.828023     1.288475     0.056832
H     -2.187552     1.960202     0.240957
H     -0.136458     1.278299    -0.957482
6
Family_1 [H+].[H][C-]=C([H])[H] | RMSD: 0.6817 | 5848.00 to state    1 from traj    1 on state    2
C     -1.606586     0.205885    -0.004898
H     -1.081857    -0.550799    -0.248702
H     -2.781083     0.305874     0.011700
C     -0.846497     1.282383     0.126825
H     -2.052069     3.294639    -0.433390
H     -0.586556     1.971390    -0.785728
6
Family_1 [H+].[H][C-]=C([H])[H] | RMSD: 0.2232 | 452.00 to state    1 from traj    1 on state    2
C     -1.626529     0.146569    -0.027978
H     -1.316389    -0.879535     0.301133
H     -2.714783     0.358308    -0.038466
C     -0.851726     1.446715    -0.018371
H     -2.331258     3.158599     0.254988
H      0.160810     1.132386     0.031348
6
Family_1 [H+].[H][C-]=C([H])[H] | RMSD: 0.3751 | 1776.00 to state    1 from traj    1 on state    2
C     -1.654276     0.295655     0.018893
H     -1.356424    -0.849866    -0.093798
H     -2.772642     0.255043    -0.095509
C     -0.779499     1.372433    -0.001165
H     -2.775120     2.466881     0.064322
H      0.172555     1.006363    -0.089536
6
Family_1 [H+].[H][C-]=C([H])[H] | RMSD: 0.7085 | 3408.00 to state    1 from traj    1 on state    2
C     -1.560302     0.110454    -0.032476
H     -1.267388    -0.881732    -0.368231
H     -2.528124    -0.223808     0.365165
C     -1.036964     1.455292     0.074838
H     -1.123767     3.746055    -0.348809
H      0.135758     1.457379    -0.156179
6
Family_1 [H+].[H][C-]=C([H])[H] | RMSD: 0.8606 | 7744.00 to state    1 from traj    1 on state    2
C     -1.366687     0.176714    -0.009532
H     -1.739211    -0.699919     0.489729
H     -2.938424     0.234263    -0.568558
C     -1.102123     1.532522     0.076568
H     -1.132265     2.592693     0.048923
H     -0.504267     0.261080    -0.772150
6
Family_1 [H+].[H][C-]=C([H])[H] | RMSD: 0.8523 | 764.00 to state    1 from traj    1 on state    2
C     -1.741412     0.302916     0.023063
H     -0.733947    -0.236510     0.231709
H     -2.387563    -0.182402    -0.590690
C     -0.812986     1.303254     0.119724
H     -1.859874     2.409965    -0.131743
H     -0.312955     1.625162    -1.213964
6
Family_1 [H+].[H][C-]=C([H])[H] | RMSD: 0.8709 | 1324.00 to state    1 from traj    1 on state    2
C     -1.520946     0.117875     0.024389
H     -1.941501    -0.793982     0.419780
H     -2.257291     0.089066    -0.815044
C     -0.941608     1.550294     0.117085
H     -1.639955     2.798655    -0.040097
H     -0.549962     0.783719    -1.253684
6
Family_1 [H+].[H][C-]=C([H])[H] | RMSD: 0.4736 | 548.00 to state    1 from traj    1 on state    2
C     -1.591328     0.136889    -0.002201
H     -1.283810    -0.947189    -0.441976
H     -2.663133    -0.032706     0.226120
C     -0.950141     1.429034     0.056362
H     -1.810171     3.730419    -0.283886
H      0.308731     1.345268    -0.148903
6
Family_1 [H+].[H][C-]=C([H])[H] | RMSD: 0.4929 | 632.00 to state    1 from traj    1 on state    2
C     -1.619349     0.198463    -0.018608
H     -1.251791    -0.774975    -0.528173
H     -2.647444     0.085418     0.415584
C     -0.862764     1.338106     0.088536
H     -2.473863     3.757902    -0.442710
H      0.217443     1.377217    -0.281224
6
Family_1 [H+].[H][C-]=C([H])[H] | RMSD: 0.6402 | 704.00 to state    1 from traj    1 on state    2
C     -1.606475     0.148615     0.039724
H     -1.477970    -0.815454     0.699534
H     -2.578005     0.405674    -0.773589
C     -0.889362     1.423217    -0.137550
H     -2.049320     2.989720     0.904287
H      0.113171     1.445436     0.332140
6
Family_1 [H+].[H][C-]=C([H])[H] | RMSD: 0.7635 | 568.00 to state    1 from traj    1 on state    2
C     -1.592774     0.137456    -0.060530
H     -1.407217    -0.383877     0.709067
H     -2.715932     0.218142    -0.306842
C     -0.843652     1.388186     0.099095
H     -1.848365     3.021332     0.039085
H     -0.728529     1.720164    -0.904124
6
Family_1 [H+].[H][C-]=C([H])[H] | RMSD: 0.9039 | 1372.00 to state    1 from traj    1 on state    2
C     -1.491886     0.224717     0.048538
H     -1.429064    -0.834861    -0.797575
H     -2.459527     0.390862     0.465157
C     -1.016446     1.446565    -0.157037
H     -1.476397     2.504388     0.190177
H     -0.478248     0.779978     1.431796
6
Family_1 [H+].[H][C-]=C([H])[H] | RMSD: 0.8615 | 2304.00 to state    1 from traj    1 on state    2
C     -1.587961     0.189278     0.239648
H     -1.442640    -0.354824    -0.870377
H     -2.388014     0.113120    -1.197423
C     -0.982665     1.418857    -0.068588
H     -1.268240     2.421787     0.146164
H     -0.002063     1.412717    -0.119933
6
Family_1 [H+].[H][C-]=C([H])[H] | RMSD: 1.0189 | 5292.00 to state    1 from traj    1 on state    2
C     -1.498226     0.296175    -0.066560
H     -1.304869    -0.591835    -0.540437
H     -1.827956     0.157271     1.025734
C     -1.081669     1.469391    -0.025375
H     -1.592558     2.435359    -0.224637
H     -0.265137    -0.283875     0.831531
6
Family_1 [H+].[H][C-]=C([H])[H] | RMSD: 0.9554 | 3680.00 to state    1 from traj    1 on state    2
C     -1.447930     0.152805     0.053091
H     -1.960577    -0.470940     0.589638
H     -2.352395     1.037456    -1.059495
C     -1.041892     1.384166     0.045924
H     -1.592654     2.448399     0.245481
H     -0.158173     1.425860    -0.958732
6
Family_1 [H+].[H][C-]=C([H])[H] | RMSD: 0.9366 | 2920.00 to state    1 from traj    1 on state    2
C     -1.418652     0.209197    -0.043868
H     -1.629661    -1.439332     0.509950
H     -2.478050     0.246064    -0.324147
C     -1.032317     1.601048     0.102109
H     -1.570271     2.596921    -0.031106
H     -0.848766    -0.219119    -0.851962
6
Family_1 [H+].[H][C-]=C([H])[H] | RMSD: 0.4668 | 3448.00 to state    1 from traj    1 on state    2
C     -1.653018     0.221574    -0.000863
H     -1.247522    -0.435299    -0.604561
H     -2.746099     0.184196     0.407685
C     -0.809937     1.393645     0.068832
H     -2.481250     2.750881    -0.448161
H      0.090937     1.008622    -0.168136
6
Family_1 [H+].[H][C-]=C([H])[H] | RMSD: 0.9729 | 6832.00 to state    1 from traj    1 on state    2
C     -1.372417     0.192647    -0.130782
H     -1.466918     0.055747     0.791356
H     -2.973556    -0.028637     0.167383
C     -1.123319     1.501212     0.096155
H     -1.115051     2.733715    -0.030983
H     -0.437797    -0.189484    -0.518437
6
Family_1 [H+].[H][C-]=C([H])[H] | RMSD: 0.8837 | 7968.00 to state    1 from traj    1 on state    2
C     -1.495398     0.190318     0.065316
H     -1.419698    -0.336200    -1.174998
H     -2.466978     0.096462     0.411116
C     -1.073429     1.514977     0.001215
H     -1.308987     2.532360    -0.467352
H      0.073266     0.142457     0.435195
6
Family_1 [H+].[H][C-]=C([H])[H] | RMSD: 0.9654 | 9348.00 to state    1 from traj    1 on state    2
C     -1.498233     0.238347    -0.035505
H     -1.301818    -0.966112     0.881413
H     -2.387568    -0.410288    -0.602023
C     -1.052327     1.561852     0.019688
H     -1.072628     2.635717     0.437856
H     -0.578041     0.044925    -0.532058
6
Family_1 [H+].[H][C-]=C([H])[H] | RMSD: 0.2858 | 328.00 to state    1 from traj    1 on state    2
C     -1.647174     0.196559    -0.020139
H     -1.196250    -0.781569     0.371470
H     -2.679419     0.247777    -0.148614
C     -0.830686     1.454181    -0.020862
H     -2.367711     2.786996     0.304628
H      0.037052     0.831940    -0.042210
6
Family_1 [H+].[H][C-]=C([H])[H] | RMSD: 0.2908 | 508.00 to state    1 from traj    1 on state    2
C     -1.628474     0.214955    -0.016582
H     -1.378797    -0.770123     0.355096
H     -2.780406     0.153900    -0.156733
C     -0.832569     1.427546    -0.034440
H     -2.447802     2.854965     0.348805
H      0.200286     0.944572     0.057518
6
Family_1 [H+].[H][C-]=C([H])[H] | RMSD: 1.0583 | 5172.00 to state    1 from traj    1 on state    2
C     -1.559008     0.203071    -0.017172
H     -1.062655    -0.789868     0.509905
H     -2.271136    -0.192141    -0.652374
C     -1.030251     1.556669     0.185105
H     -1.117528     2.587533    -0.244019
H     -0.427617     0.180804    -1.617831
6
Family_1 [H+].[H][C-]=C([H])[H] | RMSD: 0.3628 | 1168.00 to state    1 from traj    1 on state    2
C     -1.637740     0.144027     0.002477
H     -1.029953    -0.739482     0.088191
H     -2.625274     0.212393    -0.107023
C     -0.883460     1.369673    -0.030570
H     -2.329572     3.909949     0.260209
H      0.294890     1.335196     0.090093
6
Family_1 [H+].[H][C-]=C([H])[H] | RMSD: 0.4295 | 1532.00 to state    1 from traj    1 on state    2
C     -1.591007     0.183646    -0.030063
H     -1.287837    -0.657708     0.441436
H     -2.576248     0.039051    -0.120558
C     -0.903555     1.352879    -0.053950
H     -2.277508     3.814940     0.468611
H      0.134276     1.249796     0.208305
6
Family_1 [H+].[H][C-]=C([H])[H] | RMSD: 1.0264 | 2280.00 to state    1 from traj    1 on state    2
C     -1.512632     0.239796    -0.009430
H     -1.226743    -0.712611    -0.427721
H     -2.439252    -0.126586     0.620988
C     -1.036818     1.497204    -0.162669
H     -1.111891     2.464363     0.329862
H     -0.575408     0.432130     1.524274
6
Family_1 [H+].[H][C-]=C([H])[H] | RMSD: 0.8470 | 2840.00 to state    1 from traj    1 on state    2
C     -1.532198     0.276999     0.009942
H     -1.336824    -0.584125    -0.750952
H     -2.576203     0.210873     0.696180
C     -0.980096     1.432520    -0.112949
H     -1.793968     2.317392     0.027859
H     -0.089031     0.440607     1.251029
6
Family_1 [H+].[H][C-]=C([H])[H] | RMSD: 0.8421 | 2944.00 to state    1 from traj    1 on state    2
C     -1.508894     0.295283    -0.009073
H     -1.483470    -0.633605    -0.696746
H     -2.317408     0.122353     0.751582
C     -1.016359     1.424848    -0.081622
H     -1.719042     2.392109    -0.056364
H     -0.121691     0.377433     1.078946
6
Family_1 [H+].[H][C-]=C([H])[H] | RMSD: 0.8963 | 4508.00 to state    1 from traj    6 on state    2
C     -1.462013     0.282812    -0.052586
H     -1.336610    -0.650287     0.707806
H     -2.475039    -0.020522    -0.477088
C     -1.078407     1.448154     0.143259
H     -1.340371     2.584612    -0.070414
H     -0.308864     0.215386    -1.244026
6
Family_1 [H+].[H][C-]=C([H])[H] | RMSD: 0.9712 | 4752.00 to state    1 from traj    1 on state    2
C     -1.558885     0.158315    -0.019328
H     -1.146717    -0.489274     0.621544
H     -2.493439    -0.041251    -0.656229
C     -1.029407     1.538495     0.141733
H     -0.987531     2.486816    -0.086404
H     -0.262763     0.579893    -1.340728
6
Family_1 [H+].[H][C-]=C([H])[H] | RMSD: 0.1800 | 732.00 to state    1 from traj    1 on state    2
C     -1.601253     0.179404    -0.000757
H     -1.292829    -0.871416    -0.202810
H     -2.923434     0.264601     0.097891
C     -0.854749     1.411979     0.018728
H     -2.397159     3.274382    -0.067475
H      0.146644     1.124847    -0.045020
6
Family_1 [H+].[H][C-]=C([H])[H] | RMSD: 0.2452 | 1800.00 to state    1 from traj    1 on state    2
C     -1.624503     0.194900     0.011455
H     -1.419318    -0.945334     0.014583
H     -2.540157     0.320085    -0.118141
C     -0.841018     1.385251    -0.021877
H     -2.601431     3.329948     0.193986
H      0.207544     1.221553     0.030481
6
Family_1 [H+].[H][C-]=C([H])[H] | RMSD: 0.8681 | 3324.00 to state    1 from traj    1 on state    2
C     -1.697532     0.216130     0.140919
H     -1.252677    -0.736922    -0.038268
H     -1.625559     0.248625    -1.166189
C     -0.952570     1.438827     0.009183
H     -1.638527     2.349976     0.218538
H      0.362820     1.173210    -0.805938
6
Family_1 [H+].[H][C-]=C([H])[H] | RMSD: 0.3771 | 804.00 to state    1 from traj    1 on state    2
C     -1.621718     0.158443     0.002640
H     -1.250400    -0.770701    -0.587411
H     -2.616148     0.343805     0.360855
C     -0.866472     1.427581     0.058847
H     -2.256258     3.167681    -0.393077
H      0.039559     1.115482    -0.116311
6
Family_1 [H+].[H][C-]=C([H])[H] | RMSD: 0.2287 | 912.00 to state    1 from traj    1 on state    2
C     -1.625199     0.224022    -0.004794
H     -1.355894    -0.734471     0.199293
H     -2.697113     0.120175    -0.133347
C     -0.843661     1.417681    -0.026579
H     -2.469601     2.943292     0.267630
H      0.209036     0.863822     0.036981
6
Family_1 [H+].[H][C-]=C([H])[H] | RMSD: 0.1858 | 372.00 to state    1 from traj    1 on state    2
C     -1.611390     0.140638     0.013457
H     -1.117230    -0.698039    -0.034437
H     -2.634163     0.269829    -0.119982
C     -0.908294     1.420131    -0.009209
H     -2.132030     3.513166     0.125177
H      0.175449     1.072250    -0.024666
6
Family_1 [H+].[H][C-]=C([H])[H] | RMSD: 0.4931 | 680.00 to state    1 from traj    1 on state    2
C     -1.621199     0.205468     0.027891
H     -1.440941    -0.683210     0.479902
H     -2.510854     0.277994    -0.527951
C     -0.867580     1.344389    -0.108076
H     -2.483728     3.315002     0.711634
H      0.359304     1.377432     0.288592
6
Family_1 [H+].[H][C-]=C([H])[H] | RMSD: 0.7037 | 1676.00 to state    1 from traj    1 on state    2
C     -1.689645     0.253720     0.044299
H     -1.426483    -0.683477    -0.475362
H     -2.754254     0.290602     0.238564
C     -0.734565     1.380764    -0.131967
H     -2.573500     2.193227     0.276252
H     -0.091370     1.478491     1.001882
6
Family_1 [H+].[H][C-]=C([H])[H] | RMSD: 0.8859 | 2844.00 to state    1 from traj    1 on state    2
C     -1.510813     0.218873     0.021712
H     -1.193877    -0.942283    -0.465465
H     -2.448986     0.472944     0.375434
C     -1.031305     1.564894    -0.125242
H     -1.735619     2.316643     0.224225
H     -0.062166    -0.347272     1.096152
6
Family_1 [H+].[H][C-]=C([H])[H] | RMSD: 0.9094 | 9984.00 to state    1 from traj    1 on state    2
C     -1.533621     0.252190     0.039455
H     -0.913891    -0.842645    -1.038099
H     -2.542295    -0.068850     0.532891
C     -1.013099     1.522533    -0.020888
H     -1.370768     2.536420    -0.333422
H     -0.558866    -0.017133     0.614105
6
Family_1 [H+].[H][C-]=C([H])[H] | RMSD: 0.8706 | 3056.00 to state    1 from traj    1 on state    2
C     -1.453284     0.115678     0.155215
H     -2.131033    -0.398762    -0.267569
H     -2.336089     1.091033    -1.065799
C     -1.028063     1.396471    -0.020321
H     -1.697020     2.531793     0.145665
H     -0.000635     1.512490    -0.422927
6
Family_1 [H+].[H][C-]=C([H])[H] | RMSD: 0.3869 | 616.00 to state    1 from traj    1 on state    2
C     -1.611351     0.148970     0.009962
H     -1.192030    -0.826770    -0.416461
H     -2.730867    -0.037258     0.140444
C     -0.899538     1.410043     0.038119
H     -2.041032     3.733702    -0.197104
H      0.151171     1.308456    -0.103081
6
Family_1 [H+].[H][C-]=C([H])[H] | RMSD: 0.7099 | 632.00 to state    1 from traj    1 on state    2
C     -1.614793     0.168653    -0.033120
H     -1.531487    -0.588149    -0.766734
H     -2.358075    -0.102625     0.697202
C     -0.934284     1.406861     0.119670
H     -1.797130     3.245973    -0.709594
H      0.328969     1.426304    -0.255459
6
Family_1 [H+].[H][C-]=C([H])[H] | RMSD: 0.5290 | 1272.00 to state    1 from traj    1 on state    2
C     -1.600934     0.173072     0.028843
H     -1.187312    -0.814699     0.590311
H     -2.520998     0.134027    -0.674632
C     -0.960671     1.421661    -0.094708
H     -1.812361     3.298335     0.728954
H      0.312211     1.134834     0.136919
6
Family_1 [H+].[H][C-]=C([H])[H] | RMSD: 0.3040 | 604.00 to state    1 from traj    1 on state    2
C     -1.616346     0.201169     0.005566
H     -1.094959    -1.013397     0.113172
H     -2.820466     0.163147    -0.170608
C     -0.866224     1.359395    -0.029174
H     -2.473016     3.744340     0.282398
H      0.238226     1.265548     0.053061
6
Family_1 [H+].[H][C-]=C([H])[H] | RMSD: 0.9518 | 1572.00 to state    1 from traj    1 on state    2
C     -1.420958     0.169503    -0.018426
H     -1.437046    -1.345007     0.310076
H     -2.515641     0.328093    -0.344969
C     -1.063593     1.642371     0.093681
H     -1.378602     2.603004    -0.083116
H     -0.795311    -0.420981    -0.781981
6
Family_1 [H+].[H][C-]=C([H])[H] | RMSD: 0.2061 | 536.00 to state    1 from traj    1 on state    2
C     -1.649157     0.200076     0.020959
H     -1.331041    -0.815103     0.041532
H     -2.734559     0.281981    -0.218424
C     -0.817482     1.412440    -0.016210
H     -2.566160     2.971730     0.187365
H      0.291730     1.102001    -0.070351
6
Family_1 [H+].[H][C-]=C([H])[H] | RMSD: 0.2270 | 1764.00 to state    1 from traj    1 on state    2
C     -1.591705     0.232194    -0.021145
H     -1.356697    -0.709819    -0.095761
H     -2.557151     0.309718     0.179492
C     -0.870096     1.373940     0.027816
H     -2.553751     3.144143    -0.070070
H      0.069918     0.872611    -0.096428
6
Family_1 [H+].[H][C-]=C([H])[H] | RMSD: 0.8174 | 6116.00 to state    1 from traj    1 on state    2
C     -1.557575     0.191201    -0.045318
H     -1.081388    -0.678305     0.507828
H     -2.462609    -0.253998    -0.330924
C     -1.034227     1.559200     0.127104
H     -1.407799     2.911256    -0.097239
H      0.103156    -0.081347    -1.057476
6
Family_1 [H+].[H][C-]=C([H])[H] | RMSD: 0.8978 | 6384.00 to state    1 from traj    1 on state    2
C     -1.588750     0.256700     0.044784
H     -0.849586    -0.549049     0.165721
H     -2.446158     0.048886    -0.711769
C     -0.989008     1.516049     0.103389
H     -1.532955     2.214578    -0.104379
H     -0.187273    -0.083092    -1.118446
6
Family_1 [H+].[H][C-]=C([H])[H] | RMSD: 0.1858 | 544.00 to state    1 from traj    1 on state    2
C     -1.641276     0.182011    -0.015418
H     -1.358806    -0.842728    -0.030036
H     -2.621366     0.217810     0.100306
C     -0.834500     1.426276     0.010935
H     -2.453603     3.119770     0.022722
H      0.202614     1.096146    -0.042852
6
Family_1 [H+].[H][C-]=C([H])[H] | RMSD: 0.2882 | 2056.00 to state    1 from traj    1 on state    2
C     -1.653829     0.254286     0.010189
H     -1.180386    -0.758255     0.100800
H     -2.796891     0.419387    -0.145473
C     -0.796418     1.349476    -0.029814
H     -2.868002     2.931207     0.245610
H      0.309926     1.052577     0.029621
6
Family_1 [H+].[H][C-]=C([H])[H] | RMSD: 0.9787 | 15280.00 to state    1 from traj    1 on state    2
C     -1.655333     0.277243     0.027404
H     -1.857241    -0.303752     0.889825
H     -2.384358     0.414149    -0.745286
C     -0.772730     1.357818    -0.157241
H     -2.575386     1.778198     1.000992
H      0.017292     1.383367     0.398276
6
Family_1 [H+].[H][C-]=C([H])[H] | RMSD: 0.9631 | 17404.00 to state    1 from traj    1 on state    2
C     -1.559117     0.096353     0.167199
H     -1.903446    -0.724481    -0.215425
H     -1.263117     1.032282    -1.032920
C     -1.027853     1.451009    -0.116410
H     -1.666600     2.701162     0.510320
H     -0.073045     1.307988     0.129557
6
Family_1 [H+].[H][C-]=C([H])[H] | RMSD: 0.9513 | 13692.00 to state    1 from traj    1 on state    2
C     -1.548343     0.317534     0.045848
H     -0.984651    -0.517756    -0.495345
H     -2.326209    -0.097402     0.170058
C     -1.023024     1.508253    -0.108973
H     -1.615855     2.131396     0.210052
H     -0.165419    -0.516907     0.864128
6
Family_1 [H+].[H][C-]=C([H])[H] | RMSD: 0.9041 | 13796.00 to state    1 from traj    1 on state    2
C     -1.524940     0.350665     0.034029
H     -0.980603    -0.504474    -0.447882
H     -2.522762    -0.115511     0.240481
C     -1.008728     1.452582    -0.124840
H     -1.734180     2.244356     0.273413
H     -0.303799    -0.356463     1.012779
6
Family_1 [H+].[H][C-]=C([H])[H] | RMSD: 0.7176 | 644.00 to state    1 from traj    1 on state    2
C     -1.642959     0.116244    -0.025787
H     -1.760733    -0.709565    -0.842694
H     -2.365526     0.048522     0.786983
C     -0.859711     1.469253     0.076429
H     -2.010999     3.028177    -0.623657
H      0.226557     1.495409     0.072646
6
Family_1 [H+].[H][C-]=C([H])[H] | RMSD: 0.8724 | 1448.00 to state    1 from traj    1 on state    2
C     -1.693729     0.186299     0.038484
H     -1.633726    -0.746943     0.637534
H     -2.338361     0.363511    -0.978243
C     -0.740583     1.448845     0.069411
H     -2.460191     2.235872     0.223496
H     -0.292954     1.418528    -1.171718
6
Family_1 [H+].[H][C-]=C([H])[H] | RMSD: 0.8107 | 2744.00 to state    1 from traj    1 on state    2
C     -1.629623     0.216613     0.049963
H     -1.785072    -0.736354     0.421666
H     -2.396955     0.331156    -0.856145
C     -0.759424     1.428136     0.038074
H     -2.425763     2.229043     0.224746
H     -0.656802     1.332686    -0.842573
6
Family_1 [H+].[H][C-]=C([H])[H] | RMSD: 0.9688 | 4176.00 to state    1 from traj    1 on state    2
C     -1.568245     0.191788    -0.079702
H     -1.320182    -0.903669    -0.277065
H     -2.219159     0.333226     1.072498
C     -0.946803     1.506788    -0.129435
H     -1.703023     2.506648     0.198381
H     -0.520855     0.578931     1.494924
6
Family_1 [H+].[H][C-]=C([H])[H] | RMSD: 0.7975 | 2148.00 to state    2 from traj    3 on state    1
C     -1.780498     0.211573    -0.042304
H     -0.983459    -0.526775    -0.044631
H     -2.559258     0.067843     0.557840
C     -0.711694     1.448807    -0.096967
H     -2.100989     1.954067     0.259243
H     -0.391851     1.475134     0.883782
6
Family_1 [H+].[H][C-]=C([H])[H] | RMSD: 0.7668 | 3072.00 to state    1 from traj    4 on state    2
C     -1.543839     0.192714     0.082048
H     -1.824479    -0.667082    -0.399393
H     -2.585178     1.121731    -0.405275
C     -0.860571     1.305978     0.037199
H     -2.391770     2.493384    -0.178019
H     -0.280111     1.948853    -0.441492
6
Family_1 [H+].[H][C-]=C([H])[H] | RMSD: 1.0748 | 4204.00 to state    1 from traj    1 on state    2
C     -1.680972     0.300957     0.086992
H     -1.420773    -0.808422     0.281295
H     -2.155804     0.872898    -0.946859
C     -0.731183     1.280873     0.003619
H     -2.481965     1.754994     0.288401
H     -0.930712     2.086779    -0.705807
6
Family_1 [H+].[H][C-]=C([H])[H] | RMSD: 1.0135 | 4504.00 to state    1 from traj    1 on state    2
C     -1.713541     0.398702     0.066377
H     -1.597654    -0.675871     0.297579
H     -2.346190     0.175759    -0.841597
C     -0.626774     1.234711     0.024224
H     -3.037818     1.881247     0.247822
H     -0.863611     1.910463    -0.786660
6
Family_1 [H+].[H][C-]=C([H])[H] | RMSD: 1.0340 | 4652.00 to state    1 from traj    1 on state    2
C     -1.709562     0.425284     0.024108
H     -1.679180    -0.594552     0.636311
H     -2.688789    -0.027503    -0.801999
C     -0.619170     1.225163     0.028467
H     -3.072875     1.784036     0.350419
H     -0.542448     1.926648    -0.814484
6
Family_1 [H+].[H][C-]=C([H])[H] | RMSD: 1.0819 | 3464.00 to state    1 from traj    1 on state    2
C     -1.391185     0.255909    -0.075855
H     -1.340259    -0.468389     0.915659
H     -3.144916    -0.360114    -0.417808
C     -1.052649     1.531953     0.090637
H     -1.198760     2.591429     0.158789
H     -0.927841    -0.311688    -0.836056
6
Family_1 [H+].[H][C-]=C([H])[H] | RMSD: 0.4693 | 420.00 to state    1 from traj    1 on state    2
C     -1.571908     0.093808     0.000881
H     -1.378104    -1.033904    -0.097367
H     -2.691552     0.033473    -0.021731
C     -0.968499     1.462389     0.000589
H     -1.639705     3.779007     0.060531
H      0.248323     1.433107     0.037769
6
Family_1 [H+].[H][C-]=C([H])[H] | RMSD: 0.3953 | 1660.00 to state    1 from traj    1 on state    2
C     -1.608988     0.141716    -0.016235
H     -1.096531    -0.834727    -0.309640
H     -2.657774     0.293300     0.267049
C     -0.918191     1.380167     0.049538
H     -2.145432     3.790783    -0.222703
H      0.281065     1.371206    -0.134813
6
Family_1 [H+].[H][C-]=C([H])[H] | RMSD: 0.4901 | 1944.00 to state    1 from traj    1 on state    2
C     -1.575484     0.180996    -0.009576
H     -1.313448    -0.748148    -0.399507
H     -2.662437     0.203511     0.267489
C     -0.880193     1.318465     0.057028
H     -2.543163     4.058877    -0.264289
H      0.048387     1.373487    -0.172399
6
Family_1 [H+].[H][C-]=C([H])[H] | RMSD: 0.4891 | 2136.00 to state    1 from traj    1 on state    2
C     -1.602474     0.204685    -0.003216
H     -1.331904    -0.828653    -0.441322
H     -2.621759     0.103487     0.235406
C     -0.872599     1.318264     0.067749
H     -2.600134     3.956396    -0.302794
H      0.314259     1.376620    -0.263530
6
Family_1 [H+].[H][C-]=C([H])[H] | RMSD: 0.2728 | 444.00 to state    1 from traj    1 on state    2
C     -1.626068     0.170792    -0.038892
H     -1.316407    -0.766399     0.376239
H     -2.743259     0.455570    -0.000432
C     -0.848279     1.431115    -0.017236
H     -2.461551     2.965962     0.264011
H      0.273031     1.011879     0.025703
6
Family_1 [H+].[H][C-]=C([H])[H] | RMSD: 0.2628 | 576.00 to state    1 from traj    1 on state    2
C     -1.610542     0.184019    -0.032649
H     -1.348823    -0.798187     0.338556
H     -2.735452     0.448205    -0.007896
C     -0.847964     1.409035    -0.029470
H     -2.501953     3.055624     0.296862
H      0.149280     1.066863     0.109379
6
Family_1 [H+].[H][C-]=C([H])[H] | RMSD: 0.2840 | 5056.00 to state    1 from traj    1 on state    2
C     -1.595736     0.238362    -0.026955
H     -1.581044    -0.904502     0.113432
H     -2.650002     0.270638     0.070364
C     -0.843563     1.393303     0.008900
H     -2.630497     2.955241     0.085354
H      0.195728     0.991053    -0.057294
6
Family_1 [H+].[H][C-]=C([H])[H] | RMSD: 0.2926 | 6220.00 to state    1 from traj    1 on state    2
C     -1.634538     0.189219    -0.012071
H     -1.405312    -0.968039    -0.198612
H     -2.638289     0.447255     0.211727
C     -0.828266     1.401395     0.020387
H     -2.617854     3.096905    -0.092029
H      0.275727     1.225457    -0.023461
6
Family_1 [H+].[H][C-]=C([H])[H] | RMSD: 0.3041 | 6340.00 to state    1 from traj    1 on state    2
C     -1.662204     0.193231    -0.022971
H     -1.281193    -0.901044    -0.148212
H     -2.671015     0.402450     0.265500
C     -0.799172     1.381279     0.019639
H     -2.719291     3.184645    -0.073498
H      0.268755     1.307414    -0.007370
6
Family_1 [H+].[H][C-]=C([H])[H] | RMSD: 0.2958 | 8028.00 to state    1 from traj    1 on state    2
C     -1.637861     0.130155     0.005020
H     -1.209820    -0.931224     0.023367
H     -2.738812     0.301495    -0.099242
C     -0.844540     1.403559    -0.011042
H     -2.379257     3.652630     0.159485
H      0.175671     1.456688    -0.015128
6
Family_1 [H+].[H][C-]=C([H])[H] | RMSD: 0.3410 | 500.00 to state    1 from traj    1 on state    2
C     -1.649132     0.172519    -0.016362
H     -1.428876    -0.695225    -0.254193
H     -2.694137     0.426695     0.302852
C     -0.814639     1.428594     0.025724
H     -2.552329     2.818644    -0.164371
H      0.301130     1.126367     0.000877
6
Family_1 [H+].[H][C-]=C([H])[H] | RMSD: 0.3573 | 632.00 to state    1 from traj    1 on state    2
C     -1.644567     0.224050    -0.031353
H     -1.338447    -0.990404    -0.248838
H     -2.778966     0.371054     0.376356
C     -0.809243     1.401026     0.047755
H     -2.650097     2.866233    -0.229947
H      0.274611     1.144056    -0.096296
6
Family_1 [H+].[H][C-]=C([H])[H] | RMSD: 0.2689 | 4592.00 to state    1 from traj    1 on state    2
C     -1.660746     0.107475    -0.024106
H     -1.068301    -0.669347    -0.110080
H     -2.642828     0.304387     0.237495
C     -0.867886     1.436489     0.016235
H     -2.192042     3.476920    -0.050404
H      0.301822     1.245492     0.013488
6
Family_1 [H+].[H][C-]=C([H])[H] | RMSD: 0.2567 | 452.00 to state    1 from traj    1 on state    2
C     -1.628361     0.138619    -0.007964
H     -1.490505    -0.804557    -0.088937
H     -2.689708     0.305085     0.080969
C     -0.839185     1.427435     0.013476
H     -2.429912     3.282361    -0.010125
H      0.280897     1.311339    -0.050865
6
Family_1 [H+].[H][C-]=C([H])[H] | RMSD: 0.2146 | 356.00 to state    1 from traj    1 on state    2
C     -1.659593     0.165336    -0.015687
H     -1.259239    -0.910116    -0.057809
H     -2.791101     0.360352     0.136203
C     -0.811364     1.455020     0.012393
H     -2.456895     2.898306    -0.011037
H      0.218653     1.098642    -0.031390
6
Family_1 [H+].[H][C-]=C([H])[H] | RMSD: 0.2451 | 552.00 to state    1 from traj    1 on state    2
C     -1.665025     0.201368    -0.018329
H     -1.343381    -0.796441    -0.044760
H     -2.664101     0.193745     0.142692
C     -0.801210     1.396560     0.011664
H     -2.635639     3.110516     0.012317
H      0.298274     1.206599    -0.034115
6
Family_1 [H+].[H][C-]=C([H])[H] | RMSD: 0.9489 | 3892.00 to state    1 from traj    1 on state    2
C     -1.461185     0.166957    -0.008095
H     -1.959444    -0.278999    -0.786011
H     -2.466120     1.068951     0.801803
C     -0.985057     1.364605    -0.042570
H     -1.886978     2.351025    -0.288303
H     -0.270538     1.364248     0.872944
6
Family_1 [H+].[H][C-]=C([H])[H] | RMSD: 0.7146 | 372.00 to state    1 from traj    1 on state    2
C     -1.742261     0.198312     0.102581
H     -1.187702     0.044583    -0.960978
H     -2.749405     0.000446     0.052093
C     -0.756654     1.336301    -0.052464
H     -2.298417     2.631263    -0.131103
H      0.280081     1.792582     0.439533
6
Family_1 [H+].[H][C-]=C([H])[H] | RMSD: 0.6360 | 580.00 to state    1 from traj    1 on state    2
C     -1.654238     0.211637     0.090993
H     -1.434843    -0.201591    -0.888151
H     -2.817047     0.256069     0.101550
C     -0.784814     1.339175    -0.070717
H     -2.426136     2.631432    -0.058570
H      0.009272     1.589938     0.600296
6
Family_1 [H+].[H][C-]=C([H])[H] | RMSD: 0.2214 | 404.00 to state    1 from traj    1 on state    2
C     -1.665293     0.167948     0.006151
H     -1.297805    -0.853742     0.052353
H     -2.693592     0.304268    -0.103860
C     -0.816758     1.474585    -0.010173
H     -2.414457     2.771475     0.141332
H      0.249461     0.960924    -0.045186
6
Family_1 [H+].[H][C-]=C([H])[H] | RMSD: 1.0734 | 9296.00 to state    1 from traj    1 on state    2
C     -1.439508     0.221487     0.060327
H     -1.290285    -0.833528    -1.036534
H     -2.436264    -0.058610     0.398348
C     -1.055872     1.587179    -0.059360
H     -1.347482     2.638722    -0.190310
H     -0.923532    -0.543247     0.813691
6
Family_1 [H+].[H][C-]=C([H])[H] | RMSD: 0.3735 | 628.00 to state    1 from traj    1 on state    2
C     -1.620411     0.172255     0.005002
H     -1.382848    -0.793510     0.423377
H     -2.824694     0.122914    -0.362629
C     -0.840654     1.402929    -0.069223
H     -2.344739     3.318454     0.533502
H      0.145832     1.337579     0.167708
6
Family_1 [H+].[H][C-]=C([H])[H] | RMSD: 0.8709 | 4484.00 to state    1 from traj    1 on state    2
C     -1.635556     0.260826     0.004912
H     -1.699104    -0.299835    -0.887889
H     -2.765270    -0.183345     0.774773
C     -0.762050     1.377762    -0.052282
H     -2.304608     2.322412    -0.227226
H     -0.393635     1.390699     0.901508
6
Family_1 [H+].[H][C-]=C([H])[H] | RMSD: 0.9653 | 16520.00 to state    1 from traj    1 on state    2
C     -1.520228     0.229839     0.053274
H     -1.293933    -0.400620    -0.654521
H     -2.397398    -0.319500     0.270377
C     -1.051838     1.545913    -0.144655
H     -1.388341     2.610451     0.254484
H     -0.004137    -0.294802     1.215236
6
Family_1 [H+].[H][C-]=C([H])[H] | RMSD: 0.3642 | 460.00 to state    1 from traj    1 on state    2
C     -1.627492     0.145156    -0.010586
H     -1.331624    -0.803370    -0.442355
H     -2.647911     0.202386     0.331781
C     -0.863246     1.420659     0.058973
H     -2.249084     3.395200    -0.324787
H      0.175740     1.302863    -0.144478
6
Family_1 [H+].[H][C-]=C([H])[H] | RMSD: 0.3349 | 10412.00 to state    1 from traj    1 on state    2
C     -1.660576     0.198441     0.012629
H     -1.101073    -0.599429    -0.534086
H     -2.688023    -0.038336     0.246115
C     -0.845217     1.421493     0.045195
H     -2.284445     3.147562    -0.294618
H      0.200049     0.942417    -0.109709
6
Family_1 [H+].[H][C-]=C([H])[H] | RMSD: 0.3326 | 11564.00 to state    1 from traj    1 on state    2
C     -1.697027     0.195184     0.001055
H     -1.290272    -0.784614     0.017044
H     -2.822664     0.316054    -0.033702
C     -0.777257     1.437661    -0.000868
H     -2.609038     2.618752     0.083858
H      0.473025     1.148176    -0.072718
6
Family_1 [H+].[H][C-]=C([H])[H] | RMSD: 0.3339 | 14332.00 to state    1 from traj    1 on state    2
C     -1.602718     0.229067     0.009551
H     -1.557577    -0.845105     0.160905
H     -2.713214     0.448863    -0.185328
C     -0.839339     1.375437    -0.043951
H     -2.726519     2.935584     0.312435
H      0.364367     1.096736     0.118603
6
Family_1 [H+].[H][C-]=C([H])[H] | RMSD: 0.3211 | 572.00 to state    1 from traj    1 on state    2
C     -1.638678     0.199638    -0.001992
H     -1.454070    -0.977331    -0.039881
H     -2.844889     0.468182     0.026077
C     -0.798866     1.395270    -0.002934
H     -2.753978     2.972672     0.069797
H      0.366220     1.286891    -0.000577
6
Family_1 [H+].[H][C-]=C([H])[H] | RMSD: 0.1555 | 3244.00 to state    1 from traj    1 on state    2
C     -1.620478     0.199210     0.000055
H     -1.192951    -0.874610    -0.149327
H     -2.668244     0.282571     0.070895
C     -0.866122     1.384533     0.007119
H     -2.459026     3.373574     0.006278
H      0.218027     1.101919    -0.016611
6
Family_1 [H+].[H][C-]=C([H])[H] | RMSD: 0.4404 | 12600.00 to state    1 from traj    1 on state    2
C     -1.700208     0.240177     0.008674
H     -1.354629    -0.872107     0.225790
H     -2.671188     0.380442    -0.219079
C     -0.755001     1.405495    -0.034076
H     -2.746738     2.420923     0.302669
H      0.296321     1.216277    -0.009975
6
Family_1 [H+].[H][C-]=C([H])[H] | RMSD: 0.4362 | 432.00 to state    1 from traj    1 on state    2
C     -1.589653     0.125921    -0.020775
H     -1.446068    -0.889646    -0.328179
H     -2.655162     0.195447     0.305116
C     -0.903488     1.405465     0.053189
H     -2.136967     3.724413    -0.252307
H      0.213947     1.477109    -0.114142
6
Family_1 [H+].[H][C-]=C([H])[H] | RMSD: 0.4431 | 632.00 to state    1 from traj    1 on state    2
C     -1.610014     0.184673    -0.023978
H     -1.210776    -0.816145    -0.347122
H     -2.638035    -0.025095     0.333659
C     -0.884089     1.357210     0.060187
H     -2.298538     3.884518    -0.263983
H      0.134561     1.338970    -0.157281
6
Family_1 [H+].[H][C-]=C([H])[H] | RMSD: 1.0028 | 3732.00 to state    1 from traj    1 on state    2
C     -1.480495     0.073802    -0.085397
H     -1.493745    -1.067450    -0.254439
H     -2.754318    -0.042201     0.885249
C     -1.003895     1.684316    -0.029014
H     -0.967373     2.668423    -0.106475
H     -0.913092     0.246880     0.835658
6
Family_1 [H+].[H][C-]=C([H])[H] | RMSD: 0.2965 | 596.00 to state    1 from traj    1 on state    2
C     -1.622326     0.204749     0.005357
H     -1.334106    -0.823979    -0.341902
H     -2.682923     0.260695     0.141729
C     -0.841123     1.362111     0.041433
H     -2.622904     3.417691    -0.187147
H      0.261892     1.230222    -0.173494
6
Family_1 [H+].[H][C-]=C([H])[H] | RMSD: 0.9545 | 2276.00 to state    1 from traj    1 on state    2
C     -1.441937     0.266036    -0.083025
H     -1.347293    -0.581628     0.821403
H     -2.543386     0.296288    -0.285927
C     -1.069771     1.499904     0.137858
H     -1.668416     2.397554    -0.059926
H     -0.243912    -0.399762    -1.132196
6
Family_1 [H+].[H][C-]=C([H])[H] | RMSD: 0.9596 | 8448.00 to state    1 from traj    1 on state    2
C     -1.454996     0.098100    -0.048775
H     -1.076572    -0.714019     0.736922
H     -2.748395     0.867346    -0.421229
C     -1.035325     1.601437     0.101037
H     -1.449673     2.524077     0.021748
H     -0.783208    -0.173714    -0.963455
6
Family_1 [H+].[H][C-]=C([H])[H] | RMSD: 0.8516 | 9652.00 to state    1 from traj    1 on state    2
C     -1.523427     0.143526    -0.067114
H     -1.208634    -0.439322     0.972536
H     -2.487298     0.115994    -0.403795
C     -1.054162     1.566335     0.043256
H     -1.232160     2.634301     0.323092
H     -0.089905     0.069690    -0.610824
6
Family_1 [H+].[H][C-]=C([H])[H] | RMSD: 1.0856 | 9764.00 to state    1 from traj    1 on state    2
C     -1.479480     0.187840    -0.040287
H     -1.434731    -1.013486    -0.707980
H     -2.145524    -0.150248     0.943467
C     -1.064219     1.627199    -0.048977
H     -1.336646     2.771043    -0.184069
H     -0.504908    -0.479907     1.008942
6
Family_1 [H+].[H][C-]=C([H])[H] | RMSD: 0.9565 | 6752.00 to state    1 from traj    1 on state    2
C     -1.596729     0.143022    -0.055174
H     -1.235943    -0.874514    -0.354879
H     -2.647686    -0.132542     0.887051
C     -0.925339     1.555438    -0.120727
H     -1.228009     2.572279     0.172859
H     -0.567928     0.951305     1.387655
6
Family_1 [H+].[H][C-]=C([H])[H] | RMSD: 0.9681 | 5876.00 to state    1 from traj    1 on state    2
C     -1.504783     0.273731    -0.007891
H     -0.956053    -0.563732    -0.295489
H     -2.429637    -0.216596     0.430326
C     -1.066090     1.506595    -0.119925
H     -1.218119     2.551157     0.280813
H     -0.494221    -0.229802     1.104082
6
Family_1 [H+].[H][C-]=C([H])[H] | RMSD: 0.9727 | 6012.00 to state    1 from traj    1 on state    2
C     -1.510926     0.223408    -0.047402
H     -1.217321    -0.741309    -0.316225
H     -2.349983     0.016122     0.773000
C     -1.058257     1.539394    -0.108503
H     -1.212128     2.425468     0.162907
H     -0.338723     0.049552     1.234746
6
Family_1 [H+].[H][C-]=C([H])[H] | RMSD: 0.9358 | 6304.00 to state    1 from traj    1 on state    2
C     -1.510525     0.179959    -0.007510
H     -1.383718    -0.840843    -0.576604
H     -2.203024     0.489854     0.731452
C     -1.025277     1.497624    -0.138591
H     -1.462805     2.562812     0.164230
H     -0.466360     0.553470     1.418529
6
Family_1 [H+].[H][C-]=C([H])[H] | RMSD: 1.0609 | 4676.00 to state    1 from traj    1 on state    2
C     -1.703036     0.325236     0.042084
H     -1.497951    -0.577730     0.621417
H     -2.157239     0.531241    -0.851443
C     -0.701416     1.247987    -0.010773
H     -2.567960     1.870152     0.457350
H     -0.857893     2.185134    -0.603696
6
Family_1 [H+].[H][C-]=C([H])[H] | RMSD: 0.8728 | 3096.00 to state    1 from traj    1 on state    2
C     -1.597193     0.134763     0.019440
H     -1.208836    -1.012085     0.324230
H     -2.324299    -0.036287    -0.702609
C     -0.971696     1.573870     0.125759
H     -1.160202     2.658353    -0.113121
H     -0.428324     0.785313    -1.241916
6
Family_1 [H+].[H][C-]=C([H])[H] | RMSD: 1.0287 | 6560.00 to state    1 from traj    1 on state    2
C     -1.429192     0.310934    -0.031097
H     -1.163077    -0.668494     0.540287
H     -2.531069     0.126705    -0.501830
C     -1.060687     1.473550     0.143762
H     -1.530306     2.416002    -0.133565
H     -0.838669    -0.382727    -1.250654
6
Family_1 [H+].[H][C-]=C([H])[H] | RMSD: 1.0131 | 8524.00 to state    1 from traj    1 on state    2
C     -1.549367    -0.099904     0.147416
H     -2.082312    -1.054187    -0.188872
H     -1.882312     1.698516    -0.985744
C     -0.977722     1.546438    -0.050585
H     -1.754743     2.987579     0.261554
H      0.099633     1.886477    -0.244021
6
Family_1 [H+].[H][C-]=C([H])[H] | RMSD: 0.9261 | 2540.00 to state    1 from traj    1 on state    2
C     -1.491493     0.226309    -0.005320
H     -1.578069    -0.637814    -0.733774
H     -2.339278    -0.446873     0.578455
C     -1.064463     1.569965     0.006721
H     -1.277837     2.637131    -0.319945
H     -0.080578    -0.201444     0.455296
6
Family_1 [H+].[H][C-]=C([H])[H] | RMSD: 0.3246 | 612.00 to state    1 from traj    1 on state    2
C     -1.654671     0.160320    -0.032839
H     -1.128681    -0.723538     0.194636
H     -2.703448     0.326968     0.084097
C     -0.830092     1.362529    -0.010412
H     -2.606942     3.645442     0.191642
H      0.314999     1.360178     0.041703
6
Family_1 [H+].[H][C-]=C([H])[H] | RMSD: 1.0111 | 2408.00 to state    1 from traj    1 on state    2
C     -1.528486     0.217624    -0.025325
H     -1.106042    -0.565489     0.649746
H     -2.584243     0.365926    -0.683068
C     -0.989420     1.478297     0.190155
H     -1.534684     2.359940    -0.233947
H     -0.504183     0.386400    -1.700066
6
Family_1 [H+].[H][C-]=C([H])[H] | RMSD: 0.9418 | 5512.00 to state    1 from traj    1 on state    2
C     -1.470422     0.169505    -0.070779
H     -1.339331    -0.587829     1.143249
H     -2.387881     0.185224    -0.542727
C     -1.106543     1.552405     0.048636
H     -1.193307     2.685201     0.394891
H     -0.104904    -0.045493    -0.734840
6
Family_1 [H+].[H][C-]=C([H])[H] | RMSD: 1.0273 | 8176.00 to state    1 from traj    1 on state    2
C     -1.526548     0.175067     0.015661
H     -1.133395    -0.382202    -0.879449
H     -2.497030    -0.314441     0.615750
C     -1.086442     1.593817    -0.038777
H     -0.934246     2.553498    -0.249891
H     -0.031487    -0.179482     0.785745
6
Family_1 [H+].[H][C-]=C([H])[H] | RMSD: 0.3778 | 1908.00 to state    1 from traj    1 on state    2
C     -1.634437     0.280266    -0.000235
H     -1.432218    -0.735268     0.200814
H     -2.733015     0.369021    -0.136644
C     -0.796762     1.345609    -0.036010
H     -2.885312     2.703857     0.294683
H      0.288218     1.043814     0.069747
6
Family_1 [H+].[H][C-]=C([H])[H] | RMSD: 0.3795 | 1928.00 to state    1 from traj    1 on state    2
C     -1.638726     0.278514     0.000982
H     -1.412658    -0.723880     0.179869
H     -2.697101     0.406082    -0.121134
C     -0.796267     1.340688    -0.038475
H     -2.900214     2.713754     0.292233
H      0.292857     1.064981     0.092506
6
Family_1 [H+].[H][C-]=C([H])[H] | RMSD: 0.2882 | 3552.00 to state    1 from traj    1 on state    2
C     -1.639996     0.189992    -0.007239
H     -1.529724    -0.911535    -0.210018
H     -2.725515     0.107973     0.160999
C     -0.805950     1.440059     0.024154
H     -2.482783     2.966148    -0.099327
H      0.151417     1.169080    -0.056500
6
Family_1 [H+].[H][C-]=C([H])[H] | RMSD: 0.8958 | 5808.00 to state    1 from traj    1 on state    2
C     -1.526444     0.128236    -0.057745
H     -1.736723    -0.666386    -0.675267
H     -2.236961     0.749580     1.024175
C     -1.007253     1.401324     0.006834
H     -1.531990     2.780732    -0.414548
H     -0.035322     1.665162     0.668998
6
Family_1 [H+].[H][C-]=C([H])[H] | RMSD: 0.4010 | 1564.00 to state    1 from traj    1 on state    2
C     -1.646607     0.239435    -0.004970
H     -1.430437    -0.862125     0.415290
H     -2.809412     0.248033    -0.258822
C     -0.807187     1.385296    -0.061526
H     -2.691725     2.846666     0.482394
H      0.438487     1.162478     0.150203
6
Family_1 [H+].[H][C-]=C([H])[H] | RMSD: 0.4574 | 4064.00 to state    1 from traj    1 on state    2
C     -1.658981     0.218558    -0.026979
H     -1.457206    -0.683664     0.556034
H     -2.789067     0.229063    -0.196821
C     -0.799472     1.417731    -0.053568
H     -2.556632     2.598822     0.481082
H      0.365318     1.113102     0.116196
6
Family_1 [H+].[H][C-]=C([H])[H] | RMSD: 0.8244 | 4572.00 to state    1 from traj    1 on state    2
C     -1.695191     0.169180    -0.010366
H     -1.550487    -0.809181     0.639847
H     -2.530502     0.446881    -0.584631
C     -0.736199     1.499201     0.082670
H     -2.336709     1.950116     0.097694
H     -0.342354     1.287119    -1.017737
6
Family_1 [H+].[H][C-]=C([H])[H] | RMSD: 0.9391 | 1336.00 to state    1 from traj    1 on state    2
C     -1.396477     0.210073    -0.055143
H     -1.670267    -1.054477     0.748771
H     -2.427624     0.122711    -0.397290
C     -1.131297     1.571140     0.070268
H     -1.092090     2.543379     0.158563
H     -0.421590    -0.081140    -0.693559
6
Family_1 [H+].[H][C-]=C([H])[H] | RMSD: 0.3450 | 480.00 to state    1 from traj    1 on state    2
C     -1.635093     0.201971     0.003597
H     -1.516781    -0.793859    -0.378583
H     -2.493337     0.295943     0.212754
C     -0.832814     1.396577     0.036416
H     -2.568049     3.024984    -0.211653
H      0.253239     1.179974    -0.102585
6
Family_1 [H+].[H][C-]=C([H])[H] | RMSD: 0.3514 | 504.00 to state    1 from traj    1 on state    2
C     -1.632839     0.207685    -0.000779
H     -1.520601    -0.819444    -0.359237
H     -2.531436     0.296877     0.217712
C     -0.831145     1.391018     0.044927
H     -2.587161     3.024540    -0.232578
H      0.267532     1.203219    -0.155229
6
Family_1 [H+].[H][C-]=C([H])[H] | RMSD: 0.7537 | 1472.00 to state    1 from traj    1 on state    2
C     -1.624608     0.274054     0.005322
H     -1.696847    -0.468382    -0.818056
H     -2.533906     0.042793     0.599458
C     -0.836647     1.434612     0.031514
H     -2.315886     2.046020    -0.455117
H      0.142447     0.774478     0.231510
6
Family_1 [H+].[H][C-]=C([H])[H] | RMSD: 0.7634 | 1544.00 to state    1 from traj    1 on state    2
C     -1.617525     0.294193    -0.009963
H     -1.654613    -0.464838    -0.784712
H     -2.730245     0.033443     0.677024
C     -0.830438     1.414994     0.042526
H     -2.359748     2.009819    -0.493010
H      0.182033     0.810280     0.209399
6
Family_1 [H+].[H][C-]=C([H])[H] | RMSD: 0.8489 | 2012.00 to state    1 from traj    1 on state    2
C     -1.483108     0.146542     0.093456
H     -2.327118    -0.735457    -0.906986
H     -2.614542    -0.110327    -0.067110
C     -0.994665     1.505678    -0.018284
H     -1.302245     2.563849    -0.224156
H      0.036537     1.349435     0.299240
6
Family_1 [H+].[H][C-]=C([H])[H] | RMSD: 0.7665 | 1972.00 to state    1 from traj    1 on state    2
C     -1.573719     0.184585    -0.027855
H     -1.033729    -0.584195    -0.696332
H     -2.457582    -0.046489     0.506120
C     -1.028415     1.355473     0.161698
H     -1.423354     3.637940    -0.779503
H      0.189139     1.396734    -0.628390
6
Family_1 [H+].[H][C-]=C([H])[H] | RMSD: 0.7894 | 2064.00 to state    1 from traj    1 on state    2
C     -1.569867     0.152915    -0.019340
H     -1.152211    -0.436042    -0.807796
H     -2.443085    -0.024784     0.552600
C     -1.012216     1.376012     0.152014
H     -1.412353     3.590605    -0.807390
H      0.043206     1.406841    -0.521601
6
Family_1 [H+].[H][C-]=C([H])[H] | RMSD: 0.1943 | 456.00 to state    1 from traj    1 on state    2
C     -1.642922     0.187236    -0.015736
H     -1.187086    -0.764549     0.049871
H     -2.562914     0.453792     0.078788
C     -0.855795     1.403540    -0.007475
H     -2.524764     3.116106     0.111147
H      0.316961     0.994293     0.033487
6
Family_1 [H+].[H][C-]=C([H])[H] | RMSD: 0.2014 | 592.00 to state    1 from traj    1 on state    2
C     -1.635448     0.221359    -0.022812
H     -1.238166    -0.795960     0.098358
H     -2.782095     0.278397     0.075972
C     -0.820212     1.371169    -0.004913
H     -2.672973     3.191616     0.131904
H      0.222372     1.104718     0.020849
6
Family_1 [H+].[H][C-]=C([H])[H] | RMSD: 0.3808 | 1956.00 to state    1 from traj    1 on state    2
C     -1.624968     0.205795     0.016733
H     -1.518654    -1.034624     0.166150
H     -2.619780     0.592539    -0.253368
C     -0.806515     1.377911    -0.036681
H     -2.819865     3.027343     0.306543
H      0.199358     1.298625     0.015083
6
Family_1 [H+].[H][C-]=C([H])[H] | RMSD: 0.3997 | 2024.00 to state    1 from traj    1 on state    2
C     -1.637442     0.197138     0.013679
H     -1.499601    -1.079677     0.175289
H     -2.602076     0.607200    -0.227104
C     -0.802694     1.381065    -0.041187
H     -2.822662     3.058278     0.322069
H      0.268510     1.363674     0.054244
6
Family_1 [H+].[H][C-]=C([H])[H] | RMSD: 0.5058 | 3092.00 to state    1 from traj    1 on state    2
C     -1.658789     0.145406    -0.071816
H     -0.867219    -0.643486    -0.318244
H     -2.415139     0.121604     0.727251
C     -0.916101     1.439660     0.073222
H     -1.887365     3.384059    -0.390786
H      0.119571     1.005516    -0.038256
6
Family_1 [H+].[H][C-]=C([H])[H] | RMSD: 0.5259 | 3200.00 to state    1 from traj    1 on state    2
C     -1.665808     0.137393    -0.072136
H     -0.954308    -0.368194    -0.302221
H     -2.391770     0.042276     0.734269
C     -0.910816     1.448431     0.066890
H     -1.930268     3.311367    -0.372540
H      0.246858     0.873207    -0.000281
6
Family_1 [H+].[H][C-]=C([H])[H] | RMSD: 0.2522 | 440.00 to state    1 from traj    1 on state    2
C     -1.618506     0.140515     0.033713
H     -1.514509    -0.925298    -0.139304
H     -2.602093     0.466272    -0.186658
C     -0.840949     1.440045    -0.006603
H     -2.438784     3.130180     0.076357
H      0.129752     1.250226    -0.076717
6
Family_1 [H+].[H][C-]=C([H])[H] | RMSD: 0.2439 | 608.00 to state    1 from traj    1 on state    2
C     -1.587484     0.193603     0.044686
H     -1.561170    -0.887583    -0.152928
H     -2.754361     0.382161    -0.260694
C     -0.859496     1.401051    -0.019044
H     -2.562373     3.146216     0.131103
H      0.303621     1.112652    -0.026300
6
Family_1 [H+].[H][C-]=C([H])[H] | RMSD: 0.9950 | 3080.00 to state    1 from traj    1 on state    2
C     -1.486046     0.222039     0.014798
H     -1.506913    -0.503400    -0.680009
H     -2.136081    -0.391674     0.406417
C     -1.128555     1.564082    -0.018340
H     -0.917383     2.511701    -0.200580
H     -0.016582    -0.144641     0.513088
6
Family_1 [H+].[H][C-]=C([H])[H] | RMSD: 0.8916 | 2468.00 to state    1 from traj    1 on state    2
C     -1.438586     0.225972    -0.026520
H     -1.524497    -1.104136     0.755072
H     -2.397447     0.254109    -0.642782
C     -1.042791     1.521334     0.082339
H     -1.518432     2.664787     0.175483
H     -0.724048     0.119724    -0.956169
6
Family_1 [H+].[H][C-]=C([H])[H] | RMSD: 0.9062 | 1716.00 to state    1 from traj    1 on state    2
C     -1.647831     0.243037     0.024928
H     -1.243204    -0.319343    -0.693536
H     -2.364315    -0.206567     0.526330
C     -0.856775     1.340433    -0.116701
H     -1.635690     2.677716     0.110392
H     -0.644426     1.734892     1.147070
6
Family_1 [H+].[H][C-]=C([H])[H] | RMSD: 0.9530 | 764.00 to state    1 from traj    1 on state    2
C     -1.712644     0.242004     0.017320
H     -1.543546    -0.641669     0.575243
H     -2.335917    -0.162868    -0.718292
C     -0.723081     1.368906     0.030935
H     -2.003642     2.250830     0.297861
H     -0.825294     2.113443    -0.733090
6
Family_1 [H+].[H][C-]=C([H])[H] | RMSD: 0.2858 | 492.00 to state    1 from traj    1 on state    2
C     -1.647588     0.156203    -0.001241
H     -1.464207    -0.894990    -0.129206
H     -2.601066     0.393115     0.072256
C     -0.819232     1.414116     0.012501
H     -2.574732     3.201243    -0.017279
H      0.302131     1.344031    -0.063221
6
Family_1 [H+].[H][C-]=C([H])[H] | RMSD: 0.2617 | 428.00 to state    1 from traj    1 on state    2
C     -1.626028     0.162964    -0.035896
H     -1.341586    -0.793159    -0.008617
H     -2.671343     0.474419     0.249280
C     -0.850125     1.400603     0.018752
H     -2.522855     3.232138    -0.028194
H      0.309117     1.210475    -0.011467
6
Family_1 [H+].[H][C-]=C([H])[H] | RMSD: 0.3809 | 704.00 to state    1 from traj    1 on state    2
C     -1.661285     0.244780    -0.047304
H     -1.404591    -0.975876    -0.018406
H     -2.960040     0.149602     0.339569
C     -0.763056     1.390844     0.022459
H     -2.749465     2.822881    -0.049523
H      0.270054     1.268650     0.021124
6
Family_1 [H+].[H][C-]=C([H])[H] | RMSD: 0.3776 | 732.00 to state    1 from traj    1 on state    2
C     -1.658093     0.253808    -0.048873
H     -1.391736    -0.992724     0.006941
H     -2.960544     0.147783     0.322314
C     -0.765173     1.384447     0.027164
H     -2.758391     2.821696    -0.051242
H      0.253815     1.257152    -0.022614
6
Family_1 [H+].[H][C-]=C([H])[H] | RMSD: 0.3726 | 2488.00 to state    1 from traj    1 on state    2
C     -1.637692     0.238989    -0.025886
H     -1.493932    -1.074254    -0.006844
H     -2.925954     0.294060     0.170246
C     -0.781357     1.412054     0.010591
H     -2.698609     2.675222     0.012453
H      0.211393     1.186492     0.003119
6
Family_1 [H+].[H][C-]=C([H])[H] | RMSD: 0.3679 | 4800.00 to state    1 from traj    1 on state    2
C     -1.562335     0.141414    -0.027378
H     -1.185125    -0.914783     0.460098
H     -2.776311     0.206910    -0.180888
C     -0.967986     1.458464    -0.043175
H     -1.827942     3.453839     0.425244
H      0.208149     0.945228     0.132952
6
Family_1 [H+].[H][C-]=C([H])[H] | RMSD: 0.3120 | 572.00 to state    1 from traj    1 on state    2
C     -1.599493     0.216761    -0.002959
H     -1.490093    -0.820354    -0.341876
H     -2.605848     0.254325     0.205944
C     -0.861694     1.368992     0.043785
H     -2.584403     3.293428    -0.210793
H      0.275349     1.132099    -0.143019
6
Family_1 [H+].[H][C-]=C([H])[H] | RMSD: 0.3223 | 1584.00 to state    1 from traj    1 on state    2
C     -1.642696     0.247124     0.000542
H     -1.240827    -0.750725    -0.375026
H     -2.691671     0.142530     0.193053
C     -0.841881     1.358671     0.057080
H     -2.652394     3.200836    -0.258080
H      0.458604     1.028055    -0.249837
6
Family_1 [H+].[H][C-]=C([H])[H] | RMSD: 0.2762 | 600.00 to state    1 from traj    1 on state    2
C     -1.675312     0.173741     0.003185
H     -1.116139    -0.760456     0.209486
H     -2.727038     0.219439    -0.180354
C     -0.807014     1.382678    -0.042362
H     -2.581845     3.432325     0.345934
H      0.271906     1.317724     0.088471
6
Family_1 [H+].[H][C-]=C([H])[H] | RMSD: 0.3421 | 2224.00 to state    1 from traj    1 on state    2
C     -1.628555     0.233320     0.039060
H     -1.394286    -0.846443     0.125159
H     -2.538683     0.509822    -0.385831
C     -0.844683     1.392425    -0.043993
H     -2.648833     2.757531     0.330006
H      0.320398     0.962062    -0.013839
6
Family_1 [H+].[H][C-]=C([H])[H] | RMSD: 0.6397 | 3184.00 to state    1 from traj    1 on state    2
C     -1.565456     0.136559     0.009883
H     -0.986355    -0.685798     0.463630
H     -2.490208    -0.070578    -0.464733
C     -1.031379     1.434318    -0.073857
H     -1.257163     3.647692     0.582333
H     -0.054942     1.145449     0.177792
6
Family_1 [H+].[H][C-]=C([H])[H] | RMSD: 0.9590 | 4232.00 to state    1 from traj    4 on state    2
C     -1.576175     0.262081    -0.021369
H     -0.786982    -0.479166     0.574175
H     -2.387605    -0.207371    -0.573445
C     -1.034455     1.479210     0.127230
H     -1.144988     2.465306    -0.045988
H     -0.304715     0.227387    -1.219431
6
Family_1 [H+].[H][C-]=C([H])[H] | RMSD: 1.0221 | 6708.00 to state    1 from traj    1 on state    2
C     -1.688732     0.320486     0.049754
H     -1.958119    -0.587581     0.490416
H     -2.514414     0.341964    -0.832381
C     -0.664587     1.291470    -0.000086
H     -2.842361     1.728406     0.365874
H     -0.375422     2.064490    -0.619022
6
Family_1 [H+].[H][C-]=C([H])[H] | RMSD: 0.8775 | 2008.00 to state    1 from traj    1 on state    2
C     -1.563802     0.244826     0.225695
H     -1.629680    -0.258425    -1.267724
H     -2.574508     0.179178    -0.779687
C     -0.959116     1.349619    -0.038501
H     -1.540177     2.263112    -0.175321
H      0.074942     1.572072    -0.011098
6
Family_1 [H+].[H][C-]=C([H])[H] | RMSD: 0.9257 | 2124.00 to state    1 from traj    1 on state    2
C     -1.568483     0.234308     0.239952
H     -1.541182    -0.125770    -1.419501
H     -2.462423     0.166129    -0.734037
C     -0.978007     1.367781    -0.055681
H     -1.438649     2.238537    -0.185796
H      0.053705     1.385955     0.140344
6
Family_1 [H+].[H][C-]=C([H])[H] | RMSD: 0.3550 | 380.00 to state    1 from traj    1 on state    2
C     -1.616602     0.091151    -0.000424
H     -1.360495    -0.789130     0.196384
H     -2.618792     0.226246    -0.195501
C     -0.898048     1.442061    -0.020938
H     -2.029869     3.617269     0.259264
H      0.241210     1.431180    -0.008878
6
Family_1 [H+].[H][C-]=C([H])[H] | RMSD: 0.4509 | 596.00 to state    1 from traj    1 on state    2
C     -1.599972     0.135957    -0.005279
H     -1.260855    -1.155803     0.246101
H     -2.703130     0.205969    -0.209841
C     -0.894046     1.395757    -0.027428
H     -2.183793     3.909722     0.327511
H      0.133976     1.543526     0.022667
6
Family_1 [H+].[H][C-]=C([H])[H] | RMSD: 0.3273 | 700.00 to state    1 from traj    1 on state    2
C     -1.604761     0.203480    -0.006086
H     -1.183575    -1.142459     0.001991
H     -2.732190     0.285737    -0.019271
C     -0.893277     1.356358    -0.000485
H     -2.488782     3.741637     0.121005
H      0.438652     1.283374    -0.028716
6
Family_1 [H+].[H][C-]=C([H])[H] | RMSD: 0.3835 | 1640.00 to state    1 from traj    1 on state    2
C     -1.653640     0.259248    -0.036736
H     -1.207608    -0.854474     0.206307
H     -2.986532     0.143114     0.103851
C     -0.814293     1.439169    -0.003875
H     -2.565760     2.525913     0.147440
H      0.435283     0.702490     0.023021
6
Family_1 [H+].[H][C-]=C([H])[H] | RMSD: 1.0502 | 10108.00 to state    1 from traj    1 on state    2
C     -1.498594     0.324533    -0.030857
H     -1.348310    -0.601487     0.536590
H     -2.395945     0.371884    -0.548510
C     -0.974977     1.397256     0.199202
H     -1.778286     2.036661    -0.325109
H     -0.734898     0.431474    -1.672201
6
Family_1 [H+].[H][C-]=C([H])[H] | RMSD: 1.0695 | 10204.00 to state    1 from traj    1 on state    2
C     -1.635562     0.423602    -0.024444
H     -1.666481    -0.419015    -0.664862
H     -2.184205     0.333844     0.887152
C     -0.737237     1.220142    -0.058911
H     -2.798527     1.737550    -0.144040
H     -0.808988     1.516124     0.911698
6
Family_1 [H+].[H][C-]=C([H])[H] | RMSD: 0.3398 | 480.00 to state    1 from traj    1 on state    2
C     -1.655441     0.180300    -0.032212
H     -1.362061    -0.937340    -0.297828
H     -2.659680     0.238096     0.438831
C     -0.819183     1.437817     0.036044
H     -2.437447     2.989372    -0.218915
H      0.214303     1.183727     0.028977
6
Family_1 [H+].[H][C-]=C([H])[H] | RMSD: 0.5801 | 2020.00 to state    1 from traj    1 on state    2
C     -1.649796     0.205043    -0.009902
H     -1.298207    -0.577513    -0.651491
H     -2.561849     0.667910     0.492188
C     -0.816851     1.337121     0.102678
H     -2.770976     2.974857    -0.591164
H      0.291087     1.313636    -0.358298
6
Family_1 [H+].[H][C-]=C([H])[H] | RMSD: 0.4189 | 4592.00 to state    1 from traj    1 on state    2
C     -1.653357     0.211837    -0.043282
H     -1.430089    -0.902709     0.135373
H     -2.823620     0.586706     0.233030
C     -0.781871     1.386202     0.000567
H     -2.814404     2.724026     0.076460
H      0.353801     1.305088     0.060831
6
Family_1 [H+].[H][C-]=C([H])[H] | RMSD: 0.2586 | 9456.00 to state    1 from traj    1 on state    2
C     -1.691416     0.199437    -0.000600
H     -1.159610    -0.718509    -0.015945
H     -2.842024     0.148497    -0.005018
C     -0.771235     1.448177     0.002605
H     -2.487870     2.674451     0.060567
H      0.101945     1.017948    -0.066777
6
Family_1 [H+].[H][C-]=C([H])[H] | RMSD: 0.3141 | 10884.00 to state    1 from traj    1 on state    2
C     -1.646319     0.240992     0.047794
H     -0.911586    -0.546694     0.141917
H     -2.464200     0.126807    -0.452911
C     -0.872621     1.355521    -0.069221
H     -2.438649     3.335529     0.460027
H      0.097609     0.815645     0.102997
6
Family_1 [H+].[H][C-]=C([H])[H] | RMSD: 1.0244 | 2472.00 to state    1 from traj    1 on state    2
C     -1.468110     0.154050     0.165972
H     -1.956540    -0.813685    -0.174709
H     -1.917879     1.032695    -1.319658
C     -1.051430     1.406187     0.031021
H     -1.478380     2.471134     0.072818
H     -0.356883     1.473402    -0.929035
6
Family_1 [H+].[H][C-]=C([H])[H] | RMSD: 1.0698 | 2584.00 to state    1 from traj    1 on state    2
C     -1.497476     0.215987     0.046137
H     -1.123036    -0.793293     0.273206
H     -2.251993     0.010685    -0.924390
C     -1.075648     1.511065     0.144427
H     -0.949181     2.593739    -0.161401
H     -0.746977     0.364694    -1.461396
6
Family_1 [H+].[H][C-]=C([H])[H] | RMSD: 1.1045 | 3468.00 to state    1 from traj    1 on state    2
C     -1.490337     0.232564    -0.035906
H     -1.123419    -0.794270     0.785561
H     -2.226761     0.005221    -0.680590
C     -1.060859     1.548008     0.150078
H     -1.268374     2.572911    -0.026798
H     -0.713933    -0.245761    -1.441893
6
Family_1 [H+].[H][C-]=C([H])[H] | RMSD: 0.3246 | 628.00 to state    1 from traj    1 on state    2
C     -1.602937     0.151486    -0.039796
H     -1.353431    -0.942075    -0.117431
H     -2.988293     0.026000     0.298348
C     -0.878508     1.443849     0.038872
H     -2.157733     3.441333    -0.129272
H      0.335850     1.220073    -0.043912
6
Family_1 [H+].[H][C-]=C([H])[H] | RMSD: 0.3728 | 14624.00 to state    1 from traj    1 on state    2
C     -1.574053     0.110773    -0.009700
H     -1.264536    -0.931702    -0.228002
H     -2.508057     0.172680     0.166875
C     -0.964412     1.477800     0.025337
H     -1.712915     3.524597    -0.109875
H      0.001323     1.060335    -0.018605
6
Family_1 [H+].[H][C-]=C([H])[H] | RMSD: 0.9144 | 3244.00 to state    1 from traj    1 on state    2
C     -1.531772     0.216976    -0.089832
H     -0.821347    -0.611305     0.980759
H     -2.550454    -0.051017    -0.197724
C     -1.023970     1.526524     0.021752
H     -1.172737     2.588402     0.380324
H     -0.733776     0.053761    -0.355413
6
Family_1 [H+].[H][C-]=C([H])[H] | RMSD: 0.6396 | 620.00 to state    1 from traj    1 on state    2
C     -1.625277     0.130071     0.023980
H     -1.657371    -0.806075     0.675568
H     -2.495687    -0.094676    -0.729494
C     -0.880217     1.463355    -0.082992
H     -1.869525     3.175245     0.725853
H      0.145525     1.493571     0.027958
6
Family_1 [H+].[H][C-]=C([H])[H] | RMSD: 0.7831 | 4208.00 to state    1 from traj    1 on state    2
C     -1.481988     0.156815     0.004465
H     -2.120389    -0.477270    -0.688488
H     -2.278464     0.879057     0.539721
C     -0.949660     1.310131    -0.009541
H     -2.268364     3.150432    -0.272011
H     -0.089764     1.722950     0.477979
