      12
    5875.00 to state    1 from traj    2 on state    2
 C       0.190877012     -1.058715544     -0.025317133
 C       1.762314784     -0.929658546     -0.189738358
 C       2.498941687      0.135349611     -0.057944369
 C       1.798629703      1.538656678      0.149067309
 C       0.288558871      1.489743793     -0.057470005
 C      -0.352031603      0.158997559      0.236814051
 H      -0.183288229     -1.979768229      0.173113401
 H       2.428839682     -1.858107539     -0.255355801
 H       3.607833098      0.172412089     -0.186327314
 H       2.290129502      2.421550397      0.277809540
 H       0.560988510      1.051623789     -1.152303104
 H      -1.610079886      0.077656989      0.439394978
