      12
   21005.00 to state    1 from traj    2 on state    2
 C       0.557373712     -1.005860472     -0.075751618
 C       1.987479237     -0.722218911     -0.260450821
 C       2.397379322      0.408384016      0.484688948
 C       1.564504009      1.242279491     -0.342490024
 C       0.166430697      1.254741393      0.053336713
 C      -0.380281719      0.059517979      0.106754369
 H       0.354087014     -2.160897152      0.064425720
 H       2.676057922     -1.545155635     -0.637540104
 H       2.725683254      0.582818386      1.588507861
 H       2.143858846      2.287656089     -0.841789762
 H      -0.599520686      2.007741173      0.081286415
 H      -1.478416327     -0.114673457      0.108856205
