      12
   10450.00 to state    1 from traj    2 on state    2
 C       0.387565905     -1.174410435      0.379658205
 C       1.601038950     -0.870331513     -0.322974650
 C       2.533706964      0.273052817      0.209399577
 C       1.701779983      1.420719232     -0.059868209
 C       0.413417225      1.336822207     -0.286314388
 C      -0.330612415      0.210351773      0.092122859
 H       0.084692848     -1.966528265      1.114335973
 H       1.902076810     -1.088735233     -1.325801750
 H       2.928404372      0.006615370      1.260960668
 H       2.358220351      2.537517847     -0.187739851
 H      -0.184645453      2.064315232     -0.878925829
 H      -1.431792596     -0.005217274     -0.169916283
