      12
   14405.00 to state    1 from traj   13 on state    2
 C       0.344161881     -0.890029540      0.039613859
 C       1.827385265     -0.967917193     -0.041840757
 C       2.617619547      0.112521131      0.089616226
 C       1.536914628      1.219290827      0.174014846
 C       0.249888800      1.342593587     -0.648513175
 C      -0.326216965      0.347345910      0.277976865
 H      -0.221575622     -1.892387543      0.161105280
 H       2.325870857     -1.930949474     -0.046329712
 H       3.647936301      0.605633123      0.190436908
 H       1.588345833      2.119051571      0.665698113
 H      -0.232602755      2.464206971     -0.843239826
 H      -0.765295680      0.571205355      1.139109678
