      12
   19405.00 to state    1 from traj    2 on state    2
 C       0.459402874     -1.072268880     -0.098767772
 C       1.691239917     -0.860455530      0.086707039
 C       2.426918095      0.291028897      0.147723142
 C       1.784883845      1.413044108     -0.505575624
 C       0.375756043      1.298577213      0.437449806
 C      -0.467023454      0.228589451     -0.129121823
 H      -0.077730315     -2.002681946     -0.356039790
 H       2.259002121     -1.741767429      0.286451774
 H       3.215747790      0.438625252      0.809993077
 H       1.687055272      1.873092384     -1.396435865
 H       0.471897912      1.569012105      1.461590706
 H      -1.475443422      0.180470627     -0.115569989
