      12
    3815.00 to state    1 from traj    2 on state    2
 C       0.373787074     -1.001949441     -0.112909505
 C       1.739608212     -1.012927948      0.036101169
 C       2.485203419      0.204173429      0.201182386
 C       1.831454181      1.446813451     -0.219781809
 C       0.295816565      1.420185772      0.173101831
 C      -0.436089127      0.264451233     -0.020446963
 H      -0.159948719     -1.912669194     -0.221365600
 H       2.540334166     -2.039353173     -0.059450069
 H       3.507430439      0.217833819      0.148914458
 H       1.558428016      0.873493230     -1.111979553
 H      -0.029540304      2.404771834      0.702493536
 H      -1.557658975      0.509640463     -0.181371105
