      12
   14210.00 to state    1 from traj    3 on state    2
 C       0.306221272     -1.076861515      0.035751473
 C       1.710842907     -1.083384897      0.226295112
 C       2.391563939      0.108933195      0.125740034
 C       1.666486361      1.364770268     -0.361028732
 C       0.327844883      1.610324032      0.351935182
 C      -0.148686515      0.340350385     -0.215457176
 H      -0.285484121     -1.894998204      0.191319848
 H       2.397752675     -1.989408770      0.054356145
 H       3.584908904     -0.030309918     -0.117712684
 H       1.837757307      1.581893734     -1.530098046
 H      -0.413923875      2.442316955      0.378030149
 H      -0.835876511      0.623606522     -0.970519119
