      12
    6345.00 to state    1 from traj    3 on state    2
 C       0.352901815     -0.928104652      0.061904222
 C       2.035769837     -1.108258585      0.263756416
 C       2.348314782      0.118843561     -0.385121012
 C       1.676706429      1.438934999      0.385915784
 C       0.259972243      1.545250295     -0.137715952
 C      -0.369762763      0.269977053     -0.216747402
 H      -0.091511268     -1.899230637     -0.128008286
 H       2.657344013     -2.055619632      0.690406221
 H       2.802344443      0.181520185     -1.341855001
 H       1.924086145      1.008138623      1.420110519
 H      -0.235937858      2.427577471      0.080158602
 H      -1.364755627      0.197432719     -0.428755648
