      12
    7505.00 to state    1 from traj    3 on state    2
 C       0.542186825     -0.919005406     -0.152117544
 C       1.896715269     -1.090820035      0.391082630
 C       2.415444857      0.177946883     -0.386206432
 C       1.723706504      1.392528117     -0.009293436
 C       0.274037521      1.407782810      0.168207816
 C      -0.540052134      0.222875491     -0.059294874
 H       0.152716731     -1.763002805     -0.789321529
 H       1.939757635     -1.131622716      1.490297032
 H       3.161816070      0.079052190     -1.002953833
 H       2.114924811      2.194116095      0.425268600
 H      -0.250612154      2.320365971      0.578631595
 H      -1.524183766     -0.095401249     -0.170448722
