      12
   13400.00 to state    1 from traj    2 on state    2
 C       0.326729175     -0.901702312     -0.209870735
 C       1.727756085     -0.885814421     -0.009529300
 C       2.403819636      0.247955869      0.373542746
 C       1.779926380      1.288818836     -0.376588310
 C       0.476458827      1.332900454      0.175641096
 C      -0.485016622      0.227057674      0.090327588
 H       0.059997969     -2.040968566     -0.463237861
 H       2.335599985     -1.713091528     -0.357379024
 H       3.240655657      0.060713303      0.960057405
 H       1.966593572      1.579681099     -1.502567112
 H       0.561616879      2.065167729      0.898502452
 H      -1.577756652      0.239060985     -0.103032289
