      12
   13550.00 to state    1 from traj    3 on state    2
 C       0.379351310     -0.905845640     -0.294930422
 C       1.812454704     -1.206114437      0.090841419
 C       2.406385288      0.213498657      0.184271402
 C       1.632087034      1.319653892     -0.382867573
 C       0.436694103      1.530945493      0.381829488
 C      -0.305461931      0.256364830      0.062034088
 H      -0.169265812     -1.790108603     -0.390000385
 H       2.347337619     -2.127138468      0.007807263
 H       2.459395316      0.518476648      1.291986031
 H       1.708976251      1.912462585     -1.334582021
 H      -0.052304479      2.556557682      0.255742730
 H      -1.289475834      0.328872840     -0.370473808
