      12
    6665.00 to state    1 from traj    2 on state    2
 C       0.346101845     -0.944774301      0.249357358
 C       1.714868153     -0.883643121     -0.091227858
 C       2.472329568      0.335473500     -0.332473977
 C       1.804942696      1.222608739      0.554102784
 C       0.341801535      1.407021504     -0.318699928
 C      -0.428798785      0.186450082     -0.084728900
 H      -0.185213218     -1.729799824      0.763016861
 H       2.288175381     -1.853093079     -0.000104926
 H       3.546703373      0.268299253     -0.577059842
 H       1.814951309      1.434773861      1.609869300
 H       0.406447727      1.943908619     -1.352949313
 H      -1.546133949     -0.042326906     -0.200650086
