      12
    4475.00 to state    1 from traj    3 on state    2
 C       0.503980395     -0.996217460     -0.453780533
 C       1.705971309     -1.072481658      0.463260760
 C       2.281004558      0.139812305     -0.052929826
 C       1.685175933      1.405626357     -0.344623124
 C       0.333256682      1.534588093      0.182578814
 C      -0.362831506      0.204143451      0.152523834
 H       0.675033769     -1.239496620     -1.464705186
 H       2.042665673     -2.253373110      0.540074897
 H       3.281000525      0.249009848     -0.122356124
 H       2.228425281      2.303324967     -0.412453186
 H       0.069703853      2.225135719      1.010943475
 H      -0.717286830      0.026338347      1.039572081
