      12
   15880.00 to state    1 from traj    4 on state    2
 C       0.424052466     -1.033350081      0.118724623
 C       1.666227605     -0.965402039     -0.141869468
 C       2.346040718      0.280119642     -0.242521689
 C       1.768392367      1.458371202      0.462952121
 C       0.423265019      1.342445183     -0.414473733
 C      -0.397926944      0.177766966      0.155480467
 H      -0.086425105     -1.871759285      0.320088430
 H       2.200242940     -1.783714664     -0.215677960
 H       3.419179004      0.274360373     -0.425853510
 H       2.108873898      1.768194938      1.402071938
 H       0.285295902      2.007084923     -1.222713314
 H      -1.348748392      0.383233613      0.839076882
