      12
    9140.00 to state    1 from traj    3 on state    2
 C       0.415088719     -0.965636844      0.094574846
 C       1.799643760     -1.033727504     -0.091350734
 C       2.506511269      0.117030959     -0.074622992
 C       1.754926784      1.553007262      0.099042636
 C       0.276222331      1.456657275     -0.057662376
 C      -0.437503384      0.239688007      0.050341780
 H       0.013341401     -1.912658519     -0.191631655
 H       2.215196449     -2.088445871     -0.255447156
 H       3.521747624      0.021275709     -0.467922830
 H       1.617200318      1.147868210      1.004889486
 H      -0.357514027      2.141953075     -0.727031813
 H      -1.449614430      0.182585991      0.349770273
