      12
   10155.00 to state    1 from traj    2 on state    2
 C       0.358876828     -0.880486457     -0.294284610
 C       1.860329590     -1.009316921     -0.059537514
 C       2.469513869      0.197154675      0.223790029
 C       1.759572340      1.415395681     -0.105704613
 C       0.185784205      1.272906881     -0.200550966
 C      -0.400467703      0.188168574      0.451437267
 H       0.076714911     -0.998402786     -1.284161183
 H       2.262851805     -1.961033865      0.087625844
 H       3.370446191      0.375857874      0.616852173
 H       2.302857562      2.309947528     -0.167886533
 H      -0.233875310      1.863810523     -0.841773111
 H      -1.243715942      0.102942044      1.367493226
