      12
   14145.00 to state    1 from traj    7 on state    2
 C       0.328141693     -0.881306116     -0.104972727
 C       1.690150669     -0.876807397      0.248324963
 C       2.535787033      0.284395453     -0.004827002
 C       1.734168251      1.357469102     -0.323643185
 C       0.442954514      1.101559063      0.371296057
 C      -0.423842177      0.298076711     -0.313403864
 H      -0.223415799     -1.745886011      0.258861418
 H       1.853825854     -1.694934089      1.030480043
 H       3.520564872      0.033597654     -0.053431738
 H       1.666380249      2.222568239     -1.042397232
 H       0.498054561      1.172140082      1.472539667
 H      -1.666107448      0.509719718     -0.180530619
