      12
   21900.00 to state    1 from traj    3 on state    2
 C       0.395532503     -0.970207442      0.238498010
 C       1.760096944     -0.926555948     -0.374210397
 C       2.502958132      0.032666638      0.350929598
 C       1.718076001      1.336254178     -0.026711062
 C       0.324332166      1.443087295     -0.132673242
 C      -0.467812952      0.200434720     -0.033623856
 H       0.478362700     -1.105612802      1.272350813
 H       1.982629731     -1.369151764     -1.355095113
 H       3.638715231      0.192698921      0.239531048
 H       2.297735727      2.271317960     -0.224566523
 H      -0.126774657      2.279603206     -0.199385338
 H      -1.731242467      0.240834058     -0.040528777
