      12
   15675.00 to state    1 from traj    3 on state    2
 C       0.427443626     -1.036723756      0.330207586
 C       1.674783673     -0.932058710     -0.316657183
 C       2.395649090      0.063047328      0.115431526
 C       1.724808167      1.438307714     -0.009750121
 C       0.384187445      1.437170818     -0.132736858
 C      -0.301512128      0.205942889     -0.082745967
 H       0.174083054     -1.604108988      1.053753282
 H       2.010694516     -1.491875164     -1.175972860
 H       2.852194472      0.190457293      1.140989540
 H       2.382867630      2.417670018      0.322516038
 H      -0.377928487      2.166723076     -0.097347943
 H      -1.368608029      0.110744865     -0.130112984
