      12
   13100.00 to state    1 from traj    3 on state    2
 C       0.332468041     -1.048699308      0.063163133
 C       1.654573907     -1.060478967     -0.110678424
 C       2.293389421      0.333003235     -0.105193842
 C       1.693954500      1.462771080      0.411290620
 C       0.531000809      1.337602582     -0.321265054
 C      -0.261364825      0.228976681      0.146755953
 H      -0.366234451     -1.944622286     -0.171945111
 H       2.213528253     -2.023877021     -0.004881413
 H       3.131347778      0.442420222     -0.736529439
 H       2.179032892      2.253903650      0.888917273
 H       0.548063565      1.741065699     -1.273061100
 H      -1.294414674      0.393111354      0.242722379
