      12
   26985.00 to state    1 from traj    2 on state    2
 C       0.231706977     -0.998599794      0.194216220
 C       1.523634648     -1.151762354     -0.404019742
 C       2.381475319     -0.017850143     -0.229966610
 C       1.831199689      1.459224718      0.106663976
 C       0.582984098      1.595945108      0.232114225
 C      -0.392919109      0.346556983      0.157114726
 H      -0.061559278     -1.896859153      0.575604990
 H       1.896808994     -2.131800147     -0.864110381
 H       3.385943813     -0.033585939     -0.199554034
 H       2.467345273      2.351062723      0.298337924
 H       0.058026714      2.592431626      0.537834223
 H      -0.302327301      0.220050326     -1.060631937
