      12
    5970.00 to state    1 from traj    2 on state    2
 C       0.436706578     -0.964363399     -0.258443392
 C       1.667711307     -1.052852581      0.460334219
 C       2.245989666      0.103808817     -0.128684625
 C       1.727322076      1.430736008     -0.289859922
 C       0.328333924      1.479898225     -0.059298620
 C      -0.200226693      0.202900365      0.300532166
 H       0.405556170     -1.040825422     -1.241990681
 H       2.195709822     -1.929858546      0.473097903
 H       3.282378079     -0.085630603     -0.446061795
 H       2.454481330      2.090736445     -0.334492821
 H      -0.222416323      2.331884969      0.336062632
 H      -1.245158783      0.127897619      0.873676973
