      12
    6260.00 to state    1 from traj    2 on state    2
 C       0.292205603     -1.033603282      0.555367603
 C       1.607469815     -1.032967074     -0.044645186
 C       2.348111385      0.338841662     -0.288859358
 C       1.751830371      1.553337612      0.191454513
 C       0.452053526      1.430013262      0.091559926
 C      -0.239831231      0.024976514     -0.460525917
 H      -0.041913207     -2.091978368      0.732088451
 H       2.038585315     -1.887424777     -0.305739467
 H       3.425236499      0.133852203     -0.471440103
 H       2.178343395      2.391957868      0.515195202
 H      -0.270893261      2.108809014      0.551618908
 H      -0.533447129     -0.124770812     -1.599806070
