      12
    3310.00 to state    1 from traj    2 on state    2
 C       0.353936190     -1.087575054     -0.247679938
 C       1.722207671     -1.080173805      0.053760839
 C       2.348086814      0.185823946      0.194031786
 C       1.720366267      1.499489768     -0.100674063
 C       0.363136988      1.506795806     -0.044764232
 C      -0.368621328      0.200081453      0.094895085
 H      -0.360297116     -1.795219292     -0.457962234
 H       2.622929440     -1.905385229      0.237552494
 H       3.283299326     -0.003978573      0.400624691
 H       2.299331007      2.151480315     -0.596183997
 H      -0.282893480      2.590921651     -0.082216864
 H       0.105729524      0.169198010      1.057090876
