      12
   12335.00 to state    1 from traj    2 on state    2
 C       0.316062162     -0.908122994      0.415525241
 C       1.581876609     -0.869843155      0.008955147
 C       2.374548580      0.271423180     -0.367578781
 C       1.724754997      1.294214331      0.388881110
 C       0.547238725      1.279734724     -0.286962360
 C      -0.323956828      0.186478852     -0.079172478
 H      -0.165929155     -1.835518456      0.670566123
 H       2.080491903     -1.914579561     -0.170842285
 H       3.274405684      0.557858036     -1.166007564
 H       2.217187057      1.935268284      1.077212046
 H       0.668995648      1.843408750     -1.429046566
 H      -1.378756038      0.266741817      0.016150362
