      12
    5125.00 to state    1 from traj    3 on state    2
 C       0.457616506     -0.657019486      0.384354548
 C       1.773943384     -1.021218066     -0.280843958
 C       2.494213391      0.130141676     -0.033894871
 C       1.657606558      1.251234175      0.356797972
 C       0.378607772      1.325557892     -0.159009482
 C      -0.504941408      0.088019119     -0.291018907
 H       0.386069095     -0.822875956      1.456165247
 H       1.930392196     -1.631394582     -1.247225323
 H       3.510595642      0.170041225     -0.038683724
 H       2.023573422      2.243503680      0.574124953
 H      -0.127382549      2.329295917     -0.249102816
 H      -1.469711032      0.209287007     -0.255604148
