      12
    8265.00 to state    1 from traj    2 on state    2
 C       0.149907597     -0.999551673      0.019292839
 C       1.752379778     -0.852537352     -0.215696175
 C       2.578422753      0.190767176      0.132910771
 C       1.802886803      1.394901944      0.175308804
 C       0.409233876      1.462550649     -0.139067646
 C      -0.497587282      0.171135525      0.087165511
 H      -0.309053807     -2.011470810     -0.150957670
 H       2.300662701     -1.753469472     -0.397496345
 H       3.642744404     -0.106413933      0.232294631
 H       2.548307296      2.126454066      0.381695574
 H       0.360453418      0.836987798     -1.035733558
 H      -1.545238041      0.401107518      0.209572872
