      12
    3880.00 to state    1 from traj    2 on state    2
 C       0.303393678     -1.043080037      0.037538142
 C       1.747934894     -0.925635121     -0.140215969
 C       2.456669180      0.203907742     -0.079750340
 C       1.751073713      1.440247304      0.227038571
 C       0.315009524      1.521385782     -0.150680360
 C      -0.382133487      0.162946391      0.134076983
 H      -0.074821388     -2.067355926      0.258926855
 H       2.143952412     -1.965033870     -0.271248731
 H       3.457343667     -0.094943608     -0.209345511
 H       2.208455370      2.438579739      0.594496317
 H       0.703546237      1.235794134     -1.111482690
 H      -1.404994943      0.032149653      0.361730716
