      12
    7000.00 to state    1 from traj    2 on state    2
 C       0.544877516     -0.970476712      0.404810489
 C       1.722780724     -1.102531605     -0.451482277
 C       2.278500345      0.100420695      0.184163808
 C       1.662862441      1.391271495     -0.001488356
 C       0.360602905      1.564412302     -0.149683793
 C      -0.352658728      0.231320270     -0.049039406
 H       0.591554945     -1.276289471      1.411190237
 H       2.076960833     -2.116157460     -0.614523323
 H       3.481330454     -0.003363039      0.293498344
 H       2.357114506      2.290903187     -0.031030502
 H      -0.220802956      2.348459603     -0.026292377
 H      -1.553954989      0.083993190     -0.324167057
