      12
    5110.00 to state    1 from traj    2 on state    2
 C       0.440003967     -0.950948328      0.031052009
 C       1.867806073     -1.021384867      0.465858173
 C       2.244089884      0.073459329     -0.361814633
 C       1.662975582      1.299984024      0.119158651
 C       0.283776591      1.577495959      0.023869207
 C      -0.170834470      0.306232882     -0.265728584
 H      -0.087731051     -2.008282607     -0.104450620
 H       2.437473314     -1.880043647      0.773136387
 H       2.476501363     -0.015363444     -1.345323672
 H       2.216314657      1.816009606      0.963994279
 H      -0.429527462      2.498851004      0.067291235
 H      -1.209095731      0.071563748     -0.545163617
