      12
    5410.00 to state    1 from traj    5 on state    2
 C       0.460147579     -0.977741349      0.102186282
 C       1.817895377     -0.991600840      0.424471404
 C       2.230935378      0.123067956     -0.365827612
 C       1.662241456      1.306419655      0.159790638
 C       0.324931532      1.543401096     -0.057641906
 C      -0.211102508      0.256646504     -0.246133895
 H      -0.058081085     -1.918345216     -0.273991837
 H       2.350430332     -1.634855480      0.914428998
 H       2.702765307     -0.017558694     -1.472283977
 H       2.329970747      1.649383130      0.955457790
 H      -0.199272639      2.361782959      0.361073956
 H      -1.208651654      0.338079692     -0.728601900
