      12
    5700.00 to state    1 from traj    7 on state    2
 C       0.322662829     -1.057446192      0.101758361
 C       1.738853309     -1.030040084      0.244466578
 C       2.279807510      0.227085828     -0.366540259
 C       1.848648794      1.486998870      0.340469548
 C       0.443640112      1.368952739     -0.042580123
 C      -0.318473860      0.141552023     -0.311891034
 H      -0.249919179     -1.775759760      0.462399603
 H       1.984288703     -1.072038432      1.424545811
 H       2.839732314      0.267970610     -1.336936029
 H       2.349129523      2.385989671      0.291074241
 H      -0.026943231      2.287335432      0.081416813
 H      -1.340205517      0.162066916     -0.552475233
