      12
    5625.00 to state    1 from traj    5 on state    2
 C       0.467942160     -0.949574491      0.111020429
 C       1.826450774     -1.004255663      0.500739370
 C       2.297432514      0.116543299     -0.425970613
 C       1.671300082      1.335528979      0.147756044
 C       0.322312183      1.565139778     -0.083152490
 C      -0.293810198      0.242775740     -0.267928746
 H       0.009737837     -1.766309406     -0.332960875
 H       2.443679594     -2.044663388      0.719743205
 H       2.676828479     -0.098705079     -1.308983605
 H       2.121751588      1.582535423      1.113632705
 H      -0.150706634      2.308979256      0.628034548
 H      -1.263074117      0.245074128     -0.650811870
