      12
   11260.00 to state    1 from traj   10 on state    2
 C       0.339580513     -0.881032404     -0.077765708
 C       1.700250972     -1.124727573      0.004111729
 C       2.475001823      0.160399076      0.057133818
 C       1.726903873      1.291803061     -0.226846847
 C       0.299544261      1.426757448      0.072886772
 C      -0.336681529      0.225532654      0.266569264
 H       0.662792849     -0.478355715     -1.140370550
 H       2.071355783     -2.075678504     -0.068569837
 H       3.401462666      0.300935788      0.021817865
 H       2.488443950      2.166796736     -0.706488135
 H      -0.326134160      2.386419534      0.046338638
 H      -1.414262996      0.417053875      0.641974011
