      12
   14105.00 to state    1 from traj    3 on state    2
 C       0.348167845     -0.790420867      0.353071158
 C       1.722075892     -0.826546972      0.056662791
 C       2.519472389      0.121823748     -0.387360620
 C       1.863027601      1.366376045      0.002904155
 C       0.377842779      1.151033496      0.297349280
 C      -0.587687120      0.286513639     -0.440196498
 H       0.088003060     -1.690702939      0.828571062
 H       2.014504762     -1.855132403      0.029228614
 H       3.519085239     -0.234850110     -0.721507784
 H       2.355799013      2.221597724      0.437602878
 H       0.116598981      1.338080637      1.226187677
 H      -1.669926639      0.417616920     -0.441474505
