      12
    3680.00 to state    1 from traj    2 on state    2
 C       0.415612264     -1.004927614      0.195859637
 C       1.763911661     -1.053847101      0.012691779
 C       2.415128845      0.175158697     -0.229492088
 C       1.706455587      1.437118632     -0.011234886
 C       0.318550713      1.526175462      0.193527214
 C      -0.478893677      0.157716792     -0.153332778
 H      -0.175385692     -2.112251924      0.309201280
 H       2.254125574     -1.945304619      0.231522148
 H       3.477170627      0.155535101     -0.252044930
 H       2.141767783      2.444109588      0.093189280
 H      -0.145060261      2.409618596      0.503144554
 H       0.095638211      0.099008072     -1.027860978
