      12
   23150.00 to state    1 from traj    4 on state    2
 C       0.378588767     -1.068266134     -0.021302319
 C       1.828533068     -1.065694723     -0.277633102
 C       2.427492927      0.237940967      0.218193306
 C       1.728550680      1.526890763     -0.269050032
 C       0.282165312      1.399356149      0.140656829
 C      -0.329554813      0.091573848      0.207968008
 H      -0.152529016     -2.030664248     -0.178061497
 H       1.963321942     -0.571961271     -1.283093593
 H       3.269637386      0.151069764      0.938428768
 H       2.204038475      2.472940566     -0.373754694
 H      -0.310108424      2.289742283      0.686321320
 H      -1.426200242      0.127110224      0.180134766
