      12
    7540.00 to state    1 from traj    5 on state    2
 C       0.316662355     -0.994673882     -0.073928674
 C       1.803478625     -1.055433830      0.209426004
 C       2.500876169      0.185908766     -0.180136084
 C       1.711263458      1.312734142     -0.055731371
 C       0.267619664      1.395889109      0.129498693
 C      -0.415487789      0.251442725      0.030181213
 H       0.507598865     -0.717456237     -1.098481192
 H       2.335009382     -1.841817874      0.764494745
 H       3.509062287      0.276759929     -0.603137705
 H       2.228176428      2.350735523     -0.168773767
 H      -0.007609753      2.473076757      0.389225403
 H      -1.446336846      0.208018013     -0.041156380
