      12
    9220.00 to state    1 from traj   10 on state    2
 C       0.380670444     -0.914043239      0.023005025
 C       1.685368156     -1.023763836     -0.044170452
 C       2.461627241      0.199675638     -0.004444178
 C       1.695833850      1.440620957      0.127525102
 C       0.394193612      1.417327625     -0.193200038
 C      -0.323302210      0.214890516      0.051743692
 H      -0.162289833     -1.872065244     -0.170432729
 H       2.210846072     -1.957619324     -0.202612359
 H       3.522948412      0.052122677      0.125766120
 H       1.521012019      1.129592434      1.409254847
 H      -0.063895625      2.033852083     -0.927203640
 H      -1.220298072      0.496209245      0.195858636
