      12
    2920.00 to state    1 from traj    2 on state    2
 C       0.376402666     -0.950061231     -0.157311737
 C       1.750519162     -1.073782085     -0.029672366
 C       2.363131533      0.178948939      0.136851029
 C       1.751552066      1.420351132      0.038077195
 C       0.273454828      1.445492003     -0.098385139
 C      -0.427759647      0.231044923      0.047295568
 H      -0.058676778     -1.919025623     -0.106783834
 H       2.618642654     -1.807210060      0.272209036
 H       3.417379290      0.075096108      0.345302644
 H       2.315138000      2.301703707      0.048677916
 H      -0.016578697      2.081218257     -0.944546951
 H       0.014739563      0.141693997      1.100989405
