      12
   12270.00 to state    1 from traj    3 on state    2
 C       0.454367782     -0.941991202      0.251022035
 C       1.688346086     -1.058981574     -0.499606957
 C       2.413752789      0.074965422      0.350425185
 C       1.724196431      1.396585258      0.044994954
 C       0.345620505      1.534684948     -0.210562138
 C      -0.349025294      0.214177355     -0.040436586
 H       0.346117312     -1.445173926      1.145146622
 H       2.081745184     -1.910865837     -0.960799311
 H       2.992557973     -0.174469648      1.245790397
 H       2.289680306      2.325468243      0.261142097
 H      -0.246745633      2.337672616     -0.334892748
 H      -1.448427379      0.133070436     -0.150178958
