      12
   12680.00 to state    1 from traj    2 on state    2
 C       0.432684476     -0.927604964     -0.102164668
 C       1.714004762     -0.964311229      0.405237716
 C       2.413893263      0.005208363     -0.474498002
 C       1.789315209      1.328582756      0.310462645
 C       0.268601027      1.453705455      0.140696072
 C      -0.368669943      0.336925184     -0.274448503
 H       0.051896592     -1.933286636     -0.404812854
 H       2.234252108     -1.666925309      1.147292665
 H       3.293668901      0.092186156     -1.154322869
 H       2.257698286      1.963403876      1.086658431
 H      -0.078479425      2.407255417     -0.291619661
 H      -1.414954653      0.246284025     -0.490372838
