      12
   11485.00 to state    1 from traj    8 on state    2
 C       0.277806384     -0.936335873      0.310348301
 C       1.666987227     -1.063574088      0.066290244
 C       2.281103209      0.233318697     -0.403202053
 C       1.636669775      1.331591030      0.014207888
 C       0.375902075      1.418870357      0.373970068
 C       0.016054929      0.207108896     -0.337295577
 H      -0.444729198     -1.408379661      0.962771688
 H       2.185493047     -1.919154302      0.335312701
 H       3.292084955      0.358618722     -0.751542507
 H       2.178790222      2.375240649      0.048474010
 H      -0.444730642      2.107803445      0.470064297
 H      -0.478662069      0.095316799     -1.400389527
