      12
   10005.00 to state    1 from traj    2 on state    2
 C       0.295857160     -0.983686851     -0.381975126
 C       1.524471158     -1.154380551      0.240531760
 C       2.474587103      0.218484059      0.046853578
 C       1.795827130      1.517237847     -0.269609056
 C       0.480122006      1.398074882      0.036348617
 C      -0.298657162      0.118859158      0.208434805
 H       0.294015746     -1.194004619     -1.373640768
 H       1.596289757     -1.405798374      1.395623031
 H       3.197540754      0.293786474      0.751938341
 H       2.369753445      2.469764596     -0.535910825
 H      -0.302128054      2.182426975      0.273683033
 H      -1.085084341      0.177086913      0.875625062
