      12
    4280.00 to state    1 from traj    2 on state    2
 C       0.416023354     -0.981589777     -0.173631082
 C       1.743846201     -1.120256540      0.288662138
 C       2.388654955      0.203282993     -0.119477154
 C       1.762520410      1.437169839     -0.044042323
 C       0.348104830      1.356023267      0.101732863
 C      -0.357942900      0.199977917     -0.049851482
 H       0.033895090     -2.000013018     -0.582771965
 H       1.679651216     -0.508362904      1.427355196
 H       3.325356704      0.404442188     -0.669637282
 H       2.237066984      2.392808080     -0.145023308
 H      -0.237023584      2.228438361      0.185520606
 H      -1.313856122      0.247407487     -0.293547081
