      12
    6240.00 to state    1 from traj    5 on state    2
 C       0.235212972     -0.837432457      0.423941370
 C       1.739011626     -0.934497146      0.056625232
 C       2.378992892      0.180427640     -0.264989086
 C       1.766833319      1.339556184     -0.015423213
 C       0.348848326      1.333153163      0.242020658
 C      -0.319592560      0.182160738     -0.441705254
 H      -0.154748875     -1.777971795      0.995448624
 H       2.204124512     -2.010249008      0.021258818
 H       3.352139231      0.534813387     -0.616417564
 H       2.415057940      2.189212189     -0.036250166
 H      -0.061233698      1.802852129      1.033131283
 H      -0.207973115      0.001679607     -1.443946480
