      12
    5570.00 to state    1 from traj    4 on state    2
 C       0.348231399     -1.019667710      0.099776094
 C       1.717847240     -1.054470964      0.056384540
 C       2.166212109      0.285499256     -0.413271700
 C       1.790390118      1.442645734      0.518030626
 C       0.522531217      1.351803851     -0.203943957
 C      -0.307714934      0.205062848      0.001019545
 H      -0.172116989     -1.911035668      0.239197922
 H       2.469946992     -1.689436638     -0.052165262
 H       2.994029701      0.335177916     -0.954172041
 H       2.324102210      2.264825859      0.653194184
 H       0.146742537      2.080706773     -0.871620747
 H      -1.274406905      0.289628866      0.244275262
