      12
   14975.00 to state    1 from traj    2 on state    2
 C       0.311385465     -1.002067734      0.091851654
 C       1.760669404     -0.967227680      0.035945672
 C       2.482406789      0.207499968      0.012307421
 C       1.624227791      1.328642748      0.030293581
 C       0.275962209      1.390363850      0.313407222
 C      -0.252321628      0.214677692     -0.453925012
 H       0.040262914     -1.207726099      1.188467224
 H       2.286604329     -1.868641925     -0.039055430
 H       3.382362998      0.068556628     -0.511372280
 H       2.182289199      2.090559044     -0.524305597
 H      -0.188338918      2.351281916      0.780804057
 H      -0.790359897      0.400653564     -1.296432000
