      12
    1400.00 to state    1 from traj    2 on state    2
 C       0.373831918     -0.948422197      0.178700091
 C       1.673380675     -0.994008466     -0.009238639
 C       2.397927019      0.200875712     -0.107321714
 C       1.703199968      1.414242757      0.000234915
 C       0.350915840      1.404300534      0.100823312
 C      -0.392151164      0.160710984     -0.130502116
 H      -0.092438783     -1.968951020      0.353059112
 H       2.242013910     -1.868205837     -0.053512818
 H       3.367416462      0.151240497     -0.212130109
 H       2.257954244      2.387216363      0.139786177
 H       0.124403867      2.242282386      0.602579756
 H       0.157033140      0.106952908     -1.264083342
