      12
   17430.00 to state    1 from traj    2 on state    2
 C       0.317335411     -0.914095839     -0.153921154
 C       1.706153325     -1.229072182     -0.119821019
 C       2.298651842     -0.003949981      0.427259976
 C       1.950652450      1.458728769     -0.225826974
 C       0.364908336      1.585953720     -0.006977747
 C      -0.302340456      0.418285074      0.095195526
 H      -0.244548851     -1.845662082      0.042179466
 H       2.175433302     -2.142162240     -0.307599332
 H       3.137545142     -0.042450450      1.115091270
 H       1.724782046      1.283867003     -1.577216721
 H      -0.142187429      2.436361773     -0.137946625
 H      -1.335734030      0.419509832      0.635417648
