      12
    5570.00 to state    1 from traj    5 on state    2
 C       0.344628976     -0.973940108      0.065163296
 C       1.724862255     -1.107746719     -0.025931422
 C       2.380566885      0.152651169     -0.122639023
 C       1.649602310      1.487515590      0.370410469
 C       0.444211446      1.456881236     -0.361019579
 C      -0.187960243      0.273185904      0.052859246
 H      -0.227266383     -1.666931962      0.554634982
 H       2.195631989     -2.006664175     -0.116384244
 H       2.853030971      0.125228632     -1.114975355
 H       1.712188574      1.516886902      1.512910519
 H      -0.195214549      2.214818124     -0.839268735
 H      -1.269692661      0.253756186      0.217792588
