      12
    7810.00 to state    1 from traj    3 on state    2
 C       0.311082993     -1.075934987     -0.426621178
 C       1.687938867     -0.915457043      0.050271952
 C       2.531196621      0.301748691      0.127880419
 C       1.760208176      1.455935077     -0.101359893
 C       0.327953044      1.327284316     -0.064765074
 C      -0.371045985      0.081924419      0.345754543
 H       0.040193333     -1.438300943     -1.405799526
 H       1.700668264     -1.480271378      1.031574736
 H       3.651593475     -0.029692441      0.204089851
 H       2.109929104      2.571776789     -0.212820651
 H      -0.185358245      2.300198271     -0.028228995
 H      -0.946869789     -0.129926186      1.191921273
