      12
    8265.00 to state    1 from traj    2 on state    2
 C       0.371136786     -0.838922371     -0.315065000
 C       1.707122283     -0.966737380      0.038270124
 C       2.387289121      0.154890699      0.148800674
 C       1.734823427      1.408678638      0.048410226
 C       0.441417765      1.211767596     -0.300836056
 C      -0.456223963      0.265876234      0.375537267
 H       0.062022280     -1.584780003     -1.009407688
 H       2.109150316     -2.041879057     -0.132321616
 H       3.320978667      0.316179252      0.398071747
 H       2.386466693      2.297091990      0.283863068
 H       0.167424104      1.976941017     -1.026141218
 H      -0.933232587      0.106675358      1.497716531
