      12
   10030.00 to state    1 from traj    2 on state    2
 C       0.348006492     -0.688774896     -0.343184355
 C       1.684004580     -0.895500469      0.212991188
 C       2.494932513      0.129461883     -0.108530369
 C       1.765733154      1.290784617     -0.455715555
 C       0.320030433      1.233127373      0.151281636
 C      -0.373157697      0.090586244      0.548342954
 H       0.134955589     -1.026701224     -1.221590854
 H       1.954689238     -1.851367294      0.673511151
 H       3.602962021      0.075873975      0.078803252
 H       2.217339314      2.139015518     -0.728579537
 H      -0.162907428      2.305337865      0.241743671
 H      -1.282283218      0.340520216      0.849220866
