      12
    6255.00 to state    1 from traj    6 on state    2
 C       0.392395684     -0.957676957     -0.170690741
 C       1.794155751     -1.071773729     -0.035410984
 C       2.478933705      0.156281009      0.108034915
 C       1.764801769      1.471344593     -0.115732908
 C       0.314387372      1.425680222      0.091363648
 C      -0.449336444      0.302533089      0.121651691
 H       0.020899205     -1.983401378     -0.234689475
 H       2.279987962     -1.934709631     -0.340494678
 H       3.432201602      0.285237637      0.806863843
 H       1.637538792      1.041788543     -1.200621069
 H      -0.142861220      2.306235309      0.505626962
 H      -1.432516992      0.264521861      0.427332791
