      10
    2100.00 to state    3 from traj    4 on state    2
 C      19.971884129      8.143185990      1.280512230
 H      19.007264716      8.210786693      1.879901610
 C      20.565049064      9.507872845      1.131444849
 H      21.743834731      9.748529915      1.582602845
 C      19.938703825     10.835169029      0.902453710
 H      19.818678518     11.189783295     -0.077561035
 H      19.828816784     11.465049913      1.689261388
 C      20.607325506      6.982101893      0.873931795
 H      21.479036137      6.858917385      0.184592926
 H      20.879448320      6.039189312      1.274059992
