      10
    3748.00 to state    1 from traj    3 on state    2
 C      19.995510863      8.275811220      1.162377640
 H      19.020946760      8.080603390      1.203807779
 C      20.564414015      9.470097687      1.044566612
 H      21.613005928      9.740900014      0.666500804
 C      19.866698392     10.719623870      1.240953945
 H      19.963120485     10.725910330     -0.029755077
 H      20.333204023     11.512941596      0.803139057
 C      20.627885937      7.062433737      0.904878163
 H      21.874486819      6.754639314      0.869251341
 H      20.293754983      5.981620794      1.046708515
