      10
    1956.00 to state    2 from traj    5 on state    3
 C      20.035632976      8.211114360      1.247851827
 H      18.958602905      8.092460065      1.121500408
 C      20.570436968      9.452769769      0.938498407
 H      21.653352733      9.389723665      0.592885047
 C      19.982611122     10.821234591      1.046348985
 H      18.910068571     10.638628440      1.374701094
 H      20.377740211     11.899418643      1.222921193
 C      20.602710929      7.030773762      1.001726858
 H      20.985584574      6.520945009      1.797887542
 H      20.564107817      6.399560683     -0.131640721
