      10
     840.00 to state    2 from traj    2 on state    3
 C      19.924440233      8.222629250      1.016330358
 H      18.961472444      8.278401149      0.975760193
 C      20.650450167      9.558438982      1.007553737
 H      21.709354752      9.317128446      0.959477886
 C      19.960347290     10.726823065      1.049432143
 H      18.758157657     10.656864799      1.062206792
 H      20.517066641     11.708809674      1.292009553
 C      20.611403395      7.001918515      1.138021472
 H      21.770954341      7.106918288      1.059905580
 H      20.271786368      5.949410166      0.902935149
