      10
    1172.00 to state    2 from traj    2 on state    3
 C      20.028259117      8.238934071      0.884863886
 H      18.998550709      8.035684093      0.742573355
 C      20.518799700      9.518054945      1.135466180
 H      21.438778389      9.668081825      1.381797472
 C      19.998227661     10.740180850      1.066503596
 H      18.938827558     11.060066393      1.208119314
 H      20.524599875     11.663479143      0.988692091
 C      20.630954899      6.962531834      1.094553866
 H      21.082628020      6.580405810      0.221850275
 H      20.651288377      6.612673087      2.072788470
