      10
   17452.00 to state    1 from traj    1 on state    2
 C      19.865525548      8.257301215      0.849458460
 H      18.702283482      8.094791460      1.178333915
 C      20.503308943      9.558654125      0.780884069
 H      21.417368519      9.198239606      0.425255715
 C      20.130457763     10.716990435      1.414303270
 H      19.154997682     10.880324396      1.725589175
 H      20.787923646     11.607694421      1.442739731
 C      20.596870135      6.923615595      1.192220588
 H      21.790869334      6.798359195      1.379302410
 H      20.739235673      7.077938223     -0.205759122
