      10
    2996.00 to state    2 from traj    2 on state    3
 C      19.964331924      8.223357425      1.124011648
 H      18.893415515      8.032054051      1.308156797
 C      20.609004450      9.539972091      0.809106897
 H      21.736942101      9.460961504      0.979607126
 C      19.992688984     10.713199655      1.154516559
 H      19.983652524     11.468462618      0.413854594
 H      19.335393553     10.588122916      1.913532853
 C      20.611678331      7.055858871      1.057154243
 H      21.519090908      6.928173155      0.632572913
 H      20.149489242      6.271470972      1.805273707
