      10
    5824.00 to state    2 from traj    2 on state    3
 C      20.002062923      8.244628919      1.029979871
 H      18.939868986      8.089463277      0.790350845
 C      20.508180763      9.477968997      0.959279799
 H      21.580955103      9.352341697      0.819407332
 C      20.022933086     10.738991053      1.099757683
 H      19.813262704     11.527452322      0.377037299
 H      19.832538662     11.127041630      2.047646753
 C      20.630099930      7.029238095      1.137337622
 H      21.684087520      6.901609145      1.132693507
 H      19.943203061      6.246410602      0.910845980
