      10
    3600.00 to state    1 from traj    1 on state    2
 C      19.982065096      8.011944072      0.965554447
 H      19.048898261      8.476811590      0.774553602
 C      20.677852459      9.608932959      0.877499108
 H      21.915847286      9.724936696      0.441375012
 C      19.951761639     11.023654995      1.078804710
 H      18.735498350     11.211707282      0.961153558
 H      19.934818697     10.365826206      2.098386997
 C      20.578889112      6.885745920      1.258057423
 H      21.715635587      7.001769512      1.353642783
 H      20.113064793      5.995115829      1.006544433
