      10
      84.00 to state    3 from traj    1 on state    2
 C      19.975003385      8.249777629      1.123425031
 H      18.720357021      8.232121372      0.798716881
 C      20.591241528      9.522478583      1.128834271
 H      21.796563354      9.261936369      0.899406576
 C      19.955580526     10.679238364      1.024677551
 H      18.849710146     10.711414397      0.863961234
 H      20.624389652     11.576249181      0.891569006
 C      20.651806863      7.050163984      1.013018291
 H      21.691775291      7.161980581      0.806417361
 H      19.984218071      6.173002188      1.061457238
