      10
    5476.00 to state    1 from traj    6 on state    2
 C      19.997860142      8.290034716      1.413947218
 H      19.510135272      7.866091545      0.505023490
 C      20.583613363      9.585573629      1.360859802
 H      21.607216293      9.561635024      1.733605898
 C      19.995305804     10.607716040      0.750943359
 H      18.998532635     10.677982749      0.268879788
 H      20.554698177     11.596730579      0.746720386
 C      20.600046391      7.041031202      0.850518372
 H      20.735255864      7.051042132     -0.125289560
 H      20.223334482      6.089195606      1.151479240
