      10
    1772.00 to state    2 from traj    2 on state    3
 C      20.075453076      8.220089350      1.255487195
 H      19.143599227      8.139514090      1.757033827
 C      20.542357657      9.468345104      1.042359983
 H      21.565088388      9.529680262      1.506174528
 C      19.901086018     10.843684879      0.965316422
 H      20.042333852     11.303754014     -0.033578889
 H      19.655003672     11.631111257      1.817587919
 C      20.633289258      6.929783457      0.910031624
 H      21.421536380      6.816385806      0.264318370
 H      20.097144646      6.170850304      1.402098103
