      10
    2412.00 to state    1 from traj    5 on state    2
 C      19.972899833      8.177403152      1.028309712
 H      19.248314940      8.584476374      0.301152615
 C      20.577403105      9.490532176      1.219518515
 H      21.678673549      9.421661025      0.997254589
 C      19.806229308     10.655584204      1.016749361
 H      20.503996423     11.464350158      1.582211762
 H      20.572923367     11.145031644      0.156190875
 C      20.618508026      7.120189985      1.038186178
 H      21.624834101      6.993593388      1.443345593
 H      20.421731638      6.204525234      0.680093675
