      10
    2040.00 to state    3 from traj    1 on state    2
 C      19.933498865      8.296870336      0.793267838
 H      18.847168465      8.003281884      0.833712042
 C      20.609016832      9.497222234      1.217293826
 H      21.838591362      9.462134248      1.162410538
 C      19.974547360     10.665567327      1.044366575
 H      19.588925177     11.321704170      1.921216391
 H      19.760820680     10.932949614      0.079564163
 C      20.642118707      7.042550235      1.155019740
 H      21.678037262      7.238904392      1.433248565
 H      20.127233173      6.152656138      0.843886882
