      10
    6940.00 to state    1 from traj    1 on state    2
 C      19.965933027      8.223260368      1.039552408
 H      18.916310564      8.516789475      1.105258854
 C      20.622378157      9.492319589      1.031671580
 H      21.736505063      9.583383766      1.092843776
 C      20.006895425     10.680663724      1.079302416
 H      18.806369132     10.952948569      1.231935959
 H      20.665102748     11.560881522      0.621299252
 C      20.508143453      6.931652924      1.062209666
 H      21.213707938      7.330635054      1.925807446
 H      21.171041336      7.254461194      0.265807419
