      10
    4500.00 to state    1 from traj    5 on state    2
 C      19.882785708      8.268626200      1.207167430
 H      19.043043929      8.100759909      1.797221508
 C      20.435730072      9.463056216      0.998119227
 H      21.521589776      9.401882393      0.944564544
 C      19.938378940     10.715102457      1.078184328
 H      20.500071320     10.580782448     -0.145990981
 H      20.732647154     11.583627110      1.374927339
 C      20.710379091      7.075937791      0.961881503
 H      21.846464556      7.120852435      0.818603212
 H      20.498925961      6.075650345      1.057724133
