      10
     612.00 to state    2 from traj    2 on state    3
 C      19.936630514      8.195527499      1.127354397
 H      18.773506987      8.564274573      1.297766196
 C      20.627893704      9.508542430      1.039284246
 H      21.642219941      9.404742977      0.989450778
 C      19.956260847     10.725375195      1.023607088
 H      18.965023900     11.021291524      0.934896909
 H      20.260596068     11.710211522      1.095017483
 C      20.673810249      7.040005775      1.032559201
 H      21.594427608      6.719262141      1.259957879
 H      20.176906816      6.080481486      0.539661389
