      10
    5752.00 to state    1 from traj    3 on state    2
 C      19.844612073      8.204436607      1.014623994
 H      18.816325564      8.516984463      1.379573647
 C      20.623339509      9.490911163      1.026654444
 H      21.741762741      8.969999013      1.243979688
 C      20.045133966     10.679265035      1.085227918
 H      19.037736997     10.512636094      1.431170024
 H      20.265416167     11.708623978      1.309316230
 C      20.596205825      7.009416031      0.990054910
 H      21.112356663      7.560078503      1.812831508
 H      21.468930254      7.258753861      0.220078190
