      10
    3788.00 to state    1 from traj    1 on state    2
 C      20.114936967      8.284298765      0.992123799
 H      19.095976083      8.268281172      0.858814256
 C      20.520046059      9.544201348      1.506410677
 H      21.546165678      9.455903123      1.641374793
 C      19.990289910     10.688772482      0.878579818
 H      18.837824360     10.465653977      0.568384870
 H      20.387818598     11.650595398      0.904243001
 C      20.699706077      6.974653389      0.892983309
 H      20.219441960      6.571518383     -0.014731327
 H      19.764465641      6.821136120      1.596634512
