      10
     120.00 to state    3 from traj    1 on state    2
 C      19.974007983      8.244640931      1.064754251
 H      19.060883356      8.155689230      0.805893133
 C      20.589839884      9.522997991      1.037798944
 H      21.693856902      9.509566158      0.923885744
 C      19.966583067     10.722388252      1.064421197
 H      18.894706374     10.688775852      1.122750823
 H      20.444062659     11.510762943      1.035370557
 C      20.626584252      7.034093678      1.076237492
 H      21.704192361      6.826066046      1.041914579
 H      20.069555529      6.155887395      0.947534971
