      10
    2556.00 to state    1 from traj    1 on state    2
 C      19.871772720      8.264769876      1.083015311
 H      19.129587601      8.505000076      1.733955987
 C      20.623511269      9.470105994      0.835311270
 H      21.730316374      9.447043521      0.742845678
 C      20.011114407     10.621175082      1.173339293
 H      19.008796090     10.847203625      1.729933665
 H      20.230563481     11.689619735      0.665029046
 C      20.581660384      6.971375764      1.136757121
 H      21.468144095      7.505359961      1.304887113
 H      21.122302672      7.211408035     -0.129122810
