      10
     104.00 to state    2 from traj    2 on state    3
 C      19.951261150      8.228498527      1.101044861
 H      18.760358196      8.199019138      1.015184721
 C      20.614853843      9.523232430      1.119901302
 H      21.832251123      9.719249309      1.053268208
 C      19.966479961     10.719939881      1.001873097
 H      18.917683496     10.702075153      1.158740317
 H      20.442825153     11.654018628      0.830369489
 C      20.646739247      7.007190136      1.006292557
 H      21.652504375      7.058515078      1.074100292
 H      19.994624723      6.053474552      0.917146712
