      10
    1832.00 to state    2 from traj    2 on state    3
 C      20.022476595      8.175286752      0.961910079
 H      18.846133999      8.150632575      0.841712876
 C      20.591055808      9.516001037      1.170370941
 H      21.743739024      9.557717081      0.927115891
 C      19.918164407     10.788105474      1.051116472
 H      19.788646033     11.413746807      1.825202886
 H      19.804179691     11.208899773      0.079758980
 C      20.638804684      6.989365042      1.034526467
 H      21.566851994      6.977558960      1.634215341
 H      19.956688814      6.199029154      0.875058519
