      10
   10268.00 to state    1 from traj    6 on state    2
 C      20.247413176      8.213982424      1.516906081
 H      19.439950443      7.516626952      1.247361804
 C      20.566837597      9.663810439      0.959959799
 H      21.637651400      9.784257553      1.258516515
 C      19.799590045     10.762817026      0.895413424
 H      18.639507614     10.918567231      0.840853867
 H      20.369863467     11.726563132      0.927084375
 C      20.626336859      6.895027478      0.875497471
 H      20.770999663      6.176503804      1.538256358
 H      20.009244082      6.582891431      0.011252633
