      10
    3680.00 to state    2 from traj    2 on state    3
 C      20.097041853      8.241065998      1.140292588
 H      19.069252433      8.387484638      1.512397178
 C      20.532012599      9.521208669      0.870086256
 H      21.640449907      9.534030794      1.027076236
 C      19.883879928     10.777213747      1.064534071
 H      18.796909451     10.817578925      1.107644087
 H      20.646193268     11.474060687      1.402933812
 C      20.639138331      6.993198076      1.045865594
 H      21.166590204      6.397591309      1.904496303
 H      20.605082900      6.130072360      0.392755219
