      10
    3468.00 to state    1 from traj    5 on state    2
 C      19.893601526      8.185864146      0.892053980
 H      18.867166430      8.330215411      1.010073144
 C      20.592126583      9.501625066      0.966070105
 H      21.572765534      9.375756445      1.210158322
 C      20.043719971     10.815277452      1.211041814
 H      19.030065767     10.599840173      1.621559546
 H      19.585595176     10.644457354      0.240031000
 C      20.716534732      7.077150947      1.106418145
 H      21.736030679      7.002267047      1.163691088
 H      20.008195085      6.223764721      1.445207589
