      10
   12800.00 to state    1 from traj    3 on state    2
 C      19.974063154      8.179007400      0.791604504
 H      18.979019808      8.130070507      0.818069198
 C      20.519192183      9.584786767      1.106496298
 H      21.655301090      9.539788714      1.317350109
 C      19.823744401     10.691766490      1.157809087
 H      20.440193628     11.221573415      0.474065224
 H      20.199251761     11.563326785      1.750249259
 C      20.712053626      7.010440965      1.123936612
 H      21.594228698      7.117050517      1.260218321
 H      20.538045223      5.972335588      1.017162633
