      10
    5560.00 to state    3 from traj    1 on state    2
 C      19.937641409      8.292256145      1.119597100
 H      18.995775212      7.924297072      1.369825887
 C      20.535859821      9.531768714      0.791340229
 H      21.362420891      9.396416794     -0.088411464
 C      19.996386911     10.682773177      1.164231255
 H      19.263644676     11.133590105      0.537909477
 H      20.043200430     11.105863858      2.148037021
 C      20.728113313      7.065794438      1.118304620
 H      21.616268433      6.653231229      1.203620168
 H      20.089743391      6.048205989      1.299956240
