      10
    4836.00 to state    1 from traj    1 on state    2
 C      20.025396086      8.304282130      1.239515468
 H      19.265321617      8.690229144      1.804754946
 C      20.683653940      9.515056752      0.857624019
 H      21.439090042      9.757096833      0.269347842
 C      19.786226232     10.666272049      1.202700633
 H      19.740834700     10.590945585     -0.077000066
 H      20.358562665     11.599406729      1.167139679
 C      20.604023597      6.985217288      0.993831414
 H      21.359147332      6.763579444      0.302692851
 H      20.396479931      6.084444722      1.798447733
