      10
    8644.00 to state    1 from traj    6 on state    2
 C      20.035162602      8.260470791      1.049431603
 H      18.919211099      8.187857484      0.987488093
 C      20.649593316      9.478222472      1.181542906
 H      21.607176278      9.417153739      1.698128126
 C      19.766726057     10.692512945      0.759989499
 H      20.562892427     11.693543914      0.639586428
 H      19.981316587     11.054033907      1.789246821
 C      20.631109547      7.062850707      1.179453981
 H      21.629908782      6.532112412      1.070575675
 H      20.060910537      6.319579007      0.564704575
