      10
    1400.00 to state    2 from traj    2 on state    3
 C      20.100117141      8.230654563      1.141195941
 H      19.117953677      8.396627796      1.444976780
 C      20.570294590      9.565793604      1.045955233
 H      21.614921001      9.560475464      0.763430384
 C      19.929108874     10.702841028      0.999158361
 H      19.596386791     11.182561710     -0.030627219
 H      19.925629350     11.270082490      1.914632532
 C      20.564027291      6.993160282      1.061730897
 H      21.632067720      6.702673468      0.807884813
 H      19.902978598      6.111148783      0.917960998
