      10
    4656.00 to state    1 from traj    1 on state    2
 C      20.241053699      8.184234678      0.595079271
 H      20.146186286      7.994018513     -0.433439225
 C      20.527341136      9.601341259      0.725027541
 H      21.412316397      9.796823887      0.301750902
 C      20.071998713     10.711936205      1.412148440
 H      19.905908234     10.186776312      2.513224387
 H      18.922169639     10.640274362      1.346779237
 C      20.342061441      7.097280880      1.411695342
 H      20.923579472      7.272298470      2.332775067
 H      20.248719243      6.108908772      1.002875472
