      10
    6524.00 to state    1 from traj    1 on state    2
 C      20.056444809      8.168666570      0.939905453
 H      18.944184268      8.350889439      0.982548434
 C      20.568894683      9.532909333      1.179197239
 H      21.439524343      9.746669830      1.612902986
 C      19.786904363     10.825509779      0.954938090
 H      20.816262669     11.210439259      0.464679208
 H      20.193163474     11.150240052      1.976356041
 C      20.633869688      6.962934958      1.060765686
 H      21.672447130      6.811745632      1.035382649
 H      20.133410651      5.984701137      1.111202621
