      10
    2320.00 to state    2 from traj    2 on state    3
 C      20.057404428      8.158478647      1.335796171
 H      19.179737761      8.320710186      1.816530971
 C      20.539323058      9.528345487      0.969940545
 H      21.685367552      9.476724026      1.455843880
 C      19.933275715     10.692611652      0.964540707
 H      20.106506764     11.514714201      0.077703211
 H      19.824622702     11.462364199      1.805125605
 C      20.577683361      7.057961088      0.915258368
 H      21.395915893      6.983672983      0.110152492
 H      20.266709703      6.127069345      1.303317396
