      10
    4376.00 to state    1 from traj    1 on state    2
 C      20.043484235      8.395590330      0.713792495
 H      19.111685593      8.440051437      0.307884573
 C      20.752512905      9.591056032      0.486759742
 H      21.751792233      9.523660466     -0.068995414
 C      19.887856730     10.194382165      1.503806723
 H      19.135554407     10.673858993      1.038474834
 H      20.668199727     10.930625290      2.159625651
 C      20.445789342      7.238904949      1.415509680
 H      21.470602978      7.304523244      1.544224976
 H      20.060012131      7.226375872      2.372870787
