      10
    4188.00 to state    1 from traj    3 on state    2
 C      19.977536152      8.151936020      0.916490181
 H      18.943326839      7.854142298      0.766881495
 C      20.396968589      9.491856333      0.795940820
 H      21.384669967      9.650071725      0.494353385
 C      19.967654814     10.698143630      1.280716227
 H      20.269958178     10.998646836      0.183877098
 H      20.930170763     11.186939911      1.639051209
 C      20.696527812      7.156744250      1.229792859
 H      21.676384888      7.266608902      1.719326213
 H      20.082089242      6.196497392      1.313414063
