      10
    7216.00 to state    1 from traj    4 on state    2
 C      19.955335763      8.202031504      1.313597796
 H      19.002722859      8.043742451      1.775690829
 C      20.487785749      9.425918960      0.933948295
 H      21.674240804      9.357998145      0.941477274
 C      19.860627614     10.738695759      0.975978260
 H      20.473435759     11.092346117      0.196629826
 H      20.832496861     11.082135825      1.753592049
 C      20.675915866      7.156324219      0.994071195
 H      21.621033212      7.237788660      0.555002924
 H      20.390938880      6.047413366      0.958645049
