      10
    2572.00 to state    3 from traj    1 on state    2
 C      19.974828680      8.303711316      1.223606743
 H      19.123344755      8.391173419      1.829302004
 C      20.638192656      9.450662369      0.872086831
 H      21.672929451      9.402009285      1.010327304
 C      19.935579240     10.610794202      1.053549860
 H      19.516005013     10.857821572      0.048409568
 H      19.238615267     11.172523027      1.897553546
 C      20.659940693      7.137371228      1.014522833
 H      21.511820866      6.984211648      0.368546235
 H      20.186996397      6.294373040      1.680856556
