      10
    2360.00 to state    2 from traj    2 on state    3
 C      19.961634055      8.167201113      1.017814107
 H      18.902565121      8.129224173      1.430678271
 C      20.537909108      9.503709940      0.958491105
 H      21.507911515      9.533599137      0.145616678
 C      19.926511479     10.740706127      1.092741308
 H      19.663272899     11.507728845      0.232678458
 H      20.086228012     11.124882725      2.002024557
 C      20.699680823      7.038001321      1.088729178
 H      21.836459120      7.015664962      1.243904153
 H      20.246944817      6.426059519      1.851979916
