      10
    6428.00 to state    1 from traj    3 on state    2
 C      19.942603118      8.252934617      0.904783333
 H      18.953094585      8.374434346      1.146668983
 C      20.670048031      9.586919201      1.083298396
 H      21.700909833      9.601539558      1.041798766
 C      19.864887581     10.716120170      1.203654263
 H      18.779709078     10.376617274      1.347734278
 H      20.335417533     11.589236390      1.114928207
 C      20.676003951      6.887635387      0.944809013
 H      21.511773310      6.334908090      0.551554047
 H      20.627570987      7.532528973      1.954359885
