      10
    2304.00 to state    1 from traj    3 on state    2
 C      19.988841395      8.283685249      1.056721769
 H      18.768540305      8.211202758      1.221867372
 C      20.653528521      9.585643499      1.274465080
 H      21.831518230      9.505520344      1.652310903
 C      19.951003174     10.668631630      0.946866903
 H      18.938202445     10.503623872      0.532368267
 H      20.091668731     11.806767158      1.179925295
 C      20.524680472      6.867896285      0.906294481
 H      21.405768667      7.181797123      0.311329468
 H      21.298643957      7.053385935      1.685602911
