      10
    1900.00 to state    2 from traj    2 on state    3
 C      19.993249967      8.262257695      1.019881765
 H      18.937275155      8.290434312      0.738605579
 C      20.578089558      9.536198489      0.980612217
 H      21.580706828      9.393070207      1.272342910
 C      19.942162019     10.684020846      1.083510431
 H      20.000699729     11.265792679      0.195523027
 H      19.548138531     11.159920337      2.041984316
 C      20.631090920      7.012894483      1.076179045
 H      21.825278156      6.962962619      1.128117138
 H      20.123382071      6.116827852      1.492058510
