      10
    2664.00 to state    2 from traj    2 on state    3
 C      20.012892972      8.250492825      1.012505587
 H      19.146613049      8.462680724      0.501920283
 C      20.564564888      9.532072052      1.198811242
 H      21.810915740      9.473034297      1.424670059
 C      19.933393180     10.706871229      1.113923221
 H      20.637399066     11.504701070      1.524515983
 H      18.949179779     10.689254323      0.517876620
 C      20.600016017      6.989088357      0.940810765
 H      21.235997195      6.798359366      1.672674247
 H      20.641088037      6.463321684     -0.034441148
