      10
    4676.00 to state    1 from traj    5 on state    2
 C      20.065970705      8.251993415      0.819043333
 H      19.154846765      8.356113228      0.232845364
 C      20.458355577      9.553351928      1.085379256
 H      21.507133853      9.595326906      0.921747325
 C      19.842711744     10.714860118      1.075190744
 H      20.574689253     10.876374156      2.089603291
 H      20.517432190     11.488752188      0.530898226
 C      20.646628900      6.995752233      1.189347983
 H      21.518073939      6.661499777      1.952485812
 H      20.315470797      5.965554088      1.040358072
