      10
    3932.00 to state    1 from traj    3 on state    2
 C      20.017343934      8.180679787      0.964674736
 H      19.023039966      7.903935494      0.641196109
 C      20.477155393      9.573873404      1.320462304
 H      21.430998124      9.680948488      1.908462415
 C      20.006084012     10.822730419      1.086162693
 H      18.989484108     11.260044462      0.695208185
 H      20.343869844     10.497770632     -0.116228590
 C      20.653222297      7.013601524      0.949454574
 H      21.880701227      6.664336136      0.888972268
 H      20.236891419      6.038223967      0.927468226
