      10
    5024.00 to state    1 from traj    4 on state    2
 C      19.937096285      8.450287540      1.011693897
 H      18.786086258      8.608557532      0.851613809
 C      20.499711458      9.354763134      1.831013710
 H      21.503588078      9.162573803      2.208213543
 C      20.036557450     10.542907618      0.644486744
 H      19.003530434     10.398806475      0.751352041
 H      20.338972800     10.635738902     -0.432837137
 C      20.702565867      7.211810605      0.914870967
 H      21.740020941      7.325800531      0.287861287
 H      20.267280439      6.287176772      0.303142928
