      10
    2928.00 to state    2 from traj    8 on state    3
 C      19.964888234      8.274100989      0.883951368
 H      18.902884105      8.328794907      0.504097225
 C      20.687109833      9.537160539      0.869633358
 H      21.674797508      9.384880547      1.429552903
 C      19.879107069     10.734074053      1.149643230
 H      19.723627442     10.708868969      2.194798381
 H      19.615319377     11.485931921      0.308875346
 C      20.654486372      6.967846998      1.249147651
 H      21.568220686      6.727935671      1.765731311
 H      20.035896402      6.339872648      0.764641144
