      10
    2268.00 to state    1 from traj    1 on state    2
 C      19.884326937      8.130318597      1.138863035
 H      18.999480152      8.641813052      1.647129933
 C      20.642713708      9.565914493      0.821138098
 H      21.588050909      9.390257053      0.518779313
 C      20.058089536     10.633644809      1.140335416
 H      19.081437431     10.503990741      1.573865226
 H      20.221174545     11.609170139      1.056010785
 C      20.669874771      7.183254579      1.085940894
 H      20.991169991      6.019997918      1.596972524
 H      19.810624803      6.812668850      0.165996084
