      10
    4092.00 to state    1 from traj    4 on state    2
 C      19.988635570      8.040011713      0.760134570
 H      19.264484641      8.070485380     -0.020139159
 C      20.655673107      9.589648488      1.020584418
 H      21.663419663      9.689951797      0.446988975
 C      20.039300343     10.916133064      1.208649398
 H      19.712492501     10.346034789      2.247111693
 H      18.907078013     10.705817127      0.979700873
 C      20.573507507      7.072505764      1.178652678
 H      21.073423610      6.941950734      2.236091175
 H      20.044977528      5.958817745      0.888735147
