      10
    2460.00 to state    1 from traj    3 on state    2
 C      19.942776511      8.237653945      1.151038902
 H      18.879535622      8.658549926      1.122225132
 C      20.722653807      9.476070394      1.175339021
 H      21.956450831      9.334573580      0.954544691
 C      19.747298978     10.711543563      1.006107736
 H      20.438012160     11.576805211      1.563959702
 H      20.433750604     11.090326036     -0.092158356
 C      20.594515128      7.034539872      0.947072750
 H      21.697290420      6.944213352      1.322750483
 H      20.258977673      6.012214267      0.565429742
