      10
   15116.00 to state    1 from traj    7 on state    2
 C      20.159248262      8.177921513      1.369478318
 H      19.877119902      7.890045456      2.307360642
 C      20.370172768      9.507175415      0.853387222
 H      21.027339399      9.694469173     -0.120672739
 C      19.946068360     10.825504064      1.305820047
 H      21.003336464     11.352215589      0.948540623
 H      19.742721079     10.990021085      0.157800797
 C      20.604643064      7.008723220      0.836602542
 H      21.122886340      6.901155048     -0.115151152
 H      20.016852617      6.074163477      1.233286165
