      10
     896.00 to state    2 from traj    2 on state    3
 C      20.007693271      8.179907660      1.002485452
 H      18.988959880      8.143830021      0.839665330
 C      20.578888419      9.566035788      0.971124258
 H      21.673100505      9.616848463      0.970784474
 C      19.944821998     10.760038879      1.072698525
 H      19.167694744     10.996309149      1.855629639
 H      20.377669242     11.626613221      0.840863098
 C      20.605160562      6.974859165      1.106970195
 H      21.562840964      6.979339471      1.492473361
 H      20.341003102      6.001888986      0.955575645
