      10
    4016.00 to state    1 from traj    5 on state    2
 C      20.000856793      8.159440074      0.737859411
 H      19.036042272      8.209266303      0.397163572
 C      20.660637269      9.649009509      0.804626410
 H      21.426031168      9.418946904      0.208402688
 C      19.990353778     10.639675758      1.293808078
 H      20.217833439     11.611366143      1.553589549
 H      19.021412287     10.382653134      1.467149697
 C      20.533545288      6.999996529      1.306402900
 H      20.274175764      7.696517648      2.141209805
 H      21.549826055      6.438714644      1.314454908
