      10
    2812.00 to state    2 from traj    3 on state    3
 C      19.925993321      8.270896922      1.229563002
 H      18.841392718      8.453971710      1.035837989
 C      20.716896220      9.545600228      1.053943964
 H      21.897230340      9.852258216      0.941147725
 C      19.934206185     10.598727058      0.994866071
 H      18.919316913     10.648028521      0.904635965
 H      20.459698583     11.560484894      0.978437668
 C      20.582074845      7.051008175      0.993118722
 H      20.982604457      6.370256364      1.642669637
 H      20.742057869      6.658175580      0.032536273
