      10
    2032.00 to state    2 from traj    2 on state    3
 C      20.058603953      8.203971061      0.908282871
 H      18.790688872      8.106832298      0.810297132
 C      20.572432147      9.548707635      1.116966017
 H      21.613065585      9.702489868      1.229880027
 C      19.942570356     10.774401095      1.072454436
 H      18.967045119     10.792309176      0.661406670
 H      20.457427791     11.689580246      1.292946775
 C      20.596812457      6.973681732      1.127152864
 H      21.063639379      6.619860662      0.190612797
 H      20.813407407      6.213907060      1.908926724
