      10
    2832.00 to state    1 from traj    1 on state    2
 C      19.910786198      8.231011369      1.141881505
 H      18.843304166      8.119286917      1.333352125
 C      20.457081195      9.451610978      0.890300095
 H      21.352077156      9.622412419      0.143816834
 C      19.936424637     10.799336661      1.201160990
 H      20.002843973     10.547671347      0.056544131
 H      20.860997138     11.484674173      1.383663609
 C      20.759830750      7.042621608      1.072589945
 H      21.728040956      7.021397202      0.958693576
 H      20.194641237      6.046395819      1.244996842
