      10
   15272.00 to state    3 from traj    1 on state    2
 C      19.885904974      8.140779451      0.512277575
 H      19.669089423      7.706292034     -0.443982245
 C      20.386281688      9.656052677      0.355869035
 H      20.406834031     10.010039219     -0.735764538
 C      20.437964036     10.339873038      1.598404970
 H      20.722504524     11.311576030      1.919979476
 H      19.802820739     10.013698140      2.481867215
 C      20.418180294      7.336816690      1.649272483
 H      21.473843727      6.713604787      1.553502803
 H      20.130982790      7.696498102      2.629283976
