      10
    4812.00 to state    1 from traj    1 on state    2
 C      19.931648618      8.290906475      0.849369640
 H      18.983082411      8.325475988      0.255862594
 C      20.653898222      9.514545373      1.215279443
 H      21.447049514      9.434464320      1.871585785
 C      19.936453687     10.680965948      1.013807801
 H      19.087074425     10.394356481      0.406778913
 H      19.985274679     11.522061653      1.636144400
 C      20.798028911      7.009869974      1.159954477
 H      20.724498666      6.531813629      0.272370994
 H      19.683137482      6.968797309      1.493031541
