      10
    1644.00 to state    2 from traj    2 on state    3
 C      20.066599606      8.198769810      1.203030644
 H      19.085084971      8.327237977      1.490878014
 C      20.524140203      9.509685632      0.989271104
 H      21.644728375      9.208339390      1.077784048
 C      19.978623366     10.788330141      1.005422505
 H      19.565576620     11.390883953      0.198636725
 H      19.574527807     11.301702953      2.027450373
 C      20.638622826      7.009433472      1.001081688
 H      21.423983182      6.759155345      0.335208587
 H      19.962251348      6.075368181      1.276617327
