      10
    5412.00 to state    1 from traj    4 on state    2
 C      20.068988995      8.517286752      0.631662472
 H      20.233917089      8.409929005     -0.469211059
 C      21.165584594      9.930857176      0.650565741
 H      22.126159972      9.448909076      0.998477228
 C      19.783615261      9.821331180      1.331315118
 H      18.758753995     10.276761238      0.932822379
 H      19.975153206      9.560900427      2.347192861
 C      20.224454386      7.381324633      1.504051634
 H      19.791837334      6.424591281      1.023900876
 H      19.951416031      7.202959751      2.549720067
