      10
    3856.00 to state    1 from traj    5 on state    2
 C      20.089900712      8.177788824      0.952259585
 H      19.260579406      8.081504446      1.544633172
 C      20.540060400      9.526339951      0.672128254
 H      21.066123308      9.739543131      1.610276585
 C      19.951126668     10.709715852      1.222723221
 H      20.100556757     11.899696515      0.760920785
 H      19.384674273     10.553964945      2.163824908
 C      20.619842008      7.063938102      1.184581110
 H      21.632529017      6.738163697      0.772912033
 H      19.897657511      6.389372823      1.562111906
