      10
   14264.00 to state    1 from traj    1 on state    2
 C      20.239848483      8.300724016      1.507952439
 H      19.508807724      8.224845322      2.340374592
 C      20.614045811      9.490963441      0.990151397
 H      21.574296834      9.586898534      0.488375372
 C      19.655439678     10.646708434      1.030174811
 H      19.868841998     10.450442012     -0.112181519
 H      20.363773799     11.603913900      0.912118356
 C      20.557520978      7.082783571      0.816204026
 H      21.554565697      7.036436323      0.306812711
 H      20.076145770      5.978305368      0.725154058
