      10
    2240.00 to state    1 from traj    1 on state    2
 C      19.823011434      8.264390542      1.180000223
 H      19.144442502      8.146642806      1.804989611
 C      20.675809279      9.477400954      1.036223831
 H      21.666838265      9.361798448      0.683229918
 C      20.121762861     10.715467743      0.960575637
 H      19.084077730     10.466788498      0.544988966
 H      19.568381392     10.552253432      1.926706833
 C      20.564022934      7.113102220      1.022762603
 H      21.473133515      7.639214700      0.388772413
 H      20.600126497      6.124371137      1.052657748
