      10
    1784.00 to state    1 from traj    1 on state    2
 C      19.929270601      8.224238774      0.861211668
 H      19.025782527      8.163324223      0.423529368
 C      20.564976969      9.437684445      1.191031430
 H      21.609393402      9.625761008      1.078351369
 C      19.882594538     10.741590591      1.089022723
 H      20.340861728     11.721069592      1.695813713
 H      20.645825897     10.596106383      0.198136587
 C      20.644727826      7.076438491      1.125621487
 H      21.642087496      7.153638613      1.387105920
 H      20.230080016      6.113367181      0.808200647
