      10
    3387.92 to state    3 from traj    1 on state    2
 C      20.019800460      8.185703191      1.260923737
 H      18.846371268      8.047158017      1.469387768
 C      20.524923791      9.546602977      1.280356001
 H      21.586043129      9.741593042      1.373243125
 C      19.996042623     10.746201617      0.863263278
 H      18.928201646     10.944886031      0.742031238
 H      20.420704168     11.647098407      1.037165790
 C      20.661699542      7.023219003      0.819280465
 H      20.473002710      6.567152390     -0.160250863
 H      21.064458150      6.166651867      1.647317572
