      10
    2944.00 to state    1 from traj    4 on state    2
 C      19.916011195      8.300996080      0.994909076
 H      19.052492862      8.360172813      1.427254420
 C      20.647975500      9.379458949      1.117754014
 H      21.552150835      9.474895824      0.992741328
 C      19.986154303     10.854265590      1.013799254
 H      19.627245587      9.914852784      0.135301786
 H      19.257713141     10.810952845      1.798452808
 C      20.648809577      7.063195861      1.032688227
 H      21.752813382      6.962385409      0.720989696
 H      20.119789004      6.436239145      1.807873297
