      10
    4460.00 to state    1 from traj    1 on state    2
 C      20.005786685      8.190384393      1.166909185
 H      18.722484798      8.058937231      1.185580379
 C      20.528310753      9.490216469      0.877588435
 H      21.546657133      9.533590865      1.161476143
 C      20.033662223     10.915982387      1.124458086
 H      19.026189081     11.074449720      0.345443100
 H      19.634145798     10.179215288      1.919894280
 C      20.683099907      6.982170866      1.004551578
 H      21.650239910      7.286882401      0.867383573
 H      20.158082943      6.056935921      1.236450133
