      10
    2196.00 to state    2 from traj    2 on state    3
 C      20.004642370      8.066282297      1.274824467
 H      19.202511484      8.102027740      1.986335616
 C      20.473017517      9.537170207      1.118507455
 H      21.647808940      9.466032190      1.340615399
 C      20.045491142     10.788487262      0.878025923
 H      19.850926077     11.399334437     -0.008334852
 H      19.576175930     11.387797956      1.588197996
 C      20.620391804      7.079605597      0.935982761
 H      21.354088877      7.129020699      0.214053861
 H      20.394785652      5.992959899      1.180792575
