      10
    5032.00 to state    1 from traj    4 on state    2
 C      19.930816241      8.262819084      1.091756316
 H      18.934515146      8.026979561      1.122237911
 C      20.607910981      9.510293166      0.885369488
 H      21.658472446      9.445780760      0.195793325
 C      20.033899274     10.744228796      1.006604017
 H      19.058653554     11.056084899      0.816509316
 H      20.385190766     10.278267903      2.218278670
 C      20.600482429      7.059134165      1.166340834
 H      21.621758967      7.180725465      1.386917405
 H      20.012588704      6.229747118      1.256378485
