      10
    5596.00 to state    1 from traj    8 on state    2
 C      19.854223651      8.234659645      1.081222405
 H      18.853633689      8.094600049      1.571007929
 C      20.384510291      9.438795020      0.896298267
 H      21.370089316      9.548104785      0.335850478
 C      20.293083821     10.767791253      1.132165718
 H      19.154424540     10.805658275      0.850253181
 H      19.805691710     10.651511015      2.226010486
 C      20.678090380      7.115216071      1.041745358
 H      21.648869867      7.085848662      0.477531146
 H      20.399634082      6.271509230      1.516531572
