      10
    3972.00 to state    1 from traj    1 on state    2
 C      19.899417963      8.220195476      1.040444085
 H      18.913545517      8.185854449      0.827119699
 C      20.605064808      9.521015871      1.108952417
 H      21.511894539      9.399562833      1.606839076
 C      19.907074814     10.714597973      0.989730126
 H      20.292961724     10.775194503      2.195522794
 H      20.555569499     11.512902631      0.548485183
 C      20.634428972      7.045681770      0.980485536
 H      21.499663950      7.121637316      1.546884449
 H      20.422584086      6.123911457      0.632647120
