      10
    1700.00 to state    2 from traj    2 on state    3
 C      20.072897949      8.230732412      1.215939342
 H      18.933253965      8.346939453      1.731307449
 C      20.612454309      9.485783196      0.964708639
 H      21.694741421      9.367682982      1.426817845
 C      19.912241270     10.806101170      1.001177796
 H      19.390388945     11.300956125      0.114007998
 H      19.637003073     11.512781193      1.876399532
 C      20.604475395      6.967344234      0.973565037
 H      21.439663109      6.644338040      0.353557938
 H      20.231295559      6.082934327      1.422890351
