      10
    1704.00 to state    1 from traj    1 on state    2
 C      19.894834777      8.154964825      0.851897531
 H      18.829742830      8.239730895      0.675161961
 C      20.546632021      9.483395169      1.122822333
 H      21.465836557      9.150080961      0.780436101
 C      20.084914968     10.880194224      1.144332120
 H      19.138423332     11.068631874      1.647180544
 H      19.729824967     10.468172358      0.242996980
 C      20.697142265      7.057286963      1.144939329
 H      21.718463727      7.043390150      1.296675017
 H      20.183449571      6.249447228      0.985185243
