      10
    5368.00 to state    1 from traj    3 on state    2
 C      19.891445823      8.109438178      0.814427638
 H      19.094934966      7.930644217      0.117987447
 C      20.535041662      9.595482489      0.659299261
 H      21.248997485      9.677956727     -0.211024910
 C      20.079966546     10.575534731      1.413351755
 H      19.212763159     10.880891975      1.829736333
 H      20.796258771     11.237503071      1.158329101
 C      20.700506481      7.151665190      1.369758470
 H      19.449078788      7.650471566      1.890643211
 H      21.461217442      6.569734470      0.927259232
