      10
    6216.00 to state    2 from traj   13 on state    3
 C      20.158653219      8.239674021      0.831957876
 H      19.124723702      8.440061801      0.353881509
 C      20.621096610      9.588408338      1.039809873
 H      21.553986935      9.781570675      1.372623614
 C      19.880968382     10.721714250      1.161742256
 H      18.884878537     11.286951811      0.954032264
 H      20.258754277     11.867156554      1.028257923
 C      20.554792580      6.887663289      1.185441738
 H      21.038418243      6.210535691      0.461071919
 H      20.302676816      6.301013981      1.995183149
