      10
    2068.00 to state    1 from traj    1 on state    2
 C      19.887666348      8.272929264      0.805808925
 H      18.978630298      8.151388221      0.217060254
 C      20.615794408      9.487525701      1.164379057
 H      21.561077992      9.400722667      1.670045230
 C      20.093816640     10.728754519      1.065314826
 H      19.437122836     10.154903755      1.758028260
 H      19.524722718     10.844274659      0.189171057
 C      20.582575795      7.089101732      1.164609811
 H      21.349595824      7.519345201      1.805235437
 H      20.742473689      6.127853300      0.755196969
