      10
    1076.00 to state    2 from traj    2 on state    3
 C      19.985049488      8.161065003      1.287623857
 H      18.868819482      8.016167907      1.570026884
 C      20.553293368      9.522526153      1.067399968
 H      21.478106036      9.695127187      0.951424843
 C      20.003495531     10.794044500      0.909217296
 H      18.927239183     11.011199068      0.678429866
 H      20.411940168     11.570006060      1.575196667
 C      20.595345807      6.994931484      0.922750494
 H      21.507384046      6.669782802      1.680378413
 H      20.910147098      6.502713764      0.099043420
