      10
   12748.00 to state    1 from traj    4 on state    2
 C      20.082653912      8.223279713      1.060299564
 H      18.776889867      8.297754667      1.241355104
 C      20.520293031      9.558812848      0.802786118
 H      21.523160130      9.472213538      0.663587506
 C      19.824983023     10.639449495      1.061169377
 H      18.576082520     10.391865119      1.216087884
 H      20.157441740     11.611289690      1.787674435
 C      20.896712338      7.082481873      1.207664784
 H      20.655185555      6.477261641      2.037424026
 H      20.166784662      6.839036853      0.268062613
