      10
    8328.00 to state    1 from traj    1 on state    2
 C      19.991044418      8.262723164      1.055307290
 H      18.886971334      8.201573468      1.306627751
 C      20.699656543      9.591653540      0.945957644
 H      21.785265536      9.709469797      1.065803907
 C      19.894449042     10.667768736      1.110925801
 H      18.821503865     10.373004352      1.131096145
 H      20.483505775     11.537715286      1.322828834
 C      20.628677693      6.990631175      1.115830219
 H      20.972301198      5.944495051      1.213562227
 H      20.233961136      7.215563104      0.020728906
