      10
     156.00 to state    3 from traj    1 on state    2
 C      19.948809808      8.212513988      1.047157618
 H      18.816521548      8.140511804      1.054998176
 C      20.640892786      9.466956849      1.044508279
 H      21.692661736      9.418608142      1.083687612
 C      19.950261898     10.735554733      1.062591514
 H      18.952210621     10.703213767      1.044882677
 H      20.468241371     11.689858030      0.981102430
 C      20.639169675      7.078044582      1.070098680
 H      21.554162737      7.195976409      1.012649343
 H      20.115943690      6.068045589      0.927050594
