      10
    9244.00 to state    1 from traj    3 on state    2
 C      19.970196151      8.187294292      0.716796276
 H      18.835501246      8.123325131      0.488896472
 C      20.631535476      9.574673559      1.049332714
 H      21.734666022      9.340025606      1.245873072
 C      19.926348565     10.702417027      1.115995287
 H      20.146444603     10.484525489      2.441074636
 H      20.206335138     11.732004719      0.779911460
 C      20.594314770      7.052792213      1.220879635
 H      21.594702446      7.019137628      1.301104236
 H      19.763247978      6.228719941      1.301185403
