      10
    2604.00 to state    2 from traj    2 on state    3
 C      19.953828627      8.177650857      0.929522346
 H      18.952460440      8.431684831      0.602035626
 C      20.683694477      9.598828955      1.098195545
 H      21.680213901      9.532723195      0.855376426
 C      19.897339687     10.680079699      1.079933636
 H      19.735060670     11.075292349      2.094520147
 H      19.522818818     11.559157717      0.190797938
 C      20.645041938      7.009422579      1.111728040
 H      21.691386720      6.858453413      1.369744326
 H      20.010815109      6.086216163      1.052699957
