      10
    3772.00 to state    1 from traj    9 on state    2
 C      19.875094381      8.232875527      0.908199765
 H      18.749342581      8.042724286      0.911225602
 C      20.591095553      9.475707970      1.057083941
 H      21.702530417      9.326646557      0.876641002
 C      20.036195432     10.844250426      1.195715691
 H      19.091468014     10.903195204      1.569412772
 H      19.582532275     10.488550603      0.069174275
 C      20.700499517      7.054075239      1.073441345
 H      21.791959136      6.937693267      1.236486246
 H      20.399161387      6.153592558      1.321500421
