      10
    5196.00 to state    2 from traj   14 on state    1
 C      19.888629517      8.180423776      1.267766855
 H      18.714669002      8.174691993      1.174125771
 C      20.550392101      9.482659025      1.080350214
 H      21.382207223      8.986738771      0.796020495
 C      20.182119201     10.851647354      0.970851189
 H      19.688978482     10.799987768      1.992558226
 H      19.037213374     10.341142006      0.292937885
 C      20.637045218      7.101687004      0.930242454
 H      21.693395100      7.314023966      0.717344448
 H      20.136131491      6.121163870      0.828221460
