      10
    2228.00 to state    2 from traj    5 on state    3
 C      19.995696869      8.193658562      1.093898603
 H      18.965661579      8.192665464      1.288442372
 C      20.680668976      9.560406882      0.800157473
 H      21.697763944      9.594603130      1.031492542
 C      19.874730484     10.729060019      1.101777124
 H      19.695398230     11.565346249      0.339970450
 H      19.823615916     10.990728144      2.201944058
 C      20.613442234      6.996490198      1.155413594
 H      21.456823713      7.054397553      0.583742564
 H      20.137122137      5.983941390      1.531630992
