      10
     948.00 to state    3 from traj    3 on state    2
 C      19.941061002      8.124116571      1.172438679
 H      18.928532280      8.293483778      1.409404752
 C      20.619662228      9.573947681      0.912188477
 H      21.586641131      9.529322124      0.963782938
 C      19.962346864     10.815379232      1.035620345
 H      18.898418664     10.774937475      0.745901921
 H      20.476533833     11.579690094      1.595162530
 C      20.625416266      6.975634614      1.083160043
 H      21.628789168      6.766614219      1.633844008
 H      20.448743744      6.322734271      0.003085392
