      10
       4.00 to state    3 from traj    1 on state    2
 C      19.956367319      8.265854855      1.012024390
 H      18.923060677      8.139675566      0.858696808
 C      20.665031906      9.507826373      1.013907935
 H      21.597023280      9.583963747      0.827692666
 C      19.959139521     10.671370174      1.116556264
 H      18.970999713     10.402312156      1.072137191
 H      20.288527189     11.722198203      1.009914360
 C      20.607387863      7.080301794      1.059914410
 H      21.724318867      6.871648720      1.294559733
 H      19.993297889      6.113927948      1.301330448
