      10
    2584.00 to state    1 from traj    3 on state    2
 C      19.980826565      8.303572665      0.640271639
 H      19.473337136      7.886818275      1.553064898
 C      20.572203362      9.540564188      1.048105064
 H      21.615099363      9.183432528      1.297810237
 C      19.945708837     10.681038774      1.168963780
 H      18.987250019     10.801426995      0.804375705
 H      20.306284498     11.445545828      1.883375003
 C      20.621735193      7.033819490      1.186217231
 H      20.772085564      5.917861740      0.602452830
 H      21.149303954      7.190830887      2.132097381
