      10
     124.00 to state    3 from traj    1 on state    2
 C      19.933688403      8.226616742      1.091511562
 H      18.921969357      8.121688191      1.261938830
 C      20.649267820      9.542365518      1.110376570
 H      21.726853297      9.495442742      1.080063737
 C      19.949160301     10.723634185      1.002880078
 H      18.870453677     10.646047028      0.938098292
 H      20.439865583     11.701298227      1.013638461
 C      20.648627340      7.025737611      1.000811342
 H      21.653322256      6.888799200      1.062006782
 H      19.970592913      6.063792394      0.969545201
