      10
    2724.00 to state    1 from traj    3 on state    2
 C      19.977678604      8.183002030      0.879532502
 H      19.759397133      7.865212470      1.929343218
 C      20.628766978      9.590570830      1.136698519
 H      21.579652016      9.517342647      1.893514422
 C      19.914277235     10.779599302      0.982501101
 H      18.972668111     10.860838036      0.403655931
 H      20.211984101     11.597912255      1.692753451
 C      20.633528472      6.989943109      1.045164251
 H      20.086765510      6.189991949      0.481197197
 H      21.288047242      6.587827015      1.862571670
