      10
    2620.00 to state    1 from traj    4 on state    2
 C      19.982323798      8.318673612      0.873629904
 H      18.930773716      8.414739599      1.060883262
 C      20.745589252      9.479646526      1.135598657
 H      21.531171804      9.143119553      1.794561563
 C      19.907265123     10.683049634      1.003771610
 H      18.822607896     10.533122081      0.934718954
 H      20.294864778     11.550537094      1.337807013
 C      20.494598353      6.949795947      1.168411783
 H      21.139331413      7.225007260      0.108570854
 H      21.474928517      7.092842643      1.381759110
