      10
    1760.00 to state    2 from traj    2 on state    3
 C      20.052935490      8.076826786      0.833096282
 H      19.143329177      8.369963696      0.420340501
 C      20.634983073      9.604925581      0.978508251
 H      21.743307382      9.445998001      0.928364513
 C      19.907770635     10.759065938      1.198563278
 H      19.703470420     11.573090674      2.078303768
 H      19.595996307     11.389173943      0.225049934
 C      20.601987627      7.006317557      1.195819927
 H      21.284987327      6.676144168      1.996213200
 H      19.907447388      6.313559002      0.671911556
