      10
    4392.00 to state    1 from traj    6 on state    2
 C      19.984048597      8.155419686      1.098535419
 H      18.752091510      8.042945526      1.016592263
 C      20.407414067      9.568211443      1.170143719
 H      21.637080062      9.302349613      0.720398396
 C      19.891116977     10.716710629      1.016228421
 H      20.454972561     11.097493956     -0.023210148
 H      20.647067174     11.537496144      1.151417115
 C      20.747295334      7.061957580      1.015988125
 H      21.685834440      6.928107116      1.434203462
 H      20.214067027      6.198512928      0.882270517
