      10
    2524.00 to state    2 from traj    5 on state    3
 C      20.001082799      8.205124553      1.100167261
 H      19.029427803      8.266362884      1.039024831
 C      20.682817416      9.596854806      1.034783681
 H      21.680312774      9.200713083      0.998821933
 C      19.921961146     10.686839561      1.019187054
 H      19.376623888     11.164584026      0.034925878
 H      19.554578739     11.203731580      1.879741114
 C      20.582504956      7.045824904      1.075361316
 H      21.688938765      6.893675432      0.762768164
 H      20.159333684      5.989703437      1.323146660
