      10
    2160.00 to state    2 from traj    2 on state    3
 C      19.943929500      8.157373250      0.748317686
 H      18.798371213      8.280982358      0.803625249
 C      20.645837883      9.509435062      1.035542690
 H      21.778599785      9.504852252      1.068915066
 C      19.936735490     10.713072642      1.200899502
 H      18.882764837     10.759077804      0.989305913
 H      20.456150571     11.656603330      1.308052141
 C      20.664633300      7.109117748      1.177559924
 H      21.057972828      6.393708207      0.466703077
 H      20.483817482      6.672598424      2.212605497
