      10
    3128.00 to state    2 from traj    2 on state    3
 C      19.946260529      8.290814869      0.863186116
 H      18.785453933      8.166632958      0.572414245
 C      20.599118460      9.545982415      0.843118200
 H      21.419888552      9.740351532      0.267779928
 C      20.042968819     10.675336643      1.299339771
 H      19.094932501     10.420181514      1.826883677
 H      20.172141440     11.470468790      0.520316319
 C      20.636149026      7.016106335      1.218682390
 H      20.519252066      6.770634142      2.206482522
 H      21.066443877      6.227476699      0.710410099
