      10
    4232.00 to state    1 from traj    5 on state    2
 C      19.917250900      8.285823059      0.788385359
 H      19.020715888      8.255196009      0.670103014
 C      20.576561886      9.585506280      0.699066457
 H      21.669552824      9.800761171      0.702679239
 C      20.007971784     10.649764947      1.305242207
 H      18.943394291     10.621668585      1.389707837
 H      20.686058808     11.420155425      1.852421994
 C      20.535384912      6.882962999      1.335610304
 H      21.408594901      7.334651731      1.945561423
 H      21.577723873      6.853508451      0.696079396
