10
-154.75220 frame 0   xyz file generated by terachem
   C      19.9693463949    8.2770291178    1.1011448108
   H      18.8903364400    8.4109240476    1.0709372703
   C      20.6747666380    9.5364792159    1.0568660142
   H      21.7497002575    9.5096697269    1.0062816684
   C      20.0250501891   10.6991882748    1.2111616162
   H      18.9521458945   10.7376447750    1.2720806040
   H      20.5494473993   11.6321864337    1.2992686743
   C      20.4764654811    6.9761889352    1.0703426805
   H      20.8383607682    7.4072634808    0.0495053385
   H      21.4610758135    6.7834616064    1.4921216449
