10
-154.78001 frame 0   xyz file generated by terachem
   C      19.8955676498    8.2482262037    0.7359369430
   H      18.8440054198    8.3068146145    0.4943180016
   C      20.5557963156    9.4899338154    1.0152126639
   H      21.6304141932    9.4551186728    1.0686691525
   C      19.9291047055   10.7065560611    1.2504389873
   H      18.8759992368   10.7721917740    1.4457863804
   H      20.4604896999   11.6196808305    1.0510544622
   C      20.5355321073    7.0475930604    1.1006235104
   H      21.3457039641    6.6206434120    0.5258592309
   H      20.3765985939    6.5793519237    2.0647081877
