10
-154.74204 frame 0   xyz file generated by terachem
   C      20.1439811642    8.2187516240    1.4637212946
   H      19.2312155349    8.0675661460    0.7220064999
   C      20.5835895811    9.5936047595    1.3516036122
   H      21.4930325721    9.8039816203    1.8943804042
   C      19.9563752360   10.6006099189    0.7558619465
   H      19.0251119866   10.4681760572    0.2322421602
   H      20.3429043334   11.6021433070    0.8087715767
   C      20.4046729336    7.1003121277    0.6856804269
   H      20.3345343729    6.1032612962    1.1013482060
   H      20.5242469592    7.1185396481   -0.3962306662
