10
-154.69140 frame 0   xyz file generated by terachem
   C      20.1221527994    8.2486355898    0.8483602001
   H      19.0148475459    8.2586322466    0.8132396483
   C      20.6158049339    9.5770314445    1.0418516348
   H      21.6571762192    9.5464939869    1.3476434139
   C      19.8954144463   10.7242382264    1.0991296707
   H      19.4653078955   11.1350223009    2.0006115370
   H      19.8832696788   11.4638934689    0.3100860844
   C      20.6024107718    6.9134981545    1.1222320525
   H      21.6885263103    6.7102813232    1.3054981272
   H      19.9518290809    6.4344064734    1.8793159212
