10
-154.62099 frame 0   xyz file generated by terachem
   C      20.0050447420    8.2235185050    0.8235755940
   H      18.8675606420    8.3739960210    0.6693088700
   C      20.6191476830    9.5657126400    0.9635813020
   H      21.6068864030    9.6677112410    1.5594844300
   C      19.9358696170   10.6548513380    1.2127376150
   H      19.3142109420   11.1907247540    1.7270304100
   H      19.8085547420   11.2620439600    0.1100553670
   C      20.6316094330    7.0286783730    1.1864257450
   H      21.6418528830    7.0854162010    1.2847588360
   H      20.2118220930    5.8824135800    1.2120618280
