10
-154.75223 frame 0   xyz file generated by terachem
   C      19.9231068556    8.2023637129    0.9484409578
   H      18.8492816072    8.1950589373    1.0232327976
   C      20.5893911002    9.4837732045    0.9250074281
   H      21.6601871047    9.3844776888    0.7616580499
   C      20.0410386866   10.7667108905    0.9804100924
   H      19.5692843137   10.3399185520    0.0041955024
   H      19.1108291409   10.9159793164    1.5253969212
   C      20.6237561509    7.0611449504    1.0171847829
   H      21.6973301552    7.0586669979    0.9525652550
   H      20.1456965760    6.1106130502    1.1640577516
