10
-154.89030 frame 0   xyz file generated by terachem
   C      19.9850659691    8.2419576454    1.3455193112
   H      18.9174509623    8.2570245907    1.5739155877
   C      20.5834707926    9.5017549050    1.2784418887
   H      21.6635010669    9.4990911009    1.4402823083
   C      19.9462563991   10.6741730077    0.9753527514
   H      19.0150446961   10.6682061691    0.4390852251
   H      20.4153225305   11.6266485040    1.1302013934
   C      20.6080724448    7.0492261150    1.0986237480
   H      21.5069643287    7.0130818693    0.5110614074
   H      20.1531744988    6.1122069190    1.3559763238
