10
-154.74102 frame 0   xyz file generated by terachem
   C      19.9600842644    8.3933856415    1.3665689704
   H      19.0397090608    8.4804695229    1.9270832098
   C      20.7997232980    9.4898417218    1.2868325809
   H      21.7940766721    9.4082980444    0.8925585413
   C      19.8383307928   10.4205595252    0.7436291955
   H      18.9525399102   10.6745303106    1.2973717110
   H      19.8641029197   10.7324806336   -0.2857997112
   C      20.2837311215    7.1706682856    0.6689431369
   H      20.5782289019    6.3235330066    1.2675582573
   H      20.7043806896    7.2400592948   -0.3156606089
