10
-154.77495 frame 0   xyz file generated by terachem
   C      19.9945531520    8.1328684871    1.0635226392
   H      18.9248574989    8.1079385315    1.1888011942
   C      20.5355916732    9.4807907276    1.0486491462
   H      21.6582395154    9.4368722351    0.9325864907
   C      20.0251817800   10.7390975590    1.0752039438
   H      19.7580084520   11.3187799919    1.9727871408
   H      19.8842473404   11.3676298676    0.1793489236
   C      20.6476827754    6.9731967217    0.9489872276
   H      21.7142184619    6.9211678504    0.8198183960
   H      20.1111313788    6.0439049381    0.9828000751
