10
-154.75767 frame 0   xyz file generated by terachem
   C      20.1531033288    8.1931153420    1.1410883516
   H      19.0600554550    8.1793797437    1.2169319119
   C      20.6854986877    9.5257246505    1.1386567231
   H      21.7557459445    9.6089273013    1.1126384399
   C      19.8898555571   10.6071957406    1.1627780265
   H      18.8180495140   10.5176151507    1.1666331919
   H      20.2899883517   11.6037354346    1.1833722364
   C      20.9322793780    7.0621322108    0.9038400971
   H      20.5778238044    6.1106067470    1.2959881238
   H      20.2349365188    7.0861653520   -0.0332583781
