10
-154.75225 frame 0   xyz file generated by terachem
   C      19.9584522539    8.2153149572    1.3129942537
   H      18.9971461005    8.2326301554    1.7969401520
   C      20.4783096134    9.4627590320    0.8026438183
   H      21.4862762026    9.3553006580    0.4079819349
   C      19.9162622402   10.7402302045    0.8474205526
   H      20.0278747827   10.4812786880    1.9786240216
   H      18.8317655983   10.8357205511    0.8392288478
   C      20.5853212252    7.0546913682    1.0723973770
   H      20.1497732052    6.1107617842    1.3416008282
   H      21.5404032029    7.0260671415    0.5791008609
