10
-154.75221 frame 0   xyz file generated by terachem
   C      19.9343200677    8.2514146631    1.1072699257
   H      18.8842670981    8.2963023281    1.3398842374
   C      20.6486571463    9.4993682712    0.9691677658
   H      21.6781349917    9.3484174357    0.6526088997
   C      20.1740519629   10.8075829239    1.0829670472
   H      19.5468371985   10.3936578715    0.1923375960
   H      19.3411670850   11.0094988519    1.7538683559
   C      20.5819065170    7.0776800330    1.0816899228
   H      21.6322837745    7.0217507881    0.8577214070
   H      20.0847463774    6.1520517475    1.3040204506
