10
-154.72799 frame 0   xyz file generated by terachem
   C      19.9657191608    8.1873755956    1.0627849274
   H      18.8782415135    8.1085954652    0.9396755418
   C      20.5655687850    9.5068933432    0.9341518149
   H      21.6776439250    9.3446065155    0.5588174668
   C      20.0901624000   10.7758454252    1.1561153918
   H      19.5534821828   10.4004680571    0.0758892121
   H      19.2319840993   11.2515618356    1.5900984272
   C      20.6118421938    7.0216439970    1.0455816746
   H      21.6883357471    6.9394357447    1.0333510062
   H      20.0856555820    6.0826473308    1.1832115162
