10
-154.75219 frame 0   xyz file generated by terachem
   C      20.1256134149    8.3257236913    1.3089505399
   H      19.4249270897    8.5013205985    2.1218871370
   C      20.6639367397    9.5576320121    0.7799291587
   H      21.4202544846    9.4893096809    0.0172210353
   C      20.1395913047   10.7435077158    1.1216358952
   H      19.3740216798   10.8216463531    1.8728298819
   H      20.4452292947   11.6554986301    0.6440262850
   C      20.4550030648    7.0071619870    0.9895221138
   H      20.7974921790    6.7788671472   -0.0178658261
   H      21.4645739569    7.4224927947    1.3968528884
