10
-154.74960 frame 0   xyz file generated by terachem
   C      20.0064259859    8.1248806906    1.1451389336
   H      18.9532746278    8.0344399247    1.3501066598
   C      20.4105324295    9.5092990241    1.0188515014
   H      21.5246338335    9.5215464560    0.8388350888
   C      19.8682651339   10.7418726809    1.0972712520
   H      19.5272522560   11.3353384804    0.2380833719
   H      19.7698856634   11.3437799697    2.0110122309
   C      20.7280426311    7.0052460348    1.0458895283
   H      21.7852307231    7.0120816840    0.8453669997
   H      20.2605152758    6.0465220828    1.1645324997
