10
-154.74880 frame 0   xyz file generated by terachem
   C      19.9856626737    8.2341072140    0.9219924666
   H      18.9039495703    8.3136007034    0.9415584704
   C      20.6159451182    9.5336584196    1.0112204575
   H      21.6920585860    9.5773834175    0.9884848754
   C      19.8904364683   10.6487924392    1.0431726417
   H      18.8153874472   10.6176538220    1.0676515973
   H      20.3426644275   11.6236404932    1.0334236837
   C      20.5624938386    6.9464857385    0.9339242121
   H      21.1718956223    7.2311926028    1.8817836733
   H      21.5712280248    6.9796469407    0.4572754920
