10
-154.56530 frame 0   xyz file generated by terachem
   C      19.9386474940    8.1933861550    1.1657185850
   H      18.8979522530    8.1768956140    0.9512178650
   C      20.6165610480    9.4724037600    1.1558217830
   H      21.8440232190    9.5199119340    1.2572123780
   C      19.9184932840   10.6927494830    0.9620972000
   H      19.6511803160   11.1689700100    1.8489411490
   H      19.4662701920   11.6028334020   -0.1309392610
   C      20.6865236150    7.1182321610    0.9642129230
   H      21.6623661100    6.9271477490    0.9106197970
   H      20.3042572750    6.0138924900    0.9818210040
