10
-154.75223 frame 0   xyz file generated by terachem
   C      20.0147636942    8.2397152877    0.8943161728
   H      18.9324654456    8.3007550927    0.8062081915
   C      20.6128830426    9.5282825961    1.1551464855
   H      21.6720627910    9.5617620473    1.3440700923
   C      19.9008949494   10.6583575487    1.0373017217
   H      18.8441476704   10.6374393921    0.8390267198
   H      20.3607957231   11.6262093650    1.1091574725
   C      20.6137311445    6.9787916284    0.8532277768
   H      21.6533531309    6.8990696903    0.5409535405
   H      20.8214171084    7.3141390258    1.9496039936
