10
-154.62844 frame 0   xyz file generated by terachem
   C      20.1285714830    8.1693361970    0.8890598760
   H      19.0565304580    8.5521657650    0.8267143090
   C      20.5700120630    9.5983040790    0.7305209060
   H      21.6189315140    9.6798620440    0.2775792200
   C      19.9659774920   10.6720718710    1.2993152880
   H      18.9381640340   10.5357891050    1.5234864030
   H      20.2576851460   11.7625563170    1.2325718630
   C      20.5178110960    7.0311216300    1.2550570440
   H      20.7965316830    6.6835794460    2.2055651150
   H      20.8953695750    6.2712631810    0.6423315250
