10
-154.73421 frame 0   xyz file generated by terachem
   C      20.0013693193    8.1948511757    1.2650624445
   H      19.0733202441    8.2118461632    1.8281100521
   C      20.6282728747    9.4700841680    0.9116645450
   H      20.9570142272    9.8355658911    1.9766487620
   C      20.0667293263   10.7590983468    1.0395513477
   H      20.4304136003   11.5769668649    0.4359788174
   H      19.3782535663   11.0577383378    1.8281108239
   C      20.5415902632    7.0255696188    0.9759529561
   H      21.4711333853    6.9616821868    0.4407725466
   H      20.0697712393    6.1014562889    1.2603129868
