10
-154.75765 frame 0   xyz file generated by terachem
   C      19.9456465869    8.2256549811    1.0764422482
   H      18.8725655419    8.2386026772    1.1117630398
   C      20.5948377683    9.5050008207    1.0691441366
   H      21.6873681211    9.4208869347    1.0792387334
   C      19.9084877782   10.7059990159    0.9005181181
   H      20.5442699059   10.6417769403   -0.0773484220
   H      20.3698828674   11.6127163428    1.2873174218
   C      20.6402593609    7.0772386452    1.0355966573
   H      21.7142660224    7.0711099399    0.9756717197
   H      20.1539661589    6.1200840882    1.0653695231
