10
-154.75876 frame 0   xyz file generated by terachem
   C      20.1565410400    8.0694372096    1.5991258222
   H      19.8230142415    7.5091633921    2.4547511605
   C      19.9086958935    9.4882509591    1.5100398620
   H      19.3643531902    9.8247008595    2.4042373658
   C      20.3067701694   10.3084470652    0.4566516274
   H      20.7665105161   11.0924165360    1.0988325754
   H      19.3322567345   10.8211097941    0.3119603453
   C      20.8094579357    7.4771907372    0.5690301504
   H      21.0136118742    6.4221720359    0.5541741753
   H      21.1150762528    8.1155646713   -0.2413688133
