10
-154.89011 frame 0   xyz file generated by terachem
   C      19.9984270325    8.2256461306    1.2202112662
   H      18.9237376891    8.2385886161    1.4148585081
   C      20.5993083527    9.4859980559    1.2097771688
   H      21.6735901443    9.4796499431    1.4048976293
   C      19.9704842752   10.6667650098    0.9268649684
   H      19.0510379915   10.6764610514    0.3710636338
   H      20.4334391748   11.6140352701    1.1256239804
   C      20.6255344145    7.0399818018    0.9457725523
   H      21.5343774896    7.0210230482    0.3726559889
   H      20.1619928508    6.0958851709    1.1580203428
