10
-154.75224 frame 0   xyz file generated by terachem
   C      20.0105476337    8.2152385645    1.0673104070
   H      18.9357121099    8.2974876072    1.2134021919
   C      20.6220083042    9.4960550403    0.7988670782
   H      21.6734549805    9.5120838192    0.5682416366
   C      19.9406126492   10.6375339503    0.9731611134
   H      18.8928351676   10.6331377581    1.2155091849
   H      20.4159108549   11.5976982634    0.8982293316
   C      20.5832139667    6.9417338247    1.0609449380
   H      21.6347523286    6.8401229447    1.3244000654
   H      20.7465140897    7.2888176255   -0.0392562860
