10
-154.59602 frame 0   xyz file generated by terachem
   C      20.0097922970    8.1422180490    0.9506837380
   H      18.9797851600    8.2865011250    0.7073657940
   C      20.4715788950    9.6136451970    1.2161101020
   H      21.6372267380    9.3171913920    1.3706720420
   C      19.9769431590   10.7720949270    1.0418717210
   H      18.9330097520   11.1937432500    0.8238651980
   H      20.8039318140   11.6584564030    0.9222889060
   C      20.6605732450    6.9850526600    1.0231508480
   H      21.2659168450    6.4037068630    0.2908471720
   H      20.7046280150    6.1183064430    1.8977741430
