10
-154.75765 frame 0   xyz file generated by terachem
   C      20.0385647570    8.2384436190    1.0367704647
   H      18.9568989109    8.2755951369    1.2083499553
   C      20.6244881967    9.5450741402    0.9405123062
   H      21.6778817007    9.5778691055    0.7346876633
   C      19.8983399871   10.6622613576    1.1062454236
   H      20.3335925803   11.6396446229    1.0120640497
   H      18.8494739388   10.6235911905    1.3399343402
   C      20.7928743425    7.0673320831    1.0763795407
   H      20.3137520654    6.1434677825    0.7579339138
   H      20.3239687197    7.1000714728    2.1458192636
