12
Family_1 [H]C1=C([H])C2([H])[C-]([H])C2([H])[C+]1[H] | RMSD: 0.4200 | 6295.00 to state    1 from traj    2 on state    2
C       0.59437139     -0.84061745     -0.25550124
C       1.77691822     -1.04379879      0.58499535
C       2.42956320      0.12722035     -0.00573484
C       1.56966433      1.30722737     -0.50415237
C       0.19980889      1.35792334     -0.02522382
C      -0.39334964      0.17717244      0.09901702
H       0.85245895     -1.21698185     -1.28432280
H       2.16223366     -2.11064050      0.79489466
H       3.38226142      0.15497959     -0.47870433
H       2.10194144      2.13974805     -0.49146390
H      -0.24764821      2.31494493      0.10951634
H      -1.29905844      0.11371997      0.52579817
