12
Family_1 [H]C1=C([H])C2([H])[C-]([H])C2([H])[C+]1[H] | RMSD: 0.5532 | 13320.00 to state    1 from traj    9 on state    2
C       0.38386388     -1.05619949      0.15562414
C       1.80308304     -0.97697349      0.28918023
C       2.57328330      0.23458287     -0.21266491
C       1.63210623      1.43989177     -0.03119232
C       0.31331646      1.39200789     -0.19199883
C      -0.32906961      0.07887533     -0.16962842
H      -0.14690383     -2.01034177      0.31749788
H       2.13490563     -1.70777225      1.01509299
H       2.02861174      0.14679435     -1.27410797
H       2.15694382      2.49262565      0.03446442
H      -0.24248623      2.25479684      0.13885965
H      -1.35733337     -0.10274227     -0.41168637
