12
Family_1 [H]C1=C([H])C2([H])[C-]([H])C2([H])[C+]1[H] | RMSD: 0.2819 | 12005.00 to state    1 from traj    4 on state    2
C       0.58476215     -0.95687564     -0.03469722
C       1.88779800     -0.96143900      0.67758788
C       2.28847362      0.11625922     -0.35629903
C       1.62821661      1.36250651     -0.19384679
C       0.21238327      1.36666225     -0.08059750
C      -0.38637994      0.22338868     -0.13779167
H       0.29692898     -1.81099177     -0.65199285
H       2.43027874     -1.82694896      0.46731871
H       3.14972464     -0.00044128     -0.91260003
H       2.30720690      1.86934441      0.40862584
H      -0.23226443      2.26624592      0.18746880
H      -1.45578598      0.11957759     -0.09617492
