12
Family_1 [H]C1=C([H])C2([H])[C-]([H])C2([H])[C+]1[H] | RMSD: 0.4337 | 19405.00 to state    1 from traj    2 on state    2
C       0.45185666     -0.99943861     -0.32278278
C       1.87118555     -0.89920185      0.60646362
C       2.42544731      0.18042988     -0.18417829
C       1.60782328      1.27503456     -0.24893389
C       0.36491409      1.41818203     -0.07180723
C      -0.46359635      0.06688128      0.12561681
H       0.56142511     -1.38213617     -1.30907898
H       1.81261632     -1.25586735      1.54678601
H       3.21899934      0.01227861     -0.83582141
H       2.10834143      2.16489903     -0.55971572
H      -0.23734603      2.33149591      0.08152220
H      -1.47289598      0.04033383      0.12121412
