12
Family_1 [H]C1=C([H])C2([H])[C-]([H])C2([H])[C+]1[H] | RMSD: 0.4458 | 5005.00 to state    1 from traj    2 on state    2
C       0.38857976     -1.08028726     -0.11647361
C       1.81351332     -1.00905438      0.35937459
C       2.44774148      0.27905883     -0.01336541
C       1.65092323      1.49337576     -0.20976855
C       0.31153273      1.36137228     -0.12189831
C      -0.28132554      0.08647149     -0.06148954
H       0.05506468     -2.00148617      0.20855302
H       2.12585002     -1.85647987      0.95112985
H       2.25407178      0.06479559     -0.99171871
H       2.10045698      2.30584958     -0.41400536
H      -0.06929707      2.31497722     -0.12144131
H      -1.34883560      0.02226319      0.22264363
