12
Family_1 [H]C1=C([H])C2([H])[C-]([H])C2([H])[C+]1[H] | RMSD: 0.4608 | 6750.00 to state    1 from traj    2 on state    2
C       0.53506557     -0.87931030     -0.18363510
C       1.88888149     -0.85582776      0.60602707
C       2.36620514      0.05518677     -0.32803342
C       1.64143757      1.25934117     -0.26851002
C       0.21191111      1.29546370      0.08855264
C      -0.44869124      0.20510051     -0.14060183
H       0.49433186     -1.81717610     -0.70207050
H       2.09743558     -0.99290616      1.63371657
H       3.27843793      0.00178338     -0.62164749
H       2.36887963      2.01496816     -0.24282242
H       0.01368222      2.27346933      0.71853479
H      -1.51307362     -0.02272663     -0.18486891
