12
Family_1 [H]C1=C([H])C2([H])[C-]([H])C2([H])[C+]1[H] | RMSD: 0.6383 | 4810.00 to state    1 from traj    6 on state    2
C       0.37822696     -1.11342330      0.17917847
C       1.76475727     -0.95919406      0.26874609
C       2.51840951      0.19813985     -0.17826148
C       1.67053165      1.49989954     -0.07954967
C       0.25576668      1.37801192     -0.14435344
C      -0.24533550      0.08176371     -0.28421924
H      -0.08658807     -1.86729402      0.75974216
H       2.30737115     -1.64506062      0.91429102
H       2.04418843      0.28049178     -1.34747941
H       2.10945846      2.29604222      0.16901175
H      -0.08908526      2.33341851      0.40964438
H      -1.30377232     -0.00266645     -0.15829831
