12
Family_1 [H]C1=C([H])C2([H])[C-]([H])C2([H])[C+]1[H] | RMSD: 0.5186 | 6830.00 to state    1 from traj    5 on state    2
C       0.31888992     -1.08469852      0.02827598
C       1.84029537     -0.97333495      0.27502335
C       2.41218478      0.18148077      0.01302350
C       1.60940747      1.36826629     -0.21749257
C       0.24819622      1.39756253     -0.32206579
C      -0.25890025      0.12760419      0.10798764
H       0.47506707     -0.90973590     -1.15970210
H       2.54023984     -1.87807140      0.40659284
H       3.47369360      0.23527115     -0.13996810
H       2.14752215      2.31108609     -0.19124555
H      -0.39243359      2.28141529     -0.21166349
H      -1.20964788      0.16901347      0.57475137
