12
Family_1 [H]C1=C([H])C2([H])[C-]([H])C2([H])[C+]1[H] | RMSD: 0.4503 | 7505.00 to state    1 from traj    3 on state    2
C       0.55658623     -0.95571195     -0.04410571
C       1.89977189     -1.03571957      0.54647457
C       2.42123371      0.13068670     -0.37580638
C       1.70577014      1.37284988     -0.17353070
C       0.25219792      1.38856742     -0.03154367
C      -0.54155642      0.17195937     -0.12277790
H       0.19287887     -1.88030589     -0.57598022
H       1.91705217     -0.93457253      1.64249486
H       3.18328270     -0.03504970     -0.95807803
H       2.07658709      2.22943191      0.16292321
H      -0.29331431      2.33811354      0.24646994
H      -1.51875425     -0.17295588     -0.21381756
