12
Family_1 [H]C1=C([H])C2([H])[C-]([H])C2([H])[C+]1[H] | RMSD: 0.1716 | 18600.00 to state    1 from traj    9 on state    2
C       0.64127957     -1.09187317     -0.12293855
C       1.92010059     -1.02425521      0.71041974
C       2.21036683      0.03635299     -0.34661932
C       1.57726722      1.46526782     -0.23005426
C       0.21682186      1.49646587      0.06077687
C      -0.34062694      0.23636037     -0.16353926
H       0.28091930     -1.88369216     -0.65600707
H       2.34081181     -1.96739347      0.99584057
H       3.18641878      0.00320842     -0.79048430
H       2.36557668      2.25779419     -0.37126998
H      -0.38061549      2.43383492      0.14582844
H      -1.41564796      0.15652037     -0.32269590
