12
Family_1 [H]C1=C([H])C2([H])[C-]([H])C2([H])[C+]1[H] | RMSD: 0.5127 | 5250.00 to state    1 from traj    2 on state    2
C       0.42143970     -1.05079475      0.09875429
C       1.81480096     -1.03533231      0.34183225
C       2.49371504      0.21336315     -0.14892192
C       1.65291122      1.47691225     -0.04375299
C       0.26126444      1.40050310     -0.24457666
C      -0.29006339      0.13314011     -0.09962670
H      -0.15235279     -2.01902545      0.17508382
H       2.61241144     -1.80778042      0.37034509
H       1.99301104     -0.00414132     -1.01338523
H       2.13263792      2.37683011     -0.04319965
H      -0.38437019      2.22320248     -0.21410262
H      -1.35931423     -0.00084583     -0.22185183
