12
Family_1 [H]C1=C([H])C2([H])[C-]([H])C2([H])[C+]1[H] | RMSD: 0.5344 | 13580.00 to state    1 from traj    4 on state    2
C       0.45327394     -1.25122004     -0.19456933
C       1.66548245     -0.83560178      0.44924632
C       2.41775901      0.23902872     -0.26884377
C       1.72996848      1.50841814     -0.02234271
C       0.38098179      1.31369196     -0.09641772
C      -0.32339615      0.09651749     -0.03954937
H      -0.10966605     -2.14701308      0.11735489
H       1.96688535     -0.98201861      1.49274077
H       2.76536275      0.04693597     -1.37311148
H       2.18268414      2.41665940     -0.49344027
H      -0.22640073      2.11043147      0.00961662
H      -1.37939051      0.12108312      0.20752282
