12
Family_1 [H]C1=C([H])C2([H])[C-]([H])C2([H])[C+]1[H] | RMSD: 0.3670 | 7190.00 to state    1 from traj    2 on state    2
C       0.55997670     -0.89580533     -0.17683014
C       1.83402663     -1.04165095      0.62342842
C       2.25878516      0.09704638     -0.31197177
C       1.60941730      1.35905667     -0.28193952
C       0.27945681      1.38255084      0.03582865
C      -0.32819782      0.19147445     -0.07700663
H       0.45032900     -1.93601580     -0.66440772
H       2.39730290     -0.97336010      1.47521094
H       3.24542536     -0.05889095     -0.72875702
H       2.38115438      2.22601361     -0.00894226
H      -0.45285243      2.14744480      0.17478967
H      -1.50395429     -0.09932267     -0.09638774
