12
Family_1 [H]C1=C([H])C2([H])[C-]([H])C2([H])[C+]1[H] | RMSD: 0.5181 | 9565.00 to state    1 from traj    2 on state    2
C       0.45400477     -1.12425134     -0.20601125
C       1.63678412     -0.77098231      0.45079962
C       2.52531716      0.23368350     -0.21115193
C       1.69555688      1.34102268     -0.17313919
C       0.32843338      1.40274867      0.08336211
C      -0.30594281     -0.00639387     -0.08246555
H      -0.09211134     -2.03956468     -0.06221721
H       1.76780374     -0.99767584      1.49397059
H       2.78640440      0.03896498     -1.21729672
H       2.14791855      2.21050494     -0.80250432
H      -0.17848099      2.37617380      0.24184840
H      -1.35221684     -0.08181812     -0.09670583
