12
Family_1 [H]C1=C([H])C2([H])[C-]([H])C2([H])[C+]1[H] | RMSD: 0.5561 | 4080.00 to state    1 from traj    6 on state    2
C       0.34962690     -1.14109232     -0.02928293
C       1.83185805     -0.95536434      0.34537863
C       2.44608261      0.20623545     -0.06594301
C       1.62094728      1.31417956     -0.31264644
C       0.29229581      1.35043562     -0.11116199
C      -0.37831622      0.19280385      0.06002398
H       0.60711450     -0.79141109     -1.03387945
H       2.63995135     -1.64569555      0.66780745
H       3.48374215      0.32076570      0.25074554
H       2.03049412      2.34951451     -0.50204395
H      -0.27614697      2.33657927     -0.19101217
H      -1.36040403      0.23122620      0.06789018
