12
Family_1 [H]C1=C([H])C2([H])[C-]([H])C2([H])[C+]1[H] | RMSD: 0.3135 | 12360.00 to state    1 from traj   11 on state    2
C       0.48991073     -0.95877887     -0.14270874
C       1.86453996     -1.01028452      0.57623432
C       2.43759501      0.07984153     -0.26236654
C       1.63575683      1.36601658     -0.25310995
C       0.15912472      1.45780568     -0.00069545
C      -0.33518679      0.18029130     -0.06858967
H       0.46449667     -1.66803301     -0.92870838
H       2.21311637     -1.52403633      1.57665846
H       3.27749559     -0.21145210     -1.00001675
H       2.25728126      2.26166750     -0.18181820
H      -0.66165153      2.29226999      0.12620839
H      -1.48941385     -0.10930910      0.11526442
