12
Family_1 [H]C1=C([H])C2([H])[C-]([H])C2([H])[C+]1[H] | RMSD: 0.4592 | 8885.00 to state    1 from traj    5 on state    2
C       0.50640063     -1.13084702     -0.05996163
C       1.80022608     -0.93494788      0.41127024
C       2.39852412      0.15739327     -0.19623231
C       1.67453642      1.38005502     -0.26569678
C       0.23653077      1.40874098     -0.06965893
C      -0.42783835      0.14154430      0.08056339
H       0.48148624     -0.96402318     -1.16459740
H       2.02797790     -1.55639677      1.36976899
H       3.40342274      0.26497211     -0.31503862
H       2.38955105      2.11428464     -0.48669322
H      -0.21572735      2.37068249      0.00977869
H      -1.27039961     -0.08081437     -0.31952623
