12
Family_1 [H]C1=C([H])C2([H])[C-]([H])C2([H])[C+]1[H] | RMSD: 0.5264 | 4825.00 to state    1 from traj    2 on state    2
C       0.42771834     -1.13993260      0.14772610
C       1.77851336     -1.00210051      0.32601801
C       2.59421498      0.15030591     -0.21885853
C       1.65103747      1.52755032     -0.07946726
C       0.25938446      1.43775547     -0.05131483
C      -0.32573935      0.13296635     -0.22434591
H      -0.10856035     -1.98301817      0.15163074
H       2.19386032     -1.64636455      1.17098689
H       2.08755473      0.15338875     -1.44845130
H       2.09408643      2.48624080     -0.21898011
H      -0.43789456      2.27370316     -0.12443295
H      -1.35713961     -0.14338586     -0.43078874
