12
Family_1 [H]C1=C([H])C2([H])[C-]([H])C2([H])[C+]1[H] | RMSD: 0.3412 | 5405.00 to state    1 from traj    5 on state    2
C       0.50420262     -0.98428356     -0.01168730
C       1.91193144     -1.04461563      0.50819552
C       2.52345983      0.11648953     -0.31220071
C       1.59435679      1.35917698     -0.11326716
C       0.19536118      1.39323931     -0.17792202
C      -0.53377547      0.23608221      0.02227469
H       0.69280364     -1.22388858     -1.05758143
H       2.42348217     -1.73754351      1.30607961
H       3.30794650     -0.23323940     -0.88782988
H       2.14936553      2.28906600     -0.11103599
H      -0.17935155      2.39700305     -0.08194974
H      -1.66321235      0.01207169     -0.25402467
