12
Family_1 [H]C1=C([H])C2([H])[C-]([H])C2([H])[C+]1[H] | RMSD: 0.5084 | 5575.00 to state    1 from traj    2 on state    2
C       0.59697405     -0.90972813     -0.28839809
C       1.72776953     -1.03884446      0.59797076
C       2.32243333      0.17168684     -0.05463272
C       1.63901070      1.26449385     -0.36587372
C       0.14251231      1.40530086     -0.14015268
C      -0.28284608      0.17102884      0.10881864
H       0.72594435     -1.12411863     -1.24757359
H       2.27968760     -1.89878813      0.75988354
H       3.30768376      0.21492034     -0.42792120
H       2.22377996      2.16190150     -0.69434744
H      -0.25023171      2.37627512      0.15077379
H      -0.96382905     -0.08193320      1.05991018
