12
Family_1 [H]C1=C([H])C2([H])[C-]([H])C2([H])[C+]1[H] | RMSD: 0.5003 | 5755.00 to state    1 from traj    2 on state    2
C       0.57504691     -0.97183441     -0.24205158
C       1.71670145     -0.98837712      0.57432791
C       2.24879761      0.16576630     -0.06456789
C       1.68652165      1.29980422     -0.34818910
C       0.14683847      1.39442911     -0.18406372
C      -0.24032310      0.14002247      0.15067725
H       0.75513736     -1.02757682     -1.44529549
H       2.27021855     -1.97305461      0.69808132
H       3.26996516      0.26407563     -0.45307390
H       2.41269154      2.34878933     -0.53288724
H      -0.28006860      2.34830447      0.15594931
H      -0.95869347     -0.02478878      0.83953817
