12
Family_1 [H]C1=C([H])C2([H])[C-]([H])C2([H])[C+]1[H] | RMSD: 0.5803 | 7790.00 to state    1 from traj    4 on state    2
C       0.37965901     -1.12085678      0.27327871
C       1.74175799     -0.97858829      0.25560247
C       2.53200467      0.29846274     -0.25159524
C       1.68006305      1.43018669      0.01120517
C       0.28891326      1.40146724     -0.25746430
C      -0.26456346      0.11045813     -0.16246974
H      -0.10415711     -2.04383158      0.18963311
H       2.45772253     -1.73474065      0.65402583
H       2.04392242      0.02074098     -1.36871804
H       2.18153159      2.35868583      0.53026220
H      -0.43712752      2.23806794     -0.12481604
H      -1.34474970     -0.11045939     -0.40864737
