12
Family_1 [H]C1=C([H])C2([H])[C-]([H])C2([H])[C+]1[H] | RMSD: 0.4407 | 6830.00 to state    1 from traj    4 on state    2
C       0.44721203     -1.12931950     -0.24045206
C       1.72795477     -0.93730706      0.60692651
C       2.24352125      0.16582208     -0.12223770
C       1.62595661      1.41037409     -0.33882965
C       0.27348431      1.48940426     -0.04099871
C      -0.21413506      0.07589221     -0.03076225
H       0.54156183     -1.82980127     -0.99169178
H       2.38818105     -1.76606531      0.72616170
H       3.43190097      0.30602186     -0.48109856
H       2.23030137      2.28526966     -0.50760414
H      -0.07186045      2.57525295      0.25645610
H      -0.69826058     -0.05263881      0.88550373
