12
Family_1 [H]C1=C([H])C2([H])[C-]([H])C2([H])[C+]1[H] | RMSD: 0.4698 | 7630.00 to state    1 from traj    4 on state    2
C       0.40784148     -1.09042348     -0.21702418
C       1.85780254     -0.92310399      0.58279824
C       2.44339862      0.13563613     -0.32392180
C       1.66741060      1.37786409     -0.13674990
C       0.28407494      1.39746062     -0.09915836
C      -0.39434975      0.10635262      0.00577805
H       0.23488860     -1.81671357     -0.97336472
H       1.94584987     -1.08047670      1.62244506
H       3.31658608      0.22475611     -0.87147665
H       2.04005232      2.46178775      0.00621379
H      -0.19588107      2.36260680     -0.19570904
H      -1.45220933      0.21304600      0.56085894
