12
Family_1 [H]C1=C([H])C2([H])[C-]([H])C2([H])[C+]1[H] | RMSD: 0.3474 | 12335.00 to state    1 from traj    2 on state    2
C       0.55150151     -1.09737954     -0.20080249
C       1.70554871     -0.80629324      0.58913980
C       2.23936297      0.13236735     -0.23395027
C       1.61528565      1.39920238     -0.28893414
C       0.32382996      1.36722066      0.13957808
C      -0.15990858      0.14892083     -0.08579570
H       0.47251745     -2.16046945     -0.82760200
H       2.02960097     -1.38977786      1.41483636
H       2.76524978     -0.41086281     -1.26606147
H       2.13441962      2.32509678     -0.32566893
H      -0.32071335      2.22614637      0.20465003
H      -1.30429345      0.10367061     -0.33227933
