12
Family_1 [H]C1=C([H])C2([H])[C-]([H])C2([H])[C+]1[H] | RMSD: 0.4406 | 8985.00 to state    1 from traj    4 on state    2
C       0.52605668     -0.97133505     -0.02582106
C       1.83752894     -0.94989678      0.58610359
C       2.30653823      0.11744417     -0.36149017
C       1.71600315      1.45690193     -0.10685246
C       0.20623281      1.41149919     -0.11111935
C      -0.30321524      0.14631814     -0.12850099
H      -0.01117349     -1.93317668     -0.13578421
H       2.46041951     -1.95333269      0.74935904
H       2.72747691     -0.06574981     -1.27789463
H       2.41680319      2.00321993      0.68876277
H      -0.61482259      2.07811354     -0.31646988
H      -1.36307416     -0.23234755     -0.04275250
