12
Family_1 [H]C1=C([H])C2([H])[C-]([H])C2([H])[C+]1[H] | RMSD: 0.4537 | 13460.00 to state    1 from traj    2 on state    2
C       0.40398435     -1.11349962      0.03189448
C       1.85546619     -1.05171184      0.41156425
C       2.39162384      0.20414333     -0.06723238
C       1.74857842      1.60098566     -0.20199378
C       0.29817650      1.40623030     -0.12276576
C      -0.34290067      0.07203762     -0.12312621
H      -0.13451077     -2.05496515     -0.12375164
H       2.38858557     -1.94377209      0.69769820
H       2.06674205      0.38441637     -1.15935491
H       2.17846413      2.42708222     -0.36406078
H      -0.24283017      2.22850431      0.07170429
H      -1.42468290     -0.03940603     -0.36285640
