12
Family_1 [H]C1=C([H])C2([H])[C-]([H])C2([H])[C+]1[H] | RMSD: 0.2567 | 4010.00 to state    1 from traj    3 on state    2
C       0.54305624     -0.98447668     -0.12322628
C       1.84934623     -0.97386106      0.60700726
C       2.27982986      0.10950445     -0.14471618
C       1.59444432      1.40073993     -0.27150652
C       0.27217415      1.39622571     -0.00060172
C      -0.28985787      0.16288519     -0.05970456
H       0.30520298     -1.32583966     -1.19245586
H       2.43524857     -1.87046608      0.83718142
H       2.70613020     -0.20600432     -1.07862261
H       2.20762798      2.32057618     -0.45729907
H      -0.28150140      2.36599466     -0.22876881
H      -1.27864519     -0.19699059     -0.06093904
