12
Family_1 [H]C1=C([H])C2([H])[C-]([H])C2([H])[C+]1[H] | RMSD: 0.4432 | 6560.00 to state    1 from traj    3 on state    2
C       0.51602924     -1.03012536     -0.29458880
C       1.69577805     -0.89158994      0.54995639
C       2.39434997      0.15392619     -0.22397985
C       1.63203683      1.40070851     -0.27139634
C       0.28855435      1.33715268      0.09906776
C      -0.25585210      0.12327285      0.02788286
H       0.50903061     -2.07144036     -0.60633428
H       1.68768288     -1.22896402      1.65994026
H       2.96286888     -0.13759380     -1.08509711
H       2.16737655      2.50897582     -0.45802926
H      -0.26359359      2.06597310     -0.34529498
H      -1.23029600      0.16090055      0.08748596
