12
Family_1 [H]C1=C([H])C2([H])[C-]([H])C2([H])[C+]1[H] | RMSD: 0.5317 | 3590.00 to state    1 from traj    2 on state    2
C       0.47543281     -1.23425500     -0.23174932
C       1.63699520     -0.84953886      0.56591499
C       2.40668279      0.24514141     -0.25432097
C       1.70600408      1.49630157     -0.24340644
C       0.38565984      1.38055926      0.18775705
C      -0.26944996      0.03839673     -0.18156750
H      -0.06263918     -2.01532244     -0.20940808
H       1.72136701     -0.99731037      1.65518090
H       2.89740321      0.04088521     -1.28014834
H       2.14975988      2.22157679     -0.83429191
H      -0.33404049      2.29095500      0.18919412
H      -1.37798332     -0.04346673      0.26017773
