12
Family_1 [H]C1=C([H])C2([H])[C-]([H])C2([H])[C+]1[H] | RMSD: 0.5777 | 6165.00 to state    1 from traj    2 on state    2
C       0.52766387     -0.99978882      0.19795503
C       1.89487739     -0.90403212      0.56107618
C       2.22229351      0.07185817     -0.43391187
C       1.62215817      1.47325927     -0.05444004
C       0.28930316      1.41353721     -0.02252720
C      -0.23284801      0.15051870     -0.42153659
H      -0.06049728     -2.11979302      0.23785972
H       2.37510028     -1.94394470      0.70103508
H       2.40801994     -0.18093502     -1.56843182
H       2.06448377      2.09062786      0.73937269
H      -0.33725768      2.13788271      0.41033192
H      -1.24296925     -0.02063131     -0.54866584
