12
Family_1 [H]C1=C([H])C2([H])[C-]([H])C2([H])[C+]1[H] | RMSD: 0.3376 | 7000.00 to state    1 from traj    2 on state    2
C       0.56710589     -0.97305644     -0.11533751
C       1.84774019     -0.96355087      0.60566866
C       2.33350614      0.04247787     -0.33776623
C       1.66193056      1.43409267     -0.07649720
C       0.14670857      1.42575422     -0.07028486
C      -0.29744818      0.18119447     -0.11047629
H       0.10557126     -2.09388748     -0.13111582
H       2.56735354     -1.72205225      0.89942977
H       2.64509036     -0.24885475     -1.30033623
H       2.33398236      2.45681885      0.13060364
H      -0.26694390      2.28404563     -0.31567408
H      -1.41670374     -0.01650563     -0.12990585
