12
Family_1 [H]C1=C([H])C2([H])[C-]([H])C2([H])[C+]1[H] | RMSD: 0.5345 | 5625.00 to state    1 from traj    5 on state    2
C       0.41995474     -0.96053704     -0.07357011
C       1.75308223     -0.77199183      0.55440439
C       2.50393958      0.10840588     -0.44455438
C       1.71958070      1.26592202     -0.23158944
C       0.28654273      1.31782782      0.06720176
C      -0.49916649      0.07746659     -0.01379667
H       0.49999002     -1.58372693     -0.96915103
H       2.08865348     -0.87210763      1.47492265
H       3.72334810      0.11613383     -0.60064882
H       2.14623748      2.13615460      0.13554238
H      -0.24755828      2.17553523      0.32244954
H      -1.34138052     -0.00386353     -0.76671892
