12
Family_1 [H]C1=C([H])C2([H])[C-]([H])C2([H])[C+]1[H] | RMSD: 0.4410 | 16770.00 to state    1 from traj    3 on state    2
C       0.41103493     -1.10834304     -0.05824213
C       1.82000461     -0.96918464      0.59280042
C       2.47083306      0.10117057     -0.45657460
C       1.63907283      1.42882076     -0.17130518
C       0.23765049      1.40139053     -0.00330626
C      -0.39314549      0.14767388      0.00670881
H       0.57519862     -1.52946699     -1.02414018
H       2.17189912     -1.20792281      1.49476627
H       3.53880207      0.20588399     -0.67438534
H       2.27466756      2.36222085     -0.02329427
H      -0.35079044      2.31093855     -0.17082139
H      -1.35856186      0.25025744     -0.62517174
