12
Family_1 [H]C1=C([H])C2([H])[C-]([H])C2([H])[C+]1[H] | RMSD: 0.5038 | 8665.00 to state    1 from traj    5 on state    2
C       0.35471800     -1.27682882     -0.24638057
C       1.70089680     -0.89810117      0.49221695
C       2.40462547      0.24187564     -0.28606646
C       1.72823240      1.51183138     -0.05660764
C       0.32252733      1.42943392     -0.15416928
C      -0.21702450      0.06388086      0.04939417
H      -0.11181148     -2.17461574     -0.01528375
H       2.12113845     -1.24978179      1.45712683
H       2.96772759      0.18852642     -1.18250614
H       2.30245198      2.51104947      0.00524067
H      -0.50937257      2.31789648     -0.39072853
H      -1.21206857     -0.04197843      0.43401216
