12
Family_1 [H]C1=C([H])C2([H])[C-]([H])C2([H])[C+]1[H] | RMSD: 0.3792 | 8490.00 to state    1 from traj    9 on state    2
C       0.46403155     -1.01859658     -0.07984980
C       1.86180679     -0.93706199      0.48248710
C       2.42003472      0.04336506     -0.27702895
C       1.60861881      1.35081638     -0.16475622
C       0.17464763      1.40120885     -0.03337685
C      -0.33586074      0.22366524     -0.00197943
H       0.70471261     -1.48282180     -0.95454047
H       2.27333923     -1.09535031      1.42223753
H       3.25348393     -0.16340920     -0.95948761
H       2.39284921      2.12037904     -0.12898306
H      -0.44504484      2.30861058     -0.23418345
H      -1.42140498     -0.03270691     -0.35176736
