12
Family_1 [H]C1=C([H])C2([H])[C-]([H])C2([H])[C+]1[H] | RMSD: 0.4070 | 15315.00 to state    1 from traj   11 on state    2
C       0.47452484     -1.08289078      0.00575355
C       1.70896930     -0.78460171      0.54422442
C       2.30987750      0.10712912     -0.53021172
C       1.71778227      1.43975335     -0.00240114
C       0.31998536      1.28645890     -0.00336439
C      -0.30713417      0.10564462     -0.08015996
H       0.35119521     -1.77820688     -0.86058432
H       2.13475840     -1.10046253      1.48345190
H       3.19944421     -0.03199729     -1.07506299
H       2.27894902      2.29129607     -0.06460607
H      -0.30267139      2.07121839     -0.22656991
H      -1.26986530      0.10637795     -0.56278811
