12
Family_1 [H]C1=C([H])C2([H])[C-]([H])C2([H])[C+]1[H] | RMSD: 0.5573 | 19935.00 to state    1 from traj    3 on state    2
C       0.56390749     -1.05977099     -0.31720570
C       1.75540334     -1.06949025      0.51118259
C       2.32160175      0.18580826     -0.01213378
C       1.54581997      1.42172214     -0.33830268
C       0.29374513      1.37977185     -0.08316520
C      -0.26759668      0.20326663      0.16622256
H       0.60373219     -0.92899185     -1.31542135
H       2.29065479     -1.72844850      1.29359438
H       3.23547799     -0.01824284     -0.44515711
H       2.17891738      2.07286261     -1.00677486
H      -0.48989282      2.04687019     -0.51946073
H      -1.29452829      0.23554740      0.77336513
