12
Family_1 [H]C1=C([H])C2([H])[C-]([H])C2([H])[C+]1[H] | RMSD: 0.6216 | 6425.00 to state    1 from traj    2 on state    2
C       0.58336710     -1.17309258     -0.27711290
C       1.71332502     -0.79243498      0.60252000
C       2.26604231      0.12777123     -0.26088104
C       1.73486997      1.40705377     -0.28341064
C       0.34300128      1.44415186      0.12899388
C      -0.36396247      0.05448477     -0.08896212
H       0.61263324     -2.01680934     -1.01390487
H       1.25613117     -0.57881212      1.52652259
H       3.01393077     -0.13459282     -0.79380295
H       2.26732712      2.21053172     -0.66538992
H      -0.11051519      2.41513267      0.52902741
H      -1.27491560     -0.29481141      0.45420821
