12
Family_1 [H]C1=C([H])C2([H])[C-]([H])C2([H])[C+]1[H] | RMSD: 0.2335 | 13950.00 to state    1 from traj    4 on state    2
C       0.57247802     -1.01398410     -0.10379446
C       1.80429016     -0.94517074      0.58343362
C       2.25346025      0.13065128     -0.27140743
C       1.66220107      1.41652874     -0.22669565
C       0.29792694      1.38227902      0.02772436
C      -0.35268508      0.12000775     -0.08234536
H       0.34390268     -1.61276031     -0.94201055
H       2.31508379     -1.63106847      1.36415978
H       2.86865749     -0.01029374     -1.07515777
H       2.38152578      2.28679930     -0.27645714
H      -0.30711137      2.25247082     -0.09295574
H      -1.37309094      0.04884364     -0.20121379
