12
Family_1 [H]C1=C([H])C2([H])[C-]([H])C2([H])[C+]1[H] | RMSD: 0.5483 | 10385.00 to state    1 from traj    6 on state    2
C       0.36732088     -1.18532401      0.12989854
C       1.75232637     -0.93898915      0.28722357
C       2.50219603      0.23988255     -0.20576567
C       1.64993849      1.52177991     -0.04662068
C       0.33384962      1.41367573     -0.15743149
C      -0.23331401      0.10545914     -0.14022157
H      -0.15409548     -2.13758643      0.22977192
H       2.25356203     -1.77691577      0.93338253
H       2.02798431      0.03322663     -1.24998478
H       2.11207942      2.41309863      0.16488042
H      -0.39817241      2.14498240     -0.23160255
H      -1.21678875     -0.13130081     -0.35713962
