12
Family_1 [H]C1=C([H])C2([H])[C-]([H])C2([H])[C+]1[H] | RMSD: 0.5496 | 9715.00 to state    1 from traj    2 on state    2
C       0.36621770     -1.14160553      0.03943047
C       1.75476584     -0.96440803      0.27512929
C       2.45901123      0.23685536     -0.09332233
C       1.71326933      1.38046688     -0.30895562
C       0.26300609      1.31434847     -0.18647361
C      -0.39069926      0.14402439      0.09783527
H       0.63098089     -0.99186352     -1.26273493
H       2.40537737     -1.53173311      0.99654391
H       3.53279034      0.37594094      0.19737260
H       2.30528509      2.45555984     -0.23208546
H      -0.31713978      2.28367622      0.05925588
H      -1.46920126      0.17980340      0.24856363
