12
Family_1 [H]C1=C([H])C2([H])[C-]([H])C2([H])[C+]1[H] | RMSD: 0.2145 | 15305.00 to state    1 from traj    9 on state    2
C       0.57731154     -0.99677303     -0.17807104
C       1.93104442     -1.12564545      0.65418400
C       2.26858276      0.11491025     -0.12867095
C       1.56493630      1.46046280     -0.25093346
C       0.21862895      1.52479146     -0.08066687
C      -0.31787777      0.18293580     -0.05663119
H       0.41535602     -1.91122992     -0.74425886
H       2.39428210     -2.16727251      0.61967623
H       2.76046591     -0.19873246     -1.03178534
H       2.13564757      2.34802298     -0.46819373
H      -0.15909460      2.55240662     -0.16319427
H      -1.37673003     -0.12770812      0.17929905
