12
Family_1 [H]C1=C([H])C2([H])[C-]([H])C2([H])[C+]1[H] | RMSD: 0.4436 | 21905.00 to state    1 from traj    4 on state    2
C       0.49650835     -1.12931228      0.00274546
C       1.95846715     -1.04770273      0.32210050
C       2.41528531      0.17530103     -0.05715294
C       1.60308374      1.40626623     -0.10922469
C       0.24034322      1.46080182     -0.16268989
C      -0.35453297      0.21640892     -0.08739383
H      -0.02811099     -2.00424366     -0.36924168
H       2.18643310     -1.52285222      1.39558313
H       2.15907688      0.15884539     -1.22811226
H       2.14530895      2.17191982     -0.51679752
H      -0.21426172      2.46758556      0.05993138
H      -1.46703604      0.16460295     -0.34419535
