12
Family_1 [H]C1=C([H])C2([H])[C-]([H])C2([H])[C+]1[H] | RMSD: 0.3221 | 12680.00 to state    1 from traj    2 on state    2
C       0.45332837     -1.06598894     -0.13096354
C       1.89931093     -0.79517496      0.63934481
C       2.39227422      0.13172592     -0.41022132
C       1.70352452      1.28722074     -0.10849001
C       0.20496630      1.36182331      0.03167007
C      -0.42822994      0.18944586     -0.19249754
H       0.15491303     -1.91608539     -0.77372692
H       2.26092247     -1.46644123      1.45320649
H       3.27215253     -0.08541462     -1.11281190
H       2.37267843      2.16698156      0.05351280
H      -0.25068787      2.33145145      0.07351949
H      -1.43210167      0.08019985      0.25126603
