12
Family_1 [H]C1=C([H])C2([H])[C-]([H])C2([H])[C+]1[H] | RMSD: 0.2651 | 3010.00 to state    1 from traj    2 on state    2
C       0.46968798     -1.04903605     -0.13943756
C       1.79293494     -0.81846419      0.66266556
C       2.33308048      0.11293560     -0.41640475
C       1.72134886      1.37344697     -0.10899331
C       0.21879842      1.37058163      0.00283351
C      -0.30777652      0.13045908     -0.14633513
H       0.19514360     -1.91174952     -0.65922912
H       2.44933704     -1.41715517      1.10100828
H       3.11120276     -0.26305530     -1.10935199
H       2.36142520      2.32524581      0.10686021
H      -0.39307509      2.17620046      0.00185172
H      -1.38070908      0.07166870      0.20014572
