12
Family_1 [H]C1=C([H])C2([H])[C-]([H])C2([H])[C+]1[H] | RMSD: 0.5471 | 2825.00 to state    1 from traj    3 on state    2
C       0.34017271     -1.10002621     -0.10122518
C       1.77214338     -0.92217814      0.30434551
C       2.39921337      0.22572807      0.06756490
C       1.65622113      1.30472739     -0.33994999
C       0.25251461      1.35228217     -0.20400889
C      -0.26451424      0.12315991      0.16839343
H       0.70959357     -0.73745608     -1.12162411
H       2.42945260     -1.78927795      0.57346791
H       3.40331470      0.40233182     -0.07283555
H       2.17998411      2.31369170     -0.42924006
H      -0.22561831      2.23504015     -0.25125187
H      -1.29162260      0.18009603      0.45671088
