12
Family_1 [H]C1=C([H])C2([H])[C-]([H])C2([H])[C+]1[H] | RMSD: 0.5684 | 6810.00 to state    1 from traj    8 on state    2
C       0.42136610     -1.04621531      0.15367859
C       1.81489280     -1.00091713      0.27602930
C       2.47500928      0.23947824     -0.16365982
C       1.65592952      1.40543843     -0.03219587
C       0.28133963      1.42539278     -0.23759944
C      -0.28166768      0.11645647     -0.14758528
H      -0.03217881     -2.08331955      0.37226434
H       2.33674112     -1.78998178      0.78668179
H       1.99757640      0.13406726     -1.36962189
H       2.01274724      2.31366078      0.28458080
H      -0.22319016      2.39789890     -0.06619531
H      -1.40221324     -0.22603368     -0.29897199
