12
Family_1 [H]C1=C([H])C2([H])[C-]([H])C2([H])[C+]1[H] | RMSD: 0.4793 | 3940.00 to state    1 from traj    3 on state    2
C       0.51284386     -1.04328050     -0.29368122
C       1.68828457     -0.91872689      0.57106356
C       2.35286052      0.18248479     -0.02682063
C       1.62525626      1.35707083     -0.40086661
C       0.24058251      1.36132051     -0.07675998
C      -0.27088891      0.13041411      0.11738755
H       0.51612186     -1.30495767     -1.33413748
H       2.27298065     -1.81597188      0.53651957
H       3.41488439     -0.09836421     -0.37761618
H       2.20347269      2.39090603     -0.51350336
H      -0.22133167      2.44467446     -0.05767095
H      -0.89985238     -0.03171969      0.95879631
