12
Family_1 [H]C1=C([H])C2([H])[C-]([H])C2([H])[C+]1[H] | RMSD: 0.3416 | 14850.00 to state    1 from traj    5 on state    2
C       0.50698800     -1.00345005     -0.15663134
C       1.79383518     -0.87137544      0.66267298
C       2.35771301      0.09097247     -0.26806865
C       1.58278706      1.31694696     -0.34252940
C       0.26987248      1.39939129      0.18420596
C      -0.29483316      0.15800408     -0.14608434
H       0.61172767     -1.26645590     -1.22666297
H       2.34960445     -1.58504220      1.29310509
H       3.16832521     -0.26461911     -0.78796890
H       2.19561142      2.15518897     -0.69736877
H      -0.43381081      2.39790673      0.34977222
H      -1.40858198     -0.10510060     -0.23375283
