12
Family_1 [H]C1=C([H])C2([H])[C-]([H])C2([H])[C+]1[H] | RMSD: 0.5631 | 6810.00 to state    1 from traj    3 on state    2
C       0.32603727     -1.00369030      0.00368949
C       1.83339079     -0.99708689      0.26436818
C       2.57036742      0.18875538      0.04995247
C       1.56931418      1.26956515     -0.35453676
C       0.24579993      1.35317855     -0.14915427
C      -0.34625238      0.18294819      0.05229488
H       0.50253006     -0.71371154     -1.06512060
H       2.31420100     -1.66608504      0.78632090
H       3.65204569      0.43708611     -0.02131670
H       2.08190791      2.24124814     -0.59997235
H      -0.44252917      2.16887938      0.02430374
H      -1.41430835      0.01812714      0.37067784
