12
Family_1 [H]C1=C([H])C2([H])[C-]([H])C2([H])[C+]1[H] | RMSD: 0.4170 | 33605.00 to state    1 from traj    9 on state    2
C       0.49886780     -1.02809299     -0.02966937
C       1.80774803     -0.95660455      0.54606194
C       2.29956338      0.20127381     -0.39102906
C       1.74435639      1.38873871     -0.11212306
C       0.19903253      1.38674048     -0.03011067
C      -0.28379495      0.13219519     -0.14135174
H       0.29018025     -1.94240785     -0.48258673
H       2.04231500     -1.23333213      1.51709348
H       2.86131953     -0.19927567     -1.37895934
H       2.50325677      2.18590008      0.31265899
H      -0.48304273      2.15119408     -0.09965233
H      -1.31991364     -0.03248986     -0.07772420
