12
Family_1 [H]C1=C([H])C2([H])[C-]([H])C2([H])[C+]1[H] | RMSD: 0.5767 | 2750.00 to state    1 from traj    2 on state    2
C       0.37279761     -1.14636287     -0.08083314
C       1.88574188     -0.92943981      0.32671208
C       2.44133806      0.20916070      0.00208977
C       1.62771638      1.30120922     -0.34729390
C       0.23433244      1.39526839     -0.10027297
C      -0.36647929      0.14892642      0.05425296
H       0.55976461     -0.73596487     -1.22804038
H       2.07743353     -1.75325628      1.01723192
H       3.46795115      0.31082702      0.07744690
H       2.05681952      2.24163573     -0.53576344
H       0.00962965      2.36050646     -0.15616857
H      -1.43950039      0.23943562      0.46268825
