12
Family_1 [H]C1=C([H])C2([H])[C-]([H])C2([H])[C+]1[H] | RMSD: 0.2912 | 2410.00 to state    1 from traj    4 on state    2
C       0.56078669     -1.09736264     -0.20417608
C       1.65034979     -0.88525934      0.60820634
C       2.21079204      0.16828940     -0.20267103
C       1.67410904      1.52043857     -0.26924381
C       0.40390287      1.33910562      0.06507990
C      -0.21042239      0.08244177     -0.03236659
H       0.36974877     -1.99214273     -0.72483557
H       2.21402193     -1.59998242      1.14619298
H       2.47335676     -0.02701368     -1.29139476
H       2.20449387      2.33400384     -0.55054258
H      -0.35765176      2.23840100      0.01744730
H      -1.29279045     -0.06422322     -0.27226956
