12
Family_1 [H]C1=C([H])C2([H])[C-]([H])C2([H])[C+]1[H] | RMSD: 0.4449 | 6640.00 to state    1 from traj    2 on state    2
C       0.55625733     -1.11854799     -0.32557951
C       1.68538630     -0.91386405      0.53830131
C       2.25097395      0.20829330     -0.18631386
C       1.66993347      1.48769412     -0.24155604
C       0.38546108      1.35862360      0.03457918
C      -0.24620246      0.06389853      0.04373452
H       0.10398665     -1.97268536     -0.45729799
H       1.83708210     -1.05739640      1.61545912
H       2.97427406     -0.14742951     -0.86533990
H       2.14169670      2.32314420     -0.82254950
H      -0.23100809      2.13738089      0.02635093
H      -1.36131538      0.10119525      0.03936005
