12
Family_1 [H]C1=C([H])C2([H])[C-]([H])C2([H])[C+]1[H] | RMSD: 0.5551 | 16900.00 to state    1 from traj    4 on state    2
C       0.50628818     -0.97736685      0.09587669
C       1.95741972     -0.99912275      0.60743481
C       2.22285186      0.07670862     -0.43010837
C       1.65980981      1.44456003     -0.02228053
C       0.23547460      1.46186301     -0.13822365
C      -0.29114295      0.10300277     -0.25006984
H       0.02272112     -1.85491864     -0.21184845
H       2.75873200     -1.70374987      1.07615987
H       2.09140837     -0.05431024     -1.53950543
H       2.18975361      2.20300870      0.70840059
H      -0.16794124      2.32668146      0.21207974
H      -1.29759291      0.18691550     -0.70291091
