12
Family_1 [H]C1=C([H])C2([H])[C-]([H])C2([H])[C+]1[H] | RMSD: 0.2109 | 13380.00 to state    1 from traj    2 on state    2
C       0.64611244     -0.91275039     -0.11097528
C       1.77743224     -0.94545178      0.62792482
C       2.28094573      0.08497655     -0.27042505
C       1.60467742      1.34675802     -0.25673624
C       0.26370562      1.41510092     -0.05057691
C      -0.36055175      0.16525834      0.00853156
H       0.48510812     -1.59482142     -0.99035519
H       2.40901998     -1.84515581      0.68423445
H       3.15678982     -0.26704887     -0.95178465
H       2.14902988      2.18752661      0.13150431
H      -0.28773813      2.35140717     -0.08921044
H      -1.38118411     -0.25551145     -0.25620130
