12
Family_1 [H]C1=C([H])C2([H])[C-]([H])C2([H])[C+]1[H] | RMSD: 0.6451 | 4485.00 to state    1 from traj   14 on state    2
C       0.34213407     -1.08669934     -0.01201040
C       1.76238310     -0.92158858      0.29989854
C       2.53191015      0.16263478     -0.02700551
C       1.64024327      1.37798406     -0.40767951
C       0.24113230      1.34102471     -0.12894045
C      -0.38530537      0.15360485      0.07589718
H       0.78844048     -0.81967910     -1.17535268
H       2.41517093     -1.73994697      0.61082514
H       3.71254092      0.15941966      0.55206795
H       2.24798833      2.30919433     -0.41995117
H      -0.35837643      2.07613496      0.34994825
H      -1.32357968      0.10374397      0.36920122
