12
Family_1 [H]C1=C([H])C2([H])[C-]([H])C2([H])[C+]1[H] | RMSD: 0.5001 | 17120.00 to state    1 from traj    3 on state    2
C       0.48798464     -0.99526252      0.09106002
C       1.85835486     -0.88042476      0.54823340
C       2.31062796      0.09667511     -0.48765259
C       1.75407906      1.41953068      0.01561291
C       0.22055362      1.38452163     -0.10872976
C      -0.33651422      0.10918411     -0.23044813
H       0.03660039     -1.93724674     -0.11789966
H       2.49681879     -1.42500971      1.17048622
H       2.44818965     -0.18142989     -1.41493474
H       2.34924416      2.12845239      0.62491492
H      -0.44475133      2.38497359      0.26797647
H      -1.34126761     -0.15899334     -0.57644244
