12
Family_1 [H]C1=C([H])C2([H])[C-]([H])C2([H])[C+]1[H] | RMSD: 0.1221 | 13875.00 to state    1 from traj    2 on state    2
C       0.63501598     -0.87090884     -0.13998298
C       1.82472147     -1.03916018      0.59976777
C       2.16097162      0.06719418     -0.19668406
C       1.62130194      1.45144672     -0.23234890
C       0.28235569      1.37924193     -0.08248669
C      -0.29659252      0.14474608     -0.00969381
H       0.51118666     -1.64657325     -0.83040187
H       2.35754554     -1.92450287      0.88337402
H       2.97083411     -0.02035235     -0.91521201
H       2.29851783      2.28416832     -0.39284116
H      -0.38752618      2.25686414     -0.07711542
H      -1.40365921     -0.11902560     -0.03033110
