12
Family_1 [H]C1=C([H])C2([H])[C-]([H])C2([H])[C+]1[H] | RMSD: 0.5385 | 7395.00 to state    1 from traj    8 on state    2
C       0.43186383     -1.06488475      0.22971218
C       1.71659677     -1.03468060      0.22572717
C       2.54123364      0.27122269     -0.15661527
C       1.65958438      1.50233130     -0.11793397
C       0.32190066      1.39063786     -0.16329322
C      -0.28465047      0.06993661     -0.15289030
H       0.03123545     -2.04484472      0.27275391
H       2.15194140     -1.91607708      0.61489229
H       2.05100560      0.06464821     -0.99503736
H       1.90383251      2.43327345      0.16536464
H      -0.37857996      2.30632013     -0.23167946
H      -1.30420446     -0.03661135     -0.30867313
