12
Family_1 [H]C1=C([H])C2([H])[C-]([H])C2([H])[C+]1[H] | RMSD: 0.6050 | 4160.00 to state    1 from traj    8 on state    2
C       0.36263700     -1.05757445     -0.03313014
C       1.82856799     -0.82933120      0.51842670
C       2.53333285      0.11382314     -0.41067269
C       1.66106386      1.35448833     -0.25449391
C       0.31267745      1.32158001      0.07991293
C      -0.46707613      0.07785957     -0.07606239
H       0.44564246     -1.31663150     -1.08905600
H       1.72916364     -0.61222378      1.58897599
H       3.54386237      0.11863176     -0.40778011
H       2.28721218      2.15928333      0.10937802
H      -0.22181699      2.17531369      0.26298666
H      -1.47802188      0.11398552     -0.46160484
