12
Family_1 [H]C1=C([H])C2([H])[C-]([H])C2([H])[C+]1[H] | RMSD: 0.4735 | 5670.00 to state    1 from traj    2 on state    2
C       0.43367628     -1.19335706     -0.16330224
C       1.52721900     -0.63587127      0.42561336
C       2.33908469      0.23158566     -0.27109548
C       1.76013346      1.38848041     -0.18750822
C       0.40011747      1.26924812      0.07660145
C      -0.22553898      0.02117159     -0.01038852
H       0.24013230     -1.92967215     -0.86318000
H       1.95415351     -0.86040405      1.44491304
H       3.37631584     -0.08339061     -0.65740872
H       2.29325554      2.23148255     -0.77279918
H      -0.28172082      2.13978999      0.29752344
H      -1.31766705     -0.05592408      0.00644676
