12
Family_1 [H]C1=C([H])C2([H])[C-]([H])C2([H])[C+]1[H] | RMSD: 0.5118 | 6060.00 to state    1 from traj    3 on state    2
C       0.54693943     -1.00920501      0.18788406
C       1.89519872     -0.90721687      0.56807735
C       2.19340589      0.10776515     -0.47735012
C       1.65695515      1.37480575      0.07072445
C       0.26394363      1.40560824     -0.11386302
C      -0.27131121      0.18277149     -0.33177229
H      -0.08767137     -2.03470535      0.10122799
H       2.55770415     -1.82727861      0.63508589
H       2.60609677      0.07812335     -1.64642300
H       2.27703191      2.13145083      0.47538360
H      -0.37126630      2.21814948      0.14651536
H      -1.31844879      0.00306507     -0.65880712
