12
Family_1 [H]C1=C([H])C2([H])[C-]([H])C2([H])[C+]1[H] | RMSD: 0.2513 | 19775.00 to state    1 from traj    2 on state    2
C       0.59477534     -1.02880557     -0.08750055
C       1.80142075     -1.06532907      0.58001977
C       2.14105338      0.16717639     -0.23689201
C       1.63982761      1.50712347     -0.26100965
C       0.30745106      1.42808735     -0.00490614
C      -0.23582896      0.09024327     -0.09214537
H       0.36684238     -1.69341140     -0.87554777
H       2.16476508     -1.76180680      1.41351125
H       2.98880481     -0.02151240     -1.00290202
H       2.29906777      2.29517250     -0.44638292
H      -0.38646727      2.12057757      0.14407585
H      -1.33544937      0.29745529     -0.10667618
