12
Family_1 [H]C1=C([H])C2([H])[C-]([H])C2([H])[C+]1[H] | RMSD: 0.3962 | 11405.00 to state    1 from traj    2 on state    2
C       0.51322071     -1.03389188     -0.32026131
C       1.73215100     -0.99049842      0.57630652
C       2.25059574      0.13369657     -0.02498490
C       1.59229674      1.45956236     -0.29277161
C       0.24365214      1.39651156     -0.19222444
C      -0.11409889      0.12318869      0.20541957
H       0.35740531     -1.73217317     -1.21867632
H       2.34963791     -1.82822685      0.42092512
H       3.24745844     -0.02212386     -0.50276470
H       2.15829446      2.27537295     -0.62486714
H      -0.51868543      2.29348678     -0.26171069
H      -1.12857049      0.36842537      0.67070530
