12
Family_1 [H]C1=C([H])C2([H])[C-]([H])C2([H])[C+]1[H] | RMSD: 0.4848 | 9210.00 to state    1 from traj    7 on state    2
C       0.45322050     -1.07601662      0.01218864
C       1.76769420     -1.06104293      0.36446505
C       2.51691058      0.29136029     -0.11806595
C       1.66401622      1.46507471     -0.10037447
C       0.27718483      1.40568295     -0.25089705
C      -0.32869768      0.09127841     -0.05784447
H       0.03331027     -1.98277834      0.18241534
H       2.15747145     -1.87259449      0.65293492
H       2.08098989     -0.01622456     -1.21559760
H       2.13066196      2.54274983     -0.01227128
H      -0.21978228      2.40084716     -0.11911493
H      -1.29607169     -0.04811227      0.21078783
