12
Family_1 [H]C1=C([H])C2([H])[C-]([H])C2([H])[C+]1[H] | RMSD: 0.4288 | 4585.00 to state    1 from traj    6 on state    2
C       0.37951357     -1.15372736     -0.11975113
C       1.81786671     -0.95233714      0.38957505
C       2.51683184      0.19801521     -0.09070174
C       1.62606179      1.42169816     -0.16279705
C       0.30529793      1.42182383     -0.15610720
C      -0.30559294      0.13068847     -0.02164181
H       0.04260093     -2.11678963     -0.22609777
H       2.34399617     -1.40667199      1.33966240
H       2.35072379      0.14782521     -1.23844610
H       2.15405179      2.48002580     -0.21176036
H      -0.41249422      2.18190743      0.21519632
H      -1.46897457      0.33546720     -0.04957153
