12
Family_1 [H]C1=C([H])C2([H])[C-]([H])C2([H])[C+]1[H] | RMSD: 0.5727 | 4300.00 to state    1 from traj    3 on state    2
C       0.35852909     -1.19280675     -0.10493211
C       1.81529107     -0.91614591      0.30516960
C       2.37427872      0.20538422      0.06029824
C       1.68243555      1.36050009     -0.38569441
C       0.25313495      1.38652191     -0.16820915
C      -0.30743775      0.12245070      0.12828596
H       0.65045133     -0.77153860     -1.14702250
H       2.44920307     -1.76120893      0.68497237
H       3.35383500      0.23239696      0.23127278
H       1.99166843      2.36228840     -0.31571136
H      -0.11292806      2.50755230     -0.04327978
H      -1.37116656      0.24690254      0.46233878
