12
Family_1 [H]C1=C([H])C2([H])[C-]([H])C2([H])[C+]1[H] | RMSD: 0.5354 | 12690.00 to state    1 from traj    4 on state    2
C       0.40811858     -1.03641296      0.07816658
C       1.77954240     -0.95020928      0.40032636
C       2.52848504      0.19354302     -0.24440154
C       1.72409474      1.48374957     -0.11425221
C       0.26187676      1.36528714     -0.02720762
C      -0.30390918      0.05404762     -0.22717995
H      -0.00290297     -1.90880992      0.26229712
H       2.00810687     -1.76880840      1.07581631
H       1.93035558      0.07536155     -1.22154453
H       2.05188985      2.51425563     -0.35343350
H      -0.36173906      2.22131582      0.22141640
H      -1.30964934     -0.03398072     -0.47580858
