12
Family_1 [H]C1=C([H])C2([H])[C-]([H])C2([H])[C+]1[H] | RMSD: 0.3389 | 22330.00 to state    1 from traj    2 on state    2
C       0.48101181     -1.04576724     -0.18979509
C       1.86652529     -1.01593945      0.57983915
C       2.33781245      0.14015541     -0.20867152
C       1.75739699      1.54746313     -0.18100923
C       0.27414062      1.33954291     -0.04463845
C      -0.38859363      0.15302108     -0.01250376
H       0.12435943     -1.91086670     -0.70786768
H       2.24070600     -1.58597141      1.47135102
H       2.66650547     -0.19360849     -1.30865378
H       2.12438793      2.56456417     -0.48821111
H      -0.56114382      2.09911520     -0.17653424
H      -1.44567184      0.02516673     -0.20801683
