12
Family_1 [H]C1=C([H])C2([H])[C-]([H])C2([H])[C+]1[H] | RMSD: 0.4084 | 5935.00 to state    1 from traj    2 on state    2
C       0.42029684     -1.11808250     -0.03076025
C       1.75192014     -0.93003081      0.40214946
C       2.41055465      0.21463106     -0.11883375
C       1.75828662      1.55189875     -0.23859392
C       0.25100296      1.35011223     -0.02045537
C      -0.26938526      0.06109556     -0.11479613
H       0.02604463     -2.06490134     -0.21362504
H       2.23486318     -1.70838465      1.08769174
H       2.08431841     -0.06615270     -1.12258631
H       2.32724024      2.42777485     -0.22466867
H      -0.22110192      2.24901318      0.08447902
H      -1.23528427      0.02820882     -0.26053052
