12
Family_1 [H]C1=C([H])C2([H])[C-]([H])C2([H])[C+]1[H] | RMSD: 0.3770 | 10685.00 to state    1 from traj    2 on state    2
C       0.52704670     -1.04304739     -0.25014240
C       1.76039393     -0.95405188      0.56431261
C       2.30240761      0.15384163     -0.18588508
C       1.61273175      1.47037342     -0.23695841
C       0.34585339      1.42197951      0.05161288
C      -0.25905777      0.07577037     -0.06674578
H       0.08193355     -1.90602854     -0.59496927
H       1.97276679     -1.35331047      1.58990065
H       2.90154506     -0.09172303     -1.04405015
H       2.21508081      2.20389437     -0.83749347
H      -0.30635320      2.26793047      0.10818039
H      -1.25209668     -0.19850224      0.15917465
