12
Family_1 [H]C1=C([H])C2([H])[C-]([H])C2([H])[C+]1[H] | RMSD: 0.4567 | 10410.00 to state    1 from traj    2 on state    2
C       0.52840885     -1.18324613     -0.22365943
C       1.73748748     -0.94136534      0.55547472
C       2.39261834      0.16870582     -0.17689819
C       1.64846662      1.52720253     -0.27014050
C       0.28743055      1.39411700      0.07492504
C      -0.20401686      0.15846076     -0.09504835
H      -0.17874411     -2.06279716     -0.54254088
H       1.79602266     -1.27237567      1.54443376
H       2.48848859     -0.30363393     -1.19592553
H       2.04385048      2.41517720     -0.56618909
H      -0.47995393      2.19507182      0.18897470
H      -1.26050134     -0.03737309      0.08950294
