12
Family_1 [H]C1=C([H])C2([H])[C-]([H])C2([H])[C+]1[H] | RMSD: 0.5511 | 6795.00 to state    1 from traj    4 on state    2
C       0.47418491     -1.39966018     -0.11518970
C       1.62773213     -0.82615042      0.41602189
C       2.32196636      0.25091402     -0.16235091
C       1.80005193      1.55276042     -0.22832764
C       0.32977575      1.43087480      0.12797303
C      -0.22050882      0.06541325     -0.12770661
H       0.09967540     -2.34995579     -0.44132976
H       1.68811258     -0.83843354      1.47653296
H       2.80510678     -0.04323530     -1.26194827
H       2.08875326      2.34619132     -0.90845523
H      -0.24555476      2.28396145      0.30288940
H      -1.34544104      0.12802113     -0.19477516
