12
Family_1 [H]C1=C([H])C2([H])[C-]([H])C2([H])[C+]1[H] | RMSD: 0.4094 | 8300.00 to state    1 from traj    2 on state    2
C       0.55425945     -1.00568155      0.05433523
C       1.89242460     -1.02487583      0.62782077
C       2.24678507      0.15339852     -0.37064415
C       1.67519276      1.46949342     -0.00462556
C       0.29683799      1.39876941     -0.15064231
C      -0.36182760      0.12580888     -0.16157799
H       0.03147319     -1.86764673     -0.35683033
H       2.45499049     -2.08845766      0.44168824
H       2.36073481      0.02802284     -1.45289190
H       2.29601002      2.54267864      0.12526704
H      -0.36716493      2.31280974     -0.46709583
H      -1.33352165      0.08961682     -0.32107042
