12
Family_1 [H]C1=C([H])C2([H])[C-]([H])C2([H])[C+]1[H] | RMSD: 0.4461 | 6620.00 to state    1 from traj    3 on state    2
C       0.53827001     -1.01129659      0.09420830
C       1.81303399     -0.89497385      0.59175297
C       2.20366273      0.08813690     -0.43180355
C       1.62440594      1.47703027     -0.04085541
C       0.34492135      1.38414601     -0.05853449
C      -0.24921683      0.12574405     -0.25165617
H       0.39620813     -2.11144260     -0.09183137
H       2.39231363     -1.87877994      0.63651277
H       2.21161265     -0.06983190     -1.34179361
H       2.33734831      2.31615045      0.32578343
H      -0.29706454      2.18814672      0.15340507
H      -1.25716665     -0.04533215     -0.62207777
