6
Family_3 [H][C]C([H])([H])[H] | RMSD: 0.0000 | 3788.00 to state    1 from traj    1 on state    2
C     -1.729257     0.267109     0.118812
H     -0.213398     1.039763    -1.236597
H     -2.243014    -0.698997     0.170931
C     -0.994796     1.346527    -0.068554
H     -0.623461     2.204617    -0.217152
H     -0.192903     0.981878     0.680677
6
Family_3 [H][C]C([H])([H])[H] | RMSD: 0.3421 | 2976.00 to state    1 from traj    1 on state    2
C     -1.853067     0.209745     0.081805
H     -0.258136     1.459499    -1.282179
H     -1.941862    -0.700757     0.673375
C     -0.870674     1.347025    -0.077952
H     -0.755269     2.475302    -0.294391
H     -0.321223     0.970816     0.854006
6
Family_3 [H][C]C([H])([H])[H] | RMSD: 0.5292 | 7152.00 to state    1 from traj    1 on state    2
C     -1.831567     0.295558     0.077142
H     -0.166203     1.438161    -1.350249
H     -1.737924    -0.598499     0.857668
C     -0.868990     1.288220    -0.133357
H     -1.214123     2.140975     0.322386
H     -0.434493     0.902396     0.836757
6
Family_3 [H][C]C([H])([H])[H] | RMSD: 0.4181 | 20396.00 to state    1 from traj    1 on state    2
C     -1.805279     0.265708     0.132759
H     -0.543247     0.996104    -1.061399
H     -1.979667    -0.456516    -0.204725
C     -0.859671     1.297073    -0.045660
H     -1.290761     2.309214    -0.466745
H     -0.163342     1.284426     0.691736
6
Family_3 [H][C]C([H])([H])[H] | RMSD: 0.3557 | 44572.00 to state    1 from traj    1 on state    2
C     -1.839000     0.218766     0.084111
H     -0.132173     1.390116    -1.238467
H     -2.412116    -0.886405     0.518173
C     -0.849938     1.342282    -0.053432
H     -1.107914     2.301961    -0.282180
H     -0.038992     1.348210     0.633630
6
Family_3 [H][C]C([H])([H])[H] | RMSD: 0.3035 | 8356.00 to state    1 from traj    1 on state    2
C     -1.684515     0.241610     0.065925
H     -0.449847     1.080045    -0.983564
H     -2.613951    -0.557233     0.460440
C     -1.015564     1.321349    -0.074701
H     -0.438153     2.322625    -0.063161
H     -0.056484     1.285663     0.687575
6
Family_3 [H][C]C([H])([H])[H] | RMSD: 0.3583 | 8712.00 to state    2 from traj    2 on state    1
C     -1.771761     0.201992     0.164511
H     -0.042563     1.344608    -1.034634
H     -2.683888    -0.630507     0.075090
C     -0.920112     1.358201    -0.131351
H     -1.089179     2.357573    -0.164562
H      0.159410     1.092391     0.725709
6
Family_3 [H][C]C([H])([H])[H] | RMSD: 0.2688 | 9692.00 to state    1 from traj    3 on state    2
C     -1.780770     0.289945     0.129022
H     -0.425483     1.136665    -0.964745
H     -2.129103    -0.935606     0.075498
C     -0.948094     1.302004    -0.101767
H     -0.580505     2.204648    -0.025359
H     -0.080360     1.379963     0.586557
6
Family_3 [H][C]C([H])([H])[H] | RMSD: 0.4211 | 10316.00 to state    1 from traj    1 on state    2
C     -1.875658     0.143642     0.145617
H     -0.157528     1.207380    -1.290620
H     -2.360745    -0.626239     0.099173
C     -0.766573     1.414105    -0.061998
H     -1.502104     2.429080    -0.425183
H     -0.227363     1.182989     0.616972
6
Family_3 [H][C]C([H])([H])[H] | RMSD: 0.4968 | 19548.00 to state    1 from traj    1 on state    2
C     -1.925141     0.069262     0.144979
H     -0.513014     1.041566    -0.977390
H     -2.598366    -1.149246    -0.049526
C     -0.748360     1.504249    -0.080854
H     -0.952594     2.486240    -0.396708
H      0.188838     1.626809     0.656247
6
Family_3 [H][C]C([H])([H])[H] | RMSD: 0.3049 | 29060.00 to state    1 from traj    1 on state    2
C     -1.696513     0.297031     0.152608
H     -0.323264     0.662333    -1.023133
H     -2.126385    -0.518369    -0.211254
C     -1.004571     1.332438    -0.082353
H     -0.893974     2.387598    -0.147018
H     -0.202839     0.807032     0.540990
6
Family_3 [H][C]C([H])([H])[H] | RMSD: 0.4625 | 1716.00 to state    1 from traj    1 on state    2
C     -1.746006     0.234234     0.208127
H     -0.092967     1.378224    -0.932922
H     -2.551552    -0.412676    -0.157591
C     -0.902377     1.309686    -0.153676
H     -1.350884     2.621648    -0.265845
H     -0.179035     0.770767     0.704249
6
Family_3 [H][C]C([H])([H])[H] | RMSD: 0.4034 | 2340.00 to state    1 from traj    1 on state    2
C     -1.819182     0.197167     0.090968
H     -0.564389     1.063880    -1.147950
H     -2.393684    -0.661423     0.332563
C     -0.831528     1.350793    -0.100639
H     -1.116442     2.336190     0.122629
H     -0.072180     1.571176     0.804708
6
Family_3 [H][C]C([H])([H])[H] | RMSD: 0.4237 | 2524.00 to state    1 from traj    1 on state    2
C     -1.805748     0.221510     0.062750
H     -0.104978     1.231781    -1.070488
H     -2.423945    -0.476903     0.542278
C     -0.884228     1.312624    -0.041896
H     -1.301524     2.404950    -0.243323
H      0.151622     1.314755     0.519756
6
Family_3 [H][C]C([H])([H])[H] | RMSD: 0.3325 | 4960.00 to state    1 from traj    1 on state    2
C     -1.732761     0.214412     0.147445
H     -0.417107     1.143597    -1.162842
H     -2.683651    -0.715951     0.133653
C     -0.874410     1.361501    -0.118333
H     -1.049575     2.421726    -0.031513
H     -0.515172     1.127381     0.710533
6
Family_3 [H][C]C([H])([H])[H] | RMSD: 0.3854 | 7820.00 to state    1 from traj    1 on state    2
C     -1.772470     0.188902     0.136765
H     -0.200712     1.363495    -1.229227
H     -2.658460    -0.415856     0.153586
C     -0.890182     1.299379    -0.082141
H     -0.935314     2.564059    -0.185147
H     -0.209915     1.509242     0.606633
6
Family_3 [H][C]C([H])([H])[H] | RMSD: 0.4269 | 5024.00 to state    1 from traj    1 on state    2
C     -1.785227     0.254820     0.146218
H     -0.670053     0.804281    -1.277390
H     -2.044586    -0.587079    -0.281092
C     -0.859604     1.341765    -0.068308
H     -1.230580     2.399836    -0.365294
H     -0.271542     1.113397     0.992142
6
Family_3 [H][C]C([H])([H])[H] | RMSD: 0.8210 | 980.00 to state    1 from traj    1 on state    2
C     -1.598921     0.106977     0.031131
H     -1.261531     0.767509    -0.926688
H     -2.595913     0.721249     0.172213
C     -0.984385     1.392380     0.002019
H     -0.485424     2.090353    -0.630870
H     -0.607008     1.309856     0.987057
6
Family_3 [H][C]C([H])([H])[H] | RMSD: 0.3314 | 6516.00 to state    1 from traj    1 on state    2
C     -1.740196     0.243191     0.056177
H     -0.413789     1.092803    -0.937022
H     -2.382725    -0.412981     0.492648
C     -0.935961     1.290872    -0.043949
H     -0.918255     2.600822    -0.268809
H     -0.128719     1.194775     0.564193
6
Family_3 [H][C]C([H])([H])[H] | RMSD: 0.4299 | 14328.00 to state    1 from traj    1 on state    2
C     -1.814573     0.275913     0.059740
H     -0.041925     1.390879    -0.920691
H     -1.904115    -0.546371     0.803526
C     -0.934295     1.298805    -0.086160
H     -1.047214     2.351060    -0.132886
H      0.016165     0.795419     0.561589
6
Family_3 [H][C]C([H])([H])[H] | RMSD: 0.4109 | 928.00 to state    1 from traj    1 on state    2
C     -1.647308     0.199469     0.200590
H     -0.538352     1.024518    -1.199493
H     -2.576088    -0.217359    -0.242499
C     -1.003504     1.368010    -0.169616
H     -0.460194     2.299816     0.108213
H     -0.570857     0.970267     0.961432
6
Family_3 [H][C]C([H])([H])[H] | RMSD: 0.7063 | 4532.00 to state    1 from traj    1 on state    2
C     -1.736590     0.291112     0.235371
H     -0.383917     0.868391    -0.937541
H     -2.049878    -0.354344    -0.666582
C     -0.879551     1.336531    -0.128964
H     -1.772338     2.504459    -0.509641
H     -0.352489     0.341846     0.842568
6
Family_3 [H][C]C([H])([H])[H] | RMSD: 0.4440 | 8732.00 to state    1 from traj    1 on state    2
C     -1.846319     0.198183     0.162430
H     -0.628672     0.847531    -0.943090
H     -2.123858    -0.706172    -0.253831
C     -0.837905     1.353377    -0.115090
H     -0.950531     2.577436     0.012267
H     -0.044305     1.548130     0.617290
6
Family_3 [H][C]C([H])([H])[H] | RMSD: 0.3956 | 3484.00 to state    1 from traj    1 on state    2
C     -1.745779     0.157727     0.202595
H     -0.215301     1.555339    -1.280289
H     -2.585603    -0.330346     0.056510
C     -0.907239     1.375481    -0.173665
H     -0.824946     2.457504    -0.175569
H     -0.493352     0.803121     1.051343
6
Family_3 [H][C]C([H])([H])[H] | RMSD: 0.4231 | 9908.00 to state    1 from traj    1 on state    2
C     -1.834455     0.216130     0.093930
H     -0.543013     0.948078    -1.176941
H     -2.099170    -0.912311     0.529580
C     -0.844763     1.383067    -0.148311
H     -0.906694     2.396507     0.487285
H     -0.258141     1.267031     0.804779
6
Family_3 [H][C]C([H])([H])[H] | RMSD: 0.3162 | 2248.00 to state    1 from traj    1 on state    2
C     -1.821014     0.225734     0.073597
H     -0.322234     1.075753    -0.925649
H     -1.956023    -0.705418     0.570737
C     -0.901757     1.371631    -0.075682
H     -0.881180     2.548485    -0.234883
H     -0.128611     0.802317     0.611359
6
Family_3 [H][C]C([H])([H])[H] | RMSD: 0.3870 | 8784.00 to state    1 from traj    1 on state    2
C     -1.877642     0.166877     0.099246
H     -0.197500     1.350485    -1.100080
H     -2.140529    -0.684375     0.689432
C     -0.816443     1.391039    -0.133138
H     -1.115908     2.455419     0.128716
H     -0.175929     1.069669     0.682485
6
Family_3 [H][C]C([H])([H])[H] | RMSD: 0.6093 | 1216.00 to state    1 from traj    1 on state    2
C     -1.835150     0.226032     0.055991
H     -1.023050     0.577351    -0.844787
H     -1.537344    -0.830864    -0.076461
C     -0.900774     1.440132     0.035550
H     -0.470600     1.909810    -0.845315
H     -0.100331     1.245049     0.672511
6
Family_3 [H][C]C([H])([H])[H] | RMSD: 0.4015 | 2996.00 to state    1 from traj    1 on state    2
C     -1.803324     0.248103     0.117079
H     -0.481329     1.083710    -1.059978
H     -2.377290    -0.799558     0.218752
C     -0.830705     1.301009    -0.105229
H     -1.236026     2.629931     0.055602
H     -0.250821     1.382021     0.641145
6
Family_3 [H][C]C([H])([H])[H] | RMSD: 0.5189 | 3992.00 to state    1 from traj    1 on state    2
C     -1.817719     0.234466     0.111034
H     -0.835969     0.735065    -0.926028
H     -1.928947    -0.747896    -0.289002
C     -0.843054     1.406109    -0.008584
H     -1.162268     2.076307    -0.795325
H     -0.099619     1.142775     0.786317
6
Family_3 [H][C]C([H])([H])[H] | RMSD: 0.2414 | 10000.00 to state    1 from traj    1 on state    2
C     -1.797948     0.211340     0.142222
H     -0.014696     1.214720    -1.114145
H     -2.241314    -0.672213     0.089594
C     -0.965513     1.351885    -0.062632
H     -0.501419     2.300090    -0.282108
H     -0.045775     1.285346     0.355000
6
Family_3 [H][C]C([H])([H])[H] | RMSD: 0.4529 | 2332.00 to state    1 from traj    1 on state    2
C     -1.812487     0.229867     0.069074
H     -0.170237     1.156808    -1.000115
H     -2.235511    -0.460054     0.648097
C     -0.893532     1.286569    -0.093264
H     -1.065905     2.587039     0.246706
H     -0.016017     1.401668     0.390273
6
Family_3 [H][C]C([H])([H])[H] | RMSD: 0.4220 | 3068.00 to state    1 from traj    1 on state    2
C     -1.857624     0.178041     0.153389
H     -0.336094     1.062984    -1.299339
H     -2.420550    -0.762793    -0.025168
C     -0.810543     1.359858    -0.109398
H     -1.210203     2.589454     0.000185
H      0.028148     1.540061     0.796860
6
Family_3 [H][C]C([H])([H])[H] | RMSD: 0.5112 | 6160.00 to state    1 from traj    1 on state    2
C     -1.840255     0.228134     0.063324
H     -0.324678     1.171525    -1.064541
H     -1.695786    -0.486530     0.806664
C     -0.836062     1.369876    -0.084930
H     -1.228864     2.398687    -0.074427
H     -0.592248     0.629776     0.586476
6
Family_3 [H][C]C([H])([H])[H] | RMSD: 0.4532 | 6108.00 to state    1 from traj    1 on state    2
C     -1.645245     0.225552     0.192927
H     -0.252514     1.376407    -1.068842
H     -2.780585    -0.152578     0.064029
C     -0.998127     1.294249    -0.202874
H     -0.715948     2.378613     0.347316
H     -0.485103     1.042915     0.772740
6
Family_3 [H][C]C([H])([H])[H] | RMSD: 0.3868 | 8348.00 to state    1 from traj    1 on state    2
C     -1.915776     0.046343     0.180790
H     -0.331615     1.073259    -0.785843
H     -2.389926    -0.875343    -0.001046
C     -0.785529     1.520947    -0.134723
H     -0.817198     2.749654    -0.251989
H     -0.005095     1.131936     0.486677
6
Family_3 [H][C]C([H])([H])[H] | RMSD: 0.4573 | 15876.00 to state    1 from traj    1 on state    2
C     -1.861834     0.142931     0.072439
H     -0.074807     0.970814    -0.896408
H     -2.409590    -0.841530     0.677419
C     -0.836028     1.449537    -0.076732
H     -1.167753     2.532436     0.023694
H      0.067285     1.117777     0.243172
6
Family_3 [H][C]C([H])([H])[H] | RMSD: 0.3656 | 16984.00 to state    1 from traj    1 on state    2
C     -1.891537     0.143701     0.106857
H     -0.226119     1.540454    -1.388634
H     -2.288565    -0.727054     0.494385
C     -0.800957     1.383517    -0.081016
H     -0.952395     2.332337    -0.265842
H     -0.181741     1.411243     0.848889
6
Family_3 [H][C]C([H])([H])[H] | RMSD: 0.5118 | 2704.00 to state    1 from traj    1 on state    2
C     -1.716644     0.221972     0.144829
H     -0.452848     1.194670    -1.412775
H     -2.658873    -0.243158     0.101912
C     -0.897352     1.313960    -0.155709
H     -1.240523     2.095847     0.319102
H     -0.231930     1.405797     1.118122
6
Family_3 [H][C]C([H])([H])[H] | RMSD: 0.4087 | 8592.00 to state    1 from traj    1 on state    2
C     -1.838230     0.238903     0.133624
H     -0.445535     1.168936    -1.024931
H     -2.214102    -0.884726    -0.134126
C     -0.823007     1.342797    -0.026351
H     -1.204836     2.270706    -0.685303
H     -0.156801     1.352874     0.562848
6
Family_3 [H][C]C([H])([H])[H] | RMSD: 0.3767 | 10236.00 to state    1 from traj    1 on state    2
C     -1.755371     0.261601     0.091373
H     -0.191029     1.435972    -0.902162
H     -2.515750    -0.889191     0.658557
C     -0.951517     1.325765    -0.139848
H     -0.842796     2.388127     0.004595
H      0.072263     0.905377     0.813338
6
Family_3 [H][C]C([H])([H])[H] | RMSD: 0.4391 | 14856.00 to state    1 from traj    1 on state    2
C     -1.777753     0.321253     0.100214
H     -0.312315     1.278891    -1.079737
H     -1.737228    -0.630235     0.634971
C     -0.958972     1.272510    -0.168548
H     -0.726436     2.165744     0.507994
H     -0.345794     0.949656     0.747725
6
Family_3 [H][C]C([H])([H])[H] | RMSD: 0.4810 | 16484.00 to state    1 from traj    1 on state    2
C     -1.713129     0.287911     0.020055
H     -0.124643     0.915459    -1.250557
H     -2.544104    -0.454656     0.753926
C     -0.983425     1.266728    -0.049660
H     -1.119240     2.358405     0.278770
H      0.187539     1.411040     0.567343
6
Family_3 [H][C]C([H])([H])[H] | RMSD: 0.4249 | 2296.00 to state    1 from traj    1 on state    2
C     -1.794305     0.131157     0.192045
H      0.133167     1.340608    -1.027424
H     -2.692711    -0.569685     0.262542
C     -0.900892     1.421505    -0.192750
H     -0.890858     2.413882     0.367972
H     -0.166201     1.068989     0.402022
6
Family_3 [H][C]C([H])([H])[H] | RMSD: 0.3393 | 5044.00 to state    1 from traj    1 on state    2
C     -1.772694     0.268640     0.123426
H     -0.477966     0.842064    -0.965718
H     -2.159080    -0.673776    -0.159568
C     -0.953224     1.318525    -0.064966
H     -0.860830     2.408834    -0.319326
H      0.247320     1.265552     0.744742
6
Family_3 [H][C]C([H])([H])[H] | RMSD: 0.3630 | 9452.00 to state    1 from traj    1 on state    2
C     -1.770532     0.176622     0.023025
H     -0.616803     0.907397    -1.024888
H     -2.299786    -0.515290     0.583247
C     -0.938455     1.376864    -0.013785
H     -0.508895     2.632509    -0.431468
H     -0.026814     1.219369     0.759728
6
Family_3 [H][C]C([H])([H])[H] | RMSD: 0.4136 | 4956.00 to state    1 from traj    1 on state    2
C     -1.820118     0.282326     0.078416
H     -0.271349     1.413005    -1.276103
H     -2.062136    -0.637324     0.654290
C     -0.859654     1.265277    -0.105962
H     -1.249554     2.380119     0.070819
H     -0.217380     1.158290     0.875950
6
Family_3 [H][C]C([H])([H])[H] | RMSD: 0.3627 | 6384.00 to state    1 from traj    1 on state    2
C     -1.784757     0.317560     0.058355
H     -0.198985     1.054626    -1.362287
H     -2.072819    -0.630699     0.503197
C     -0.928087     1.258262    -0.056098
H     -1.210885     2.252016     0.061805
H      0.076351     1.301888     0.767109
6
Family_3 [H][C]C([H])([H])[H] | RMSD: 0.3004 | 6488.00 to state    1 from traj    1 on state    2
C     -1.749449     0.312181     0.044908
H     -0.329523     1.014228    -1.314080
H     -2.215780    -0.639560     0.448248
C     -0.936653     1.247493    -0.002257
H     -1.059810     2.579122    -0.366069
H     -0.119875     1.216455     0.720404
6
Family_3 [H][C]C([H])([H])[H] | RMSD: 0.3067 | 6536.00 to state    2 from traj    4 on state    1
C     -1.734600     0.296174     0.047076
H     -0.344582     1.010556    -1.322003
H     -2.281790    -0.590509     0.394173
C     -0.942256     1.259525     0.019778
H     -0.978800     2.623884    -0.550991
H     -0.229985     1.173688     0.678917
6
Family_3 [H][C]C([H])([H])[H] | RMSD: 0.4644 | 2032.00 to state    1 from traj    1 on state    2
C     -1.911002     0.139459     0.121175
H     -0.144447     1.558413    -1.003238
H     -2.317182    -0.786223     0.572229
C     -0.817764     1.355130    -0.144412
H     -0.810547     2.682600     0.117739
H      0.055566     1.490991     0.586873
6
Family_3 [H][C]C([H])([H])[H] | RMSD: 0.3226 | 2936.00 to state    1 from traj    1 on state    2
C     -1.768353     0.185847     0.141860
H     -0.359266     0.905307    -0.863433
H     -2.229990    -0.678174    -0.012912
C     -0.953600     1.408149    -0.066095
H     -0.485653     2.689434    -0.494564
H     -0.222889     0.844714     0.464838
6
Family_3 [H][C]C([H])([H])[H] | RMSD: 0.2574 | 5396.00 to state    1 from traj    1 on state    2
C     -1.731147     0.269478     0.128839
H     -0.484331     1.074597    -1.409101
H     -2.224694    -0.553501     0.030168
C     -0.923941     1.307260    -0.066037
H     -0.859232     2.305940    -0.257539
H     -0.526278     1.139888     0.884857
6
Family_3 [H][C]C([H])([H])[H] | RMSD: 0.2847 | 6608.00 to state    1 from traj    1 on state    2
C     -1.687577     0.220423     0.169603
H     -0.060649     1.173024    -1.075594
H     -2.553584    -0.236665    -0.043478
C     -1.024344     1.328995    -0.110970
H     -0.638060     2.302085    -0.104646
H     -0.165039     1.054009     0.521792
6
Family_3 [H][C]C([H])([H])[H] | RMSD: 0.3966 | 2084.00 to state    1 from traj    1 on state    2
C     -1.839879     0.255925     0.128757
H     -0.342165     1.388634    -1.345689
H     -2.145661    -0.686767    -0.039990
C     -0.853112     1.280505    -0.037666
H     -1.108264     2.226558    -0.567386
H     -0.046801     1.518796     0.864376
6
Family_3 [H][C]C([H])([H])[H] | RMSD: 0.4905 | 4520.00 to state    1 from traj    1 on state    2
C     -1.823239     0.262457     0.130525
H     -0.269574     1.466334    -0.943153
H     -1.818942    -0.610075     0.643147
C     -0.914339     1.285100    -0.213744
H     -0.694281     2.515093     0.555673
H     -0.328828     0.943279     0.732670
6
Family_3 [H][C]C([H])([H])[H] | RMSD: 0.4731 | 4548.00 to state    1 from traj    1 on state    2
C     -1.853295     0.250620     0.101349
H     -0.295326     1.764282    -1.082260
H     -1.946347    -0.720831     0.754056
C     -0.884322     1.277222    -0.170584
H     -0.738399     2.440286     0.114377
H     -0.131075     1.065809     1.035525
6
Family_3 [H][C]C([H])([H])[H] | RMSD: 0.5358 | 6008.00 to state    1 from traj    1 on state    2
C     -1.822986     0.250031     0.119089
H     -0.755317     0.588306    -1.060788
H     -1.940652    -0.771809    -0.404313
C     -0.873620     1.376772    -0.021521
H     -1.131906     2.247928    -0.602337
H      0.228050     1.305935     0.901565
6
Family_3 [H][C]C([H])([H])[H] | RMSD: 0.3657 | 9032.00 to state    1 from traj    1 on state    2
C     -1.788188     0.261749     0.109036
H     -0.532546     0.947533    -1.307783
H     -2.195395    -0.608417    -0.054425
C     -0.861632     1.294754    -0.022670
H     -1.164814     2.411175    -0.392175
H     -0.264560     1.457748     0.721999
6
Family_3 [H][C]C([H])([H])[H] | RMSD: 0.4114 | 11428.00 to state    1 from traj    1 on state    2
C     -1.784886     0.266852     0.077283
H     -0.608391     1.073530    -1.065130
H     -2.202435    -0.711984     0.498895
C     -0.851670     1.314474    -0.116426
H     -1.177914     2.228399     0.276862
H     -0.326615     1.322308     0.752503
6
Family_3 [H][C]C([H])([H])[H] | RMSD: 0.4376 | 12520.00 to state    1 from traj    1 on state    2
C     -1.796816     0.224271     0.113922
H     -0.767506     1.041143    -1.197634
H     -2.202428    -0.634094     0.007647
C     -0.803085     1.356636    -0.050718
H     -1.295812     2.363813    -0.526276
H     -0.486388     1.146375     0.959853
6
Family_3 [H][C]C([H])([H])[H] | RMSD: 0.3169 | 2588.00 to state    1 from traj    1 on state    2
C     -1.687155     0.238635     0.170532
H     -0.231215     1.147458    -1.126930
H     -2.532016    -0.255169    -0.025363
C     -0.984598     1.291679    -0.131658
H     -0.778577     2.558609     0.034853
H     -0.354157     1.069195     0.650957
6
Family_3 [H][C]C([H])([H])[H] | RMSD: 0.3616 | 5180.00 to state    1 from traj    1 on state    2
C     -1.797202     0.208568     0.087833
H     -0.366344     1.004212    -0.915216
H     -2.312090    -0.733143     0.473365
C     -0.908384     1.343538    -0.099456
H     -0.757277     2.839128     0.023836
H     -0.057117     1.150230     0.553230
6
Family_3 [H][C]C([H])([H])[H] | RMSD: 0.3255 | 5532.00 to state    1 from traj    1 on state    2
C     -1.770843     0.165766     0.162411
H     -0.022766     1.357602    -1.173097
H     -2.609998    -0.526227     0.064424
C     -0.914002     1.391099    -0.077729
H     -0.933404     2.470529    -0.566480
H     -0.173797     0.901818     0.662826
6
Family_3 [H][C]C([H])([H])[H] | RMSD: 0.4317 | 11292.00 to state    1 from traj    1 on state    2
C     -1.822326     0.239729     0.060123
H     -0.246273     1.162503    -0.803403
H     -2.132666    -0.732527     0.758627
C     -0.869882     1.341011    -0.094680
H     -1.157039     2.493906     0.053569
H     -0.116254     0.995362     0.399692
6
Family_3 [H][C]C([H])([H])[H] | RMSD: 0.4847 | 9056.00 to state    1 from traj    1 on state    2
C     -1.810183     0.147856     0.082611
H     -0.411458     0.706730    -0.962251
H     -2.472712    -0.568617     0.463842
C     -0.846590     1.447232    -0.122499
H     -1.327093     2.466900     0.304994
H      0.136793     1.143257     0.665425
6
Family_3 [H][C]C([H])([H])[H] | RMSD: 0.2808 | 15744.00 to state    1 from traj    1 on state    2
C     -1.741075     0.282970     0.124153
H     -0.342391     1.043172    -1.123716
H     -2.410824    -0.745490    -0.020126
C     -0.942465     1.284528    -0.052124
H     -0.938714     2.622964    -0.433640
H     -0.063589     1.156379     0.715934
6
Family_3 [H][C]C([H])([H])[H] | RMSD: 0.2465 | 19104.00 to state    1 from traj    1 on state    2
C     -1.872920     0.136978     0.093832
H     -0.225101     1.119169    -1.339347
H     -2.170470    -0.705841     0.468940
C     -0.842204     1.430106    -0.062954
H     -0.862217     2.492660    -0.227396
H     -0.121376     1.175974     0.726596
6
Family_3 [H][C]C([H])([H])[H] | RMSD: 0.3615 | 5012.00 to state    1 from traj    1 on state    2
C     -1.780499     0.264213     0.122875
H     -0.555159     0.910537    -1.092339
H     -2.120650    -0.633980    -0.137166
C     -0.894762     1.299367    -0.036942
H     -1.007366     2.661670    -0.531443
H     -0.170988     1.185486     0.733714
6
Family_3 [H][C]C([H])([H])[H] | RMSD: 0.3698 | 5412.00 to state    1 from traj    1 on state    2
C     -1.795270     0.283871     0.067721
H     -0.075499     1.011377    -1.243676
H     -2.215847    -0.657196     0.430882
C     -0.914975     1.298838    -0.039206
H     -1.312173     2.284604    -0.094869
H      0.166215     1.256990     0.564611
6
Family_3 [H][C]C([H])([H])[H] | RMSD: 0.4920 | 3864.00 to state    1 from traj    1 on state    2
C     -1.829245     0.233007     0.144161
H     -0.754370     0.775536    -1.112236
H     -1.771127    -0.640344    -0.451103
C     -0.900923     1.355953    -0.037996
H     -0.705339     2.400940    -0.646553
H      0.030927     1.285159     0.941574
6
Family_3 [H][C]C([H])([H])[H] | RMSD: 0.2391 | 7324.00 to state    1 from traj    1 on state    2
C     -1.816940     0.120428     0.082441
H     -0.227527     1.112634    -1.272076
H     -2.372546    -0.503253     0.464703
C     -0.887007     1.433876    -0.030472
H     -0.690143     2.430618    -0.396732
H     -0.222129     1.194247     0.581572
6
Family_3 [H][C]C([H])([H])[H] | RMSD: 0.4317 | 1196.00 to state    1 from traj    1 on state    2
C     -1.823280     0.250876     0.086566
H     -0.305982     1.070590    -1.390925
H     -2.303710    -0.710669     0.273177
C     -0.833921     1.324482    -0.050599
H     -1.503046     2.228171    -0.168632
H      0.043380     1.395278     0.854536
6
Family_3 [H][C]C([H])([H])[H] | RMSD: 0.4000 | 3464.00 to state    1 from traj    1 on state    2
C     -1.825194     0.133449     0.163246
H     -0.222567     1.554783    -1.020878
H     -2.626835    -0.632966     0.279546
C     -0.803023     1.395546    -0.133118
H     -1.102053     2.489754    -0.209638
H     -0.463265     1.124239     0.588700
6
Family_3 [H][C]C([H])([H])[H] | RMSD: 0.2878 | 2068.00 to state    1 from traj    1 on state    2
C     -1.815146     0.241570     0.090452
H     -0.374163     1.168337    -1.036416
H     -2.086448    -0.727543     0.482345
C     -0.888707     1.342132    -0.109375
H     -0.915669     2.210883     0.126601
H     -0.137199     1.232261     0.649662
6
Family_3 [H][C]C([H])([H])[H] | RMSD: 0.3338 | 6280.00 to state    1 from traj    1 on state    2
C     -1.777182     0.253661     0.164770
H     -0.364209     0.856513    -0.983898
H     -2.217240    -0.668162    -0.155875
C     -0.909917     1.337461    -0.126478
H     -1.098870     2.505886     0.040674
H     -0.032794     1.101283     0.639539
6
Family_3 [H][C]C([H])([H])[H] | RMSD: 0.3767 | 4084.00 to state    1 from traj    1 on state    2
C     -1.846388     0.162738     0.081617
H     -0.376774     1.069408    -0.956380
H     -2.290065    -0.589846     0.469874
C     -0.825938     1.406958    -0.085491
H     -1.281835     2.467014    -0.172772
H      0.059541     1.104261     0.702149
6
Family_3 [H][C]C([H])([H])[H] | RMSD: 0.3804 | 6740.00 to state    1 from traj    1 on state    2
C     -1.844884     0.220301     0.090860
H     -0.322924     1.154245    -1.436031
H     -2.094784    -0.726641     0.523424
C     -0.828750     1.362438    -0.100666
H     -1.174847     2.164209     0.198063
H     -0.281001     1.303594     0.828108
6
Family_3 [H][C]C([H])([H])[H] | RMSD: 0.2941 | 16976.00 to state    1 from traj    1 on state    2
C     -1.802916     0.163351     0.184477
H     -0.228781     1.385083    -1.201858
H     -2.434770    -0.515226     0.085937
C     -0.871720     1.364322    -0.158266
H     -0.835282     2.485754     0.054220
H     -0.362769     1.195955     0.746101
6
Family_3 [H][C]C([H])([H])[H] | RMSD: 0.4936 | 4676.00 to state    1 from traj    1 on state    2
C     -1.814685     0.235527     0.052654
H     -0.305255     1.093026    -1.036136
H     -2.175485    -0.470075     0.607855
C     -0.826480     1.331809    -0.043770
H     -1.627120     2.519280    -0.304528
H     -0.152576     0.936716     0.623671
6
Family_3 [H][C]C([H])([H])[H] | RMSD: 0.4879 | 2784.00 to state    1 from traj    1 on state    2
C     -1.808806     0.182303     0.093668
H     -0.709305     1.091942    -1.343879
H     -2.471954    -0.650156     0.385211
C     -0.769899     1.368588    -0.102807
H     -1.332607     2.429421     0.065095
H     -0.490820     1.403696     0.999196
6
Family_3 [H][C]C([H])([H])[H] | RMSD: 0.4342 | 5016.00 to state    1 from traj    1 on state    2
C     -1.711320     0.250958     0.160160
H     -0.466122     1.011486    -0.912661
H     -2.467567    -0.447317     0.050619
C     -0.901867     1.339800    -0.169538
H     -1.225173     2.126720     0.383146
H     -0.434953     1.108983     0.587362
6
Family_3 [H][C]C([H])([H])[H] | RMSD: 0.3983 | 9764.00 to state    1 from traj    1 on state    2
C     -1.849757     0.186822     0.127531
H     -0.360458     1.212903    -1.513815
H     -2.231855    -0.685968     0.295849
C     -0.842213     1.345775    -0.126757
H     -0.860343     2.377279     0.276640
H     -0.202412     1.588671     0.928814
6
Family_3 [H][C]C([H])([H])[H] | RMSD: 0.3818 | 15052.00 to state    1 from traj    1 on state    2
C     -1.814603     0.223317     0.126334
H     -0.243070     1.082087    -1.016106
H     -2.393721    -0.794478    -0.065983
C     -0.908856     1.339374    -0.043291
H     -0.865706     2.225966    -0.340884
H      0.222641     1.620721     0.430174
6
Family_3 [H][C]C([H])([H])[H] | RMSD: 0.3477 | 1484.00 to state    1 from traj    1 on state    2
C     -1.807070     0.205434     0.113954
H     -0.208924     1.214922    -1.147828
H     -2.442873    -0.633349     0.147708
C     -0.862918     1.350024    -0.034613
H     -1.216043     2.460316    -0.585343
H     -0.049148     1.178601     0.636779
6
Family_3 [H][C]C([H])([H])[H] | RMSD: 0.4149 | 1784.00 to state    1 from traj    1 on state    2
C     -1.795970     0.183824     0.158610
H     -0.222513     0.805542    -0.744606
H     -2.313187    -0.727070    -0.231064
C     -0.908459     1.453837    -0.056549
H     -1.059435     2.283550    -0.564988
H      0.088528     0.878960     0.321251
6
Family_3 [H][C]C([H])([H])[H] | RMSD: 0.6368 | 2864.00 to state    1 from traj    1 on state    2
C     -1.648159     0.164552     0.195505
H     -0.415370     1.419907    -1.131988
H     -2.989240    -0.085768     0.187110
C     -0.889000     1.369180    -0.219674
H     -1.141177     2.245194     0.385974
H     -0.953963     0.900031     0.843614
6
Family_3 [H][C]C([H])([H])[H] | RMSD: 0.4157 | 4608.00 to state    1 from traj    1 on state    2
C     -1.842538     0.291691     0.090668
H     -0.107230     1.241990    -1.245253
H     -1.725629    -0.926317     0.691149
C     -0.936709     1.312515    -0.132470
H     -0.656999     2.260777     0.379653
H     -0.125242     1.063176     0.669271
6
Family_3 [H][C]C([H])([H])[H] | RMSD: 0.4177 | 5312.00 to state    1 from traj    1 on state    2
C     -1.797751     0.176276     0.138488
H     -0.220415     1.237436    -1.107225
H     -2.596510    -0.446057     0.185296
C     -0.881484     1.343050    -0.131884
H     -1.064791     2.305891     0.191536
H      0.074906     1.553752     0.648414
6
Family_3 [H][C]C([H])([H])[H] | RMSD: 0.4927 | 6732.00 to state    1 from traj    1 on state    2
C     -1.831145     0.218493     0.071389
H     -0.121697     1.492971    -0.837094
H     -2.225936    -0.641270     0.603086
C     -0.873661     1.369420    -0.053753
H     -1.309656     2.232321    -0.680914
H      0.155173     0.749741     0.701499
6
Family_3 [H][C]C([H])([H])[H] | RMSD: 0.4843 | 14288.00 to state    1 from traj    1 on state    2
C     -1.724342     0.267999     0.008724
H     -0.596077     0.707241    -0.995019
H     -2.291161    -0.331564     0.681139
C     -0.929876     1.292915    -0.053192
H     -1.171151     2.483745     0.201208
H     -0.046511     1.296055     0.639251
6
Family_3 [H][C]C([H])([H])[H] | RMSD: 0.4212 | 18136.00 to state    1 from traj    1 on state    2
C     -1.794246     0.300426     0.073120
H     -0.460889     1.169459    -1.391662
H     -2.268412    -0.826187     0.464367
C     -0.858021     1.250856    -0.082441
H     -1.204826     2.429875     0.125004
H     -0.194026     1.497094     0.910082
6
Family_3 [H][C]C([H])([H])[H] | RMSD: 0.4637 | 20484.00 to state    1 from traj    1 on state    2
C     -1.730134     0.214156     0.198864
H     -0.101088     1.004447    -1.091247
H     -2.462552    -0.308837    -0.027738
C     -0.974318     1.329000    -0.209694
H     -0.825047     2.465275     0.681244
H     -0.117651     1.206189     0.563503
6
Family_3 [H][C]C([H])([H])[H] | RMSD: 0.3616 | 4588.00 to state    1 from traj    1 on state    2
C     -1.718790     0.228214     0.171496
H     -0.353462     1.341070    -0.930229
H     -2.545236    -0.401801     0.002053
C     -0.930684     1.304287    -0.138718
H     -0.941317     2.668016    -0.262753
H     -0.321420     0.886752     0.797080
6
Family_3 [H][C]C([H])([H])[H] | RMSD: 0.4614 | 2092.00 to state    1 from traj    1 on state    2
C     -1.835045     0.232324     0.150348
H     -0.662661     0.806288    -1.003507
H     -1.932031    -0.657850    -0.422501
C     -0.871137     1.344858    -0.053725
H     -0.967005     2.445395    -0.502212
H      0.075970     1.367800     0.773612
6
Family_3 [H][C]C([H])([H])[H] | RMSD: 0.3782 | 4496.00 to state    1 from traj    1 on state    2
C     -1.784494     0.231406     0.134021
H     -0.309892     0.757514    -1.083252
H     -2.357817    -0.661719    -0.037610
C     -0.898076     1.358834    -0.093752
H     -1.175625     2.349567     0.110616
H      0.076264     1.360667     0.527135
6
Family_3 [H][C]C([H])([H])[H] | RMSD: 0.4229 | 16352.00 to state    2 from traj    5 on state    1
C     -1.813094     0.141937     0.094005
H     -0.416754     1.508898    -0.990680
H     -2.687493    -0.560654     0.454932
C     -0.842305     1.369124    -0.088832
H     -0.919487     2.279725    -0.267174
H     -0.067098     1.521541     0.737996
6
Family_3 [H][C]C([H])([H])[H] | RMSD: 0.4132 | 16348.00 to state    1 from traj    1 on state    2
C     -1.809542     0.144353     0.100571
H     -0.414994     1.488025    -0.987615
H     -2.697481    -0.567883     0.403271
C     -0.843146     1.367676    -0.089047
H     -0.930081     2.314128    -0.284009
H     -0.080577     1.503707     0.727760
6
Family_3 [H][C]C([H])([H])[H] | RMSD: 0.4075 | 19636.00 to state    1 from traj    6 on state    2
C     -1.800192     0.252746     0.127287
H     -0.677956     0.831905    -0.905155
H     -1.727627    -0.896787    -0.171434
C     -0.939659     1.399619    -0.040110
H     -0.420240     2.126523    -0.588801
H     -0.258709     1.004142     0.623339
6
Family_3 [H][C]C([H])([H])[H] | RMSD: 0.2891 | 1236.00 to state    1 from traj    1 on state    2
C     -1.765142     0.149434     0.183924
H     -0.190760     0.865719    -1.257356
H     -2.471880    -0.685874     0.013288
C     -0.952057     1.471912    -0.175763
H     -0.605054     2.281197     0.341671
H     -0.086753     0.974343     0.801881
6
Family_3 [H][C]C([H])([H])[H] | RMSD: 0.5141 | 9412.00 to state    1 from traj    1 on state    2
C     -1.886005     0.204153     0.114750
H     -0.012604     1.477176    -1.187220
H     -1.696516    -0.655036     0.846532
C     -0.860510     1.386389    -0.175001
H     -0.921678     2.264186     0.364943
H     -0.374327     0.716113     0.690389
6
Family_3 [H][C]C([H])([H])[H] | RMSD: 0.4089 | 13400.00 to state    1 from traj    1 on state    2
C     -1.867055     0.141341     0.128483
H     -0.268676     1.138790    -1.048681
H     -2.459265    -0.738053     0.048450
C     -0.803047     1.418579    -0.045532
H     -1.273561     2.482857    -0.589609
H      0.085861     1.283731     0.598139
6
Family_3 [H][C]C([H])([H])[H] | RMSD: 0.5270 | 2632.00 to state    1 from traj    1 on state    2
C     -1.669959     0.240847     0.251446
H      0.060576     1.397199    -1.130091
H     -2.646051    -0.139969    -0.188632
C     -0.966828     1.298452    -0.213706
H     -1.155846     2.501670     0.206350
H     -0.571282     0.654135     0.659391
6
Family_3 [H][C]C([H])([H])[H] | RMSD: 0.2968 | 3848.00 to state    1 from traj    1 on state    2
C     -1.728222     0.194462     0.033397
H     -0.361736     0.763899    -1.075946
H     -2.413709    -0.503198     0.585427
C     -0.967765     1.411098    -0.014856
H     -0.774900     2.472595    -0.360254
H     -0.056853     0.890190     0.626559
6
Family_3 [H][C]C([H])([H])[H] | RMSD: 0.2819 | 3532.00 to state    1 from traj    1 on state    2
C     -1.752200     0.254765     0.161139
H     -0.081890     1.219207    -1.237212
H     -2.468585    -0.618376     0.005904
C     -0.942780     1.315163    -0.111105
H     -1.080089     2.452791    -0.198569
H      0.011359     0.994453     0.830401
6
Family_3 [H][C]C([H])([H])[H] | RMSD: 0.4597 | 3552.00 to state    1 from traj    1 on state    2
C     -1.863342     0.207308     0.128868
H     -0.577868     1.183288    -1.078693
H     -2.067588    -0.810633    -0.187392
C     -0.823466     1.379166    -0.021079
H     -1.086002     2.213707    -0.911921
H      0.014882     1.264556     0.890344
6
Family_3 [H][C]C([H])([H])[H] | RMSD: 0.5028 | 8980.00 to state    1 from traj    1 on state    2
C     -1.861600     0.168846     0.134538
H     -0.067383     1.462099    -0.902555
H     -1.863649    -0.642024     0.776662
C     -0.865691     1.426840    -0.192122
H     -0.806329     2.368789     0.293473
H     -0.496832     0.552281     0.515283
6
Family_3 [H][C]C([H])([H])[H] | RMSD: 0.3231 | 12696.00 to state    1 from traj    1 on state    2
C     -1.765552     0.318775     0.146754
H     -0.424459     1.069982    -1.040109
H     -2.061052    -0.657245    -0.259384
C     -0.944860     1.243867    -0.059939
H     -0.863107     2.283284    -0.309881
H     -0.086703     1.438869     0.571632
6
Family_3 [H][C]C([H])([H])[H] | RMSD: 0.4527 | 14252.00 to state    1 from traj    1 on state    2
C     -1.669430     0.268970     0.012321
H     -0.700653     0.607684    -0.866349
H     -2.300942    -0.323485     0.640762
C     -0.966799     1.343056    -0.048859
H     -1.054745     2.400120    -0.008004
H     -0.262913     0.862122     0.665681
6
Family_3 [H][C]C([H])([H])[H] | RMSD: 0.3917 | 2956.00 to state    1 from traj    1 on state    2
C     -1.762382     0.246205     0.156068
H     -0.666098     1.253960    -1.280576
H     -2.387667    -0.613981    -0.086838
C     -0.859406     1.302789    -0.122905
H     -1.046989     2.326374    -0.143689
H     -0.390572     1.331148     1.112651
6
Family_3 [H][C]C([H])([H])[H] | RMSD: 0.4305 | 3876.00 to state    1 from traj    1 on state    2
C     -1.792166     0.237469     0.111910
H     -0.583783     1.521255    -1.188508
H     -2.357178    -0.630875     0.434128
C     -0.853463     1.297040    -0.155515
H     -1.004446     2.231151     0.124065
H     -0.261840     1.348577     1.146621
6
Family_3 [H][C]C([H])([H])[H] | RMSD: 0.4287 | 2020.00 to state    1 from traj    1 on state    2
C     -1.829727     0.235991     0.081345
H     -0.312734     1.141115    -0.840978
H     -1.789622    -0.587112     0.697743
C     -0.892541     1.378194    -0.138660
H     -1.032803     2.213874     0.203278
H     -0.158882     0.752840     0.619623
6
Family_3 [H][C]C([H])([H])[H] | RMSD: 0.4558 | 3908.00 to state    1 from traj    1 on state    2
C     -1.803638     0.243319     0.038441
H      0.077147     1.157429    -0.959877
H     -2.242443    -0.582417     0.716450
C     -0.945593     1.341145    -0.025743
H     -1.185927     2.367474    -0.375421
H      0.378456     0.932376     0.464264
6
Family_3 [H][C]C([H])([H])[H] | RMSD: 0.5206 | 4872.00 to state    1 from traj    1 on state    2
C     -1.793624     0.289561     0.151794
H     -0.054121     0.929592    -0.990660
H     -1.982171    -0.554698    -0.441436
C     -0.972887     1.313388     0.003253
H     -1.113517     2.197792    -0.859409
H      0.382948     1.081912     0.440726
6
Family_3 [H][C]C([H])([H])[H] | RMSD: 0.4546 | 3672.00 to state    1 from traj    1 on state    2
C     -1.836942     0.147775     0.082622
H     -0.161062     0.886447    -0.743722
H     -2.326773    -0.757884     0.644989
C     -0.861517     1.472119    -0.111651
H     -1.116783     2.370845     0.191570
H      0.026870     0.953287     0.249778
6
Family_3 [H][C]C([H])([H])[H] | RMSD: 0.4228 | 1100.00 to state    1 from traj    1 on state    2
C     -1.825766     0.234946     0.151045
H     -0.718368     0.752385    -0.896688
H     -1.787004    -0.773435    -0.347926
C     -0.886408     1.386843    -0.066790
H     -0.771254     2.310498    -0.442615
H     -0.137696     1.140662     0.679994
6
Family_3 [H][C]C([H])([H])[H] | RMSD: 0.4079 | 1696.00 to state    1 from traj    1 on state    2
C     -1.855588     0.197852     0.080388
H     -0.308138     1.063514    -1.034222
H     -1.670618    -0.652494     0.711199
C     -0.871663     1.425342    -0.106065
H     -0.851164     2.330036     0.036650
H     -0.404748     0.672306     0.589054
6
Family_3 [H][C]C([H])([H])[H] | RMSD: 0.3965 | 14404.00 to state    1 from traj    1 on state    2
C     -1.830745     0.193974     0.168903
H     -0.249095     0.678794    -1.195509
H     -2.188823    -0.690062    -0.278299
C     -0.857477     1.403668    -0.073518
H     -1.174966     2.409971    -0.075363
H     -0.086839     1.319136     0.409310
6
Family_3 [H][C]C([H])([H])[H] | RMSD: 0.4387 | 17764.00 to state    1 from traj    1 on state    2
C     -1.808992     0.216661     0.097591
H     -0.512273     1.284105    -0.966671
H     -2.285689    -0.536826     0.378040
C     -0.806161     1.336225    -0.085343
H     -1.441948     2.511478    -0.357995
H     -0.330480     0.992378     0.797393
6
Family_3 [H][C]C([H])([H])[H] | RMSD: 0.3255 | 18008.00 to state    1 from traj    1 on state    2
C     -1.743152     0.260231     0.160794
H     -0.360694     1.000257    -1.129013
H     -2.371403    -0.719988    -0.023707
C     -0.970437     1.305154    -0.153570
H     -0.701166     2.735605     0.125262
H      0.035804     1.086329     0.938094
6
Family_3 [H][C]C([H])([H])[H] | RMSD: 0.3953 | 992.00 to state    1 from traj    1 on state    2
C     -1.720655     0.232444     0.014360
H     -0.765176     1.022346    -0.955877
H     -2.487686    -0.504018     0.588429
C     -0.904109     1.336102    -0.012793
H     -0.960457     2.313295    -0.450075
H     -0.242550     1.232914     0.795573
6
Family_3 [H][C]C([H])([H])[H] | RMSD: 0.3232 | 5888.00 to state    1 from traj    1 on state    2
C     -1.866908     0.160739     0.113440
H     -0.104220     1.222382    -1.074029
H     -2.106152    -0.593090     0.459470
C     -0.876707     1.385707    -0.106181
H     -0.763140     2.346502     0.129757
H     -0.066167     1.352072     0.395028
6
Family_3 [H][C]C([H])([H])[H] | RMSD: 0.3590 | 6268.00 to state    1 from traj    1 on state    2
C     -1.779543     0.201361     0.166515
H     -0.381616     1.424304    -1.070350
H     -2.579809    -0.619633     0.063755
C     -0.860124     1.355183    -0.152113
H     -1.158635     2.285650    -0.141912
H     -0.158230     1.117225     0.973624
6
Family_3 [H][C]C([H])([H])[H] | RMSD: 0.3850 | 11476.00 to state    1 from traj    1 on state    2
C     -1.876271     0.129219     0.092671
H     -0.297698     1.181587    -1.309597
H     -2.398353    -0.691377     0.456627
C     -0.808419     1.436263    -0.093066
H     -1.199939     2.286046    -0.101475
H      0.154185     1.324786     0.955871
6
Family_3 [H][C]C([H])([H])[H] | RMSD: 0.6328 | 2232.00 to state    1 from traj    1 on state    2
C     -1.880648     0.195294     0.138970
H     -0.796610     0.654308    -0.805935
H     -1.599943    -0.593022    -0.562823
C     -0.865999     1.391216    -0.000793
H     -0.701242     2.295362    -0.786087
H      0.094242     1.493829     0.505090
6
Family_3 [H][C]C([H])([H])[H] | RMSD: 0.3039 | 3780.00 to state    1 from traj    1 on state    2
C     -1.806940     0.165457     0.087531
H     -0.296905     1.248937    -1.160954
H     -2.542510    -0.725618     0.499014
C     -0.883277     1.396009    -0.085601
H     -0.885275     2.468796    -0.242607
H      0.048741     1.156775     0.878258
6
Family_3 [H][C]C([H])([H])[H] | RMSD: 0.3392 | 5600.00 to state    1 from traj    1 on state    2
C     -1.754726     0.210062     0.180016
H     -0.439883     1.015405    -1.093615
H     -2.553565    -0.741323    -0.058025
C     -0.886464     1.376412    -0.170353
H     -1.007195     2.480400     0.196895
H     -0.259501     1.096431     0.836316
6
Family_3 [H][C]C([H])([H])[H] | RMSD: 0.5000 | 14556.00 to state    1 from traj    1 on state    2
C     -1.744383     0.285397     0.034786
H     -0.050058     0.843744    -1.071716
H     -2.388694    -0.609666     0.735726
C     -0.929075     1.330712    -0.050850
H     -1.470338     2.213901     0.181900
H      0.033443     1.049815     0.342216
6
Family_3 [H][C]C([H])([H])[H] | RMSD: 0.3068 | 7260.00 to state    1 from traj    1 on state    2
C     -1.803252     0.198746     0.155377
H     -0.262376     1.464306    -1.045962
H     -2.499803    -0.659641     0.141018
C     -0.879576     1.330922    -0.129682
H     -0.912362     2.448046    -0.167980
H     -0.089458     1.275075     0.763465
6
Family_3 [H][C]C([H])([H])[H] | RMSD: 0.5031 | 2492.00 to state    1 from traj    1 on state    2
C     -1.827405     0.202832     0.187010
H     -0.455174     0.456605    -0.883263
H     -2.020695    -0.767832    -0.507586
C     -0.890842     1.434077    -0.108513
H     -0.997773     2.323018     0.019273
H      0.131688     1.238157     0.432950
6
Family_3 [H][C]C([H])([H])[H] | RMSD: 0.3958 | 7152.00 to state    1 from traj    1 on state    2
C     -1.836546     0.206581     0.155025
H     -0.579510     0.943421    -0.981681
H     -2.125732    -0.675277    -0.264294
C     -0.872949     1.361167    -0.102769
H     -0.930040     2.370714    -0.209945
H      0.189041     1.435195     0.829963
6
Family_3 [H][C]C([H])([H])[H] | RMSD: 0.5539 | 9964.00 to state    1 from traj    1 on state    2
C     -1.815619     0.228724     0.087200
H     -0.225226     1.060342    -0.917104
H     -1.911469    -0.756831     0.877340
C     -0.865354     1.409373    -0.160777
H     -1.122307     2.414346     0.435496
H     -0.527102     0.517934     0.477703
6
Family_3 [H][C]C([H])([H])[H] | RMSD: 0.5094 | 1360.00 to state    1 from traj    1 on state    2
C     -1.686132     0.187437     0.230876
H     -0.142784     1.401268    -0.976576
H     -2.685554    -0.153012     0.032680
C     -0.954762     1.361692    -0.259773
H     -0.974775     2.348255     0.466147
H     -0.460551     0.699389     0.818788
6
Family_3 [H][C]C([H])([H])[H] | RMSD: 0.3579 | 2580.00 to state    1 from traj    1 on state    2
C     -1.858852     0.195022     0.096077
H     -0.319737     1.350288    -1.096666
H     -2.067965    -0.705265     0.645620
C     -0.858075     1.351465    -0.138876
H     -0.839560     2.543174     0.146059
H     -0.130424     1.139178     0.811685
6
Family_3 [H][C]C([H])([H])[H] | RMSD: 0.3041 | 3708.00 to state    1 from traj    1 on state    2
C     -1.840659     0.133799     0.142425
H     -0.233680     1.329160    -0.866469
H     -2.494776    -0.856926     0.157549
C     -0.870322     1.440996    -0.088616
H     -0.706519     2.310384    -0.442723
H      0.006444     1.207463     0.507182
6
Family_3 [H][C]C([H])([H])[H] | RMSD: 0.5405 | 11212.00 to state    1 from traj    1 on state    2
C     -1.825023     0.235794     0.180870
H     -0.793355     0.633470    -0.803523
H     -1.984457    -0.840716    -0.542838
C     -0.827276     1.388575    -0.099432
H     -1.196058     2.425611    -0.278532
H     -0.153899     1.181003     0.651233
6
Family_3 [H][C]C([H])([H])[H] | RMSD: 0.4590 | 6716.00 to state    1 from traj    1 on state    2
C     -1.768273     0.273718     0.044905
H     -0.557620     0.952205    -0.980247
H     -2.271366    -0.754348     0.724381
C     -0.868305     1.315460    -0.105843
H     -1.246036     2.536114     0.256833
H     -0.240079     1.084716     0.721877
6
Family_3 [H][C]C([H])([H])[H] | RMSD: 0.3079 | 7728.00 to state    1 from traj    1 on state    2
C     -1.783681     0.207350     0.170484
H     -0.198786     0.929249    -1.259711
H     -2.374786    -0.731390    -0.039771
C     -0.868953     1.391120    -0.102157
H     -1.149070     2.545095    -0.087974
H     -0.401150     0.965019     0.570005
6
Family_3 [H][C]C([H])([H])[H] | RMSD: 0.3371 | 3552.00 to state    1 from traj    1 on state    2
C     -1.733969     0.309527     0.018795
H     -0.334254     0.827423    -1.264522
H     -2.115342    -0.499274     0.600457
C     -0.966222     1.274586    -0.006430
H     -1.092530     2.521918    -0.233088
H     -0.014980     1.028973     0.746525
6
Family_3 [H][C]C([H])([H])[H] | RMSD: 0.3026 | 3660.00 to state    1 from traj    1 on state    2
C     -1.798767     0.237234     0.066267
H     -0.475109     1.219972    -1.056489
H     -2.179558    -0.613299     0.551527
C     -0.882625     1.311581    -0.074879
H     -0.934328     2.492492    -0.156951
H     -0.192115     1.200478     0.761249
6
Family_3 [H][C]C([H])([H])[H] | RMSD: 0.5208 | 9532.00 to state    1 from traj    1 on state    2
C     -1.721551     0.268990     0.160532
H     -0.387908     0.998711    -1.400271
H     -2.493271    -0.446501    -0.075207
C     -0.848111     1.316500    -0.109337
H     -1.689237     2.335981    -0.040655
H     -0.542028     0.974444     0.902830
6
Family_3 [H][C]C([H])([H])[H] | RMSD: 0.3744 | 6644.00 to state    1 from traj    1 on state    2
C     -1.796934     0.232349     0.060548
H     -0.383072     0.843021    -0.805121
H     -1.969893    -0.673224     0.611206
C     -0.915131     1.383534    -0.081638
H     -0.903846     2.490564     0.016228
H     -0.158809     0.840130     0.425710
6
Family_3 [H][C]C([H])([H])[H] | RMSD: 0.3727 | 12740.00 to state    1 from traj    1 on state    2
C     -1.845949     0.189323     0.157678
H     -0.487796     0.938923    -1.061701
H     -2.269742    -0.801267    -0.190645
C     -0.828685     1.393480    -0.098765
H     -1.156385     2.423036    -0.220947
H      0.052297     1.333956     0.768023
6
Family_3 [H][C]C([H])([H])[H] | RMSD: 0.3203 | 14396.00 to state    1 from traj    1 on state    2
C     -1.830930     0.244235     0.102574
H     -0.335493     1.438503    -0.950387
H     -1.980403    -0.703806     0.462423
C     -0.921042     1.304262    -0.118612
H     -0.571012     2.256190     0.007515
H     -0.053198     1.312537     0.668270
6
Family_3 [H][C]C([H])([H])[H] | RMSD: 0.4453 | 14852.00 to state    1 from traj    1 on state    2
C     -1.785864     0.168964     0.123783
H     -0.558507     1.090654    -1.146527
H     -2.506850    -0.489243     0.173351
C     -0.796133     1.422859    -0.101561
H     -1.504777     2.077051    -0.159689
H     -0.395335     1.108704     0.864790
6
Family_3 [H][C]C([H])([H])[H] | RMSD: 0.3948 | 16304.00 to state    2 from traj    3 on state    1
C     -1.741479     0.186122     0.212882
H      0.011963     1.548157    -0.968727
H     -2.588929    -0.297002     0.048309
C     -0.953858     1.334410    -0.197803
H     -0.824779     2.514720     0.055580
H     -0.213202     0.870773     0.681880
6
Family_3 [H][C]C([H])([H])[H] | RMSD: 0.4463 | 19696.00 to state    1 from traj    4 on state    2
C     -1.834616     0.198856     0.172268
H     -0.560582     0.726882    -0.779810
H     -2.115681    -0.810741    -0.305463
C     -0.845427     1.400433    -0.109308
H     -1.065018     2.663513    -0.196140
H     -0.055894     1.118559     0.527922
6
Family_3 [H][C]C([H])([H])[H] | RMSD: 0.4166 | 23008.00 to state    1 from traj    4 on state    2
C     -1.771350     0.277180     0.147483
H     -0.378950     0.812123    -1.050501
H     -2.034059    -0.514374    -0.301454
C     -0.922080     1.320852    -0.049106
H     -1.237968     2.494589    -0.545371
H      0.013308     0.920854     0.721816
6
Family_3 [H][C]C([H])([H])[H] | RMSD: 0.4225 | 3032.00 to state    1 from traj    1 on state    2
C     -1.808015     0.112796     0.056134
H     -0.817094     0.708730    -0.871236
H     -2.519233    -0.753305     0.389020
C     -0.823891     1.482198    -0.050489
H     -0.871866     2.454838    -0.223104
H     -0.162576     1.339123     0.634780
6
Family_3 [H][C]C([H])([H])[H] | RMSD: 0.4262 | 5292.00 to state    1 from traj    1 on state    2
C     -1.838631     0.290930     0.093359
H     -0.500185     1.440779    -1.190397
H     -2.078533    -0.877446     0.405060
C     -0.854411     1.241988    -0.105423
H     -0.908250     2.251529     0.100228
H     -0.155320     1.674215     0.825575
6
Family_3 [H][C]C([H])([H])[H] | RMSD: 0.4211 | 1456.00 to state    1 from traj    1 on state    2
C     -1.769076     0.288082     0.089782
H     -0.486355     0.979084    -1.127553
H     -2.448540    -0.924707     0.303424
C     -0.869994     1.310200    -0.097704
H     -1.256570     2.181811     0.217582
H     -0.093939     1.474021     0.697654
6
Family_3 [H][C]C([H])([H])[H] | RMSD: 0.2798 | 1616.00 to state    1 from traj    1 on state    2
C     -1.785071     0.178298     0.142810
H     -0.462732     0.954054    -0.865989
H     -2.482119    -0.849758     0.070162
C     -0.888620     1.429704    -0.123069
H     -0.855327     2.439715    -0.108753
H     -0.072688     1.050380     0.666060
6
Family_3 [H][C]C([H])([H])[H] | RMSD: 0.2665 | 2300.00 to state    1 from traj    1 on state    2
C     -1.759148     0.253563     0.157478
H     -0.167881     0.773716    -1.156405
H     -2.201911    -0.684622    -0.135050
C     -0.976023     1.359558    -0.097555
H     -0.776585     2.244047     0.092057
H      0.006086     1.200255     0.482098
6
Family_3 [H][C]C([H])([H])[H] | RMSD: 0.4166 | 1696.00 to state    1 from traj    1 on state    2
C     -1.845892     0.090305     0.083530
H     -0.311460     1.295528    -0.904164
H     -2.631449    -0.671346     0.395572
C     -0.850055     1.443431    -0.026967
H     -0.751558     2.520340    -0.701469
H      0.086787     1.334794     0.532795
6
Family_3 [H][C]C([H])([H])[H] | RMSD: 0.4621 | 4732.00 to state    1 from traj    1 on state    2
C     -1.851454     0.102909     0.088016
H     -0.136172     1.481033    -1.031167
H     -2.626672    -0.493360     0.398644
C     -0.855948     1.394644    -0.019102
H     -0.832066     2.384011    -0.665705
H      0.123736     1.538788     0.473787
6
Family_3 [H][C]C([H])([H])[H] | RMSD: 0.3598 | 6496.00 to state    1 from traj    1 on state    2
C     -1.806775     0.243149     0.117929
H     -0.471620     1.373087    -1.122443
H     -2.278168    -0.584210     0.226422
C     -0.837429     1.287122    -0.094808
H     -1.212816     2.428938    -0.229433
H     -0.261626     1.302793     0.846674
6
Family_3 [H][C]C([H])([H])[H] | RMSD: 0.3343 | 13848.00 to state    1 from traj    1 on state    2
C     -1.837934     0.142159     0.070843
H     -0.293453     1.084232    -1.027436
H     -2.365010    -0.544060     0.497759
C     -0.838324     1.411040    -0.037991
H     -1.067175     2.411528    -0.293631
H     -0.116649     1.295709     0.428569
6
Family_3 [H][C]C([H])([H])[H] | RMSD: 0.3449 | 2172.00 to state    1 from traj    1 on state    2
C     -1.750887     0.201094     0.058222
H     -0.652971     0.713625    -1.064707
H     -2.250732    -0.642582     0.448492
C     -0.960962     1.390618    -0.080393
H     -0.441751     2.523485     0.069568
H     -0.072736     1.193972     0.807553
6
Family_3 [H][C]C([H])([H])[H] | RMSD: 0.3850 | 5668.00 to state    1 from traj    1 on state    2
C     -1.810297     0.238787     0.148929
H     -0.437882     0.753510    -0.960199
H     -1.880514    -0.619335    -0.351393
C     -0.942380     1.358700    -0.046973
H     -0.723952     2.371701    -0.456021
H      0.110643     1.213813     0.549455
6
Family_3 [H][C]C([H])([H])[H] | RMSD: 0.3785 | 4724.00 to state    1 from traj    1 on state    2
C     -1.770100     0.227964     0.078946
H     -0.327252     1.277314    -1.336782
H     -2.596873    -0.779280     0.564341
C     -0.892452     1.330487    -0.093852
H     -1.028546     2.539418    -0.112789
H     -0.052927     1.147374     1.059563
6
Family_3 [H][C]C([H])([H])[H] | RMSD: 0.4977 | 5620.00 to state    1 from traj    1 on state    2
C     -1.809263     0.223585     0.139887
H     -0.679972     0.414488    -0.956088
H     -1.968349    -0.796962    -0.421405
C     -0.889357     1.397872    -0.032430
H     -0.856027     2.560721    -0.403051
H     -0.071474     1.255814     0.496845
6
Family_3 [H][C]C([H])([H])[H] | RMSD: 0.5515 | 7000.00 to state    1 from traj    1 on state    2
C     -1.828419     0.233553     0.167563
H     -0.583722     0.689902    -0.713040
H     -1.781104    -0.595627    -0.564962
C     -0.910356     1.346677    -0.041068
H     -0.719608     2.464878    -0.514634
H     -0.012918     1.366153     0.282085
6
Family_3 [H][C]C([H])([H])[H] | RMSD: 0.5157 | 11436.00 to state    1 from traj    1 on state    2
C     -1.851114     0.209847     0.128204
H     -0.692043     0.721705    -0.901917
H     -1.740434    -0.745384    -0.399867
C     -0.880161     1.417071     0.003711
H     -0.731815     2.076552    -0.798477
H     -0.022423     1.316122     0.525132
6
Family_3 [H][C]C([H])([H])[H] | RMSD: 0.3837 | 12092.00 to state    1 from traj    1 on state    2
C     -1.810977     0.222290     0.072858
H     -0.388175     0.806767    -1.016551
H     -1.845246    -0.839476     0.642098
C     -0.918884     1.415688    -0.101072
H     -0.656608     2.543285     0.131263
H     -0.313534     0.726634     0.576088
6
Family_3 [H][C]C([H])([H])[H] | RMSD: 0.4246 | 3112.00 to state    1 from traj    1 on state    2
C     -1.780436     0.208629     0.150859
H     -0.260073     0.860682    -1.005047
H     -2.451998    -0.573949     0.041870
C     -0.883784     1.357255    -0.130476
H     -1.277389     2.780900     0.085117
H      0.003730     1.028615     0.631903
6
Family_3 [H][C]C([H])([H])[H] | RMSD: 0.3693 | 6720.00 to state    1 from traj    1 on state    2
C     -1.781308     0.265339     0.147447
H     -0.213368     0.838909    -0.999244
H     -2.053682    -0.659304    -0.284854
C     -0.937639     1.348919    -0.018290
H     -1.026380     2.324293    -0.631358
H     -0.040187     1.015955     0.373175
6
Family_3 [H][C]C([H])([H])[H] | RMSD: 0.4898 | 9696.00 to state    1 from traj    1 on state    2
C     -1.849039     0.236592     0.134745
H     -0.111698     1.687793    -1.250609
H     -1.800628    -0.587155     0.685255
C     -0.878790     1.333232    -0.187232
H     -0.849981     2.050354     0.337939
H     -0.465478     0.898320     0.849552
6
Family_3 [H][C]C([H])([H])[H] | RMSD: 0.2971 | 8584.00 to state    1 from traj    1 on state    2
C     -1.799204     0.248507     0.129775
H     -0.447810     1.364792    -1.098912
H     -2.205104    -0.638594     0.124514
C     -0.862140     1.317025    -0.090244
H     -1.098927     2.154614    -0.314899
H     -0.268157     1.219645     0.814984
6
Family_3 [H][C]C([H])([H])[H] | RMSD: 0.3547 | 13348.00 to state    1 from traj    1 on state    2
C     -1.775454     0.240335     0.048147
H     -0.499700     1.090045    -1.263631
H     -2.267801    -0.478248     0.543434
C     -0.868086     1.314172    -0.039546
H     -1.197964     2.388234    -0.221962
H     -0.266684     1.231791     0.836396
6
Family_3 [H][C]C([H])([H])[H] | RMSD: 0.3291 | 2616.00 to state    1 from traj    1 on state    2
C     -1.707722     0.190855     0.103438
H     -0.223228     1.230522    -1.088224
H     -2.552477    -0.240482     0.161317
C     -1.015939     1.353943    -0.032805
H     -0.451539     2.034199    -0.473276
H     -0.050208     1.323258     0.555267
6
Family_3 [H][C]C([H])([H])[H] | RMSD: 0.5499 | 5980.00 to state    1 from traj    1 on state    2
C     -1.711583     0.129674     0.277780
H     -0.111717     1.495980    -0.961094
H     -2.701261    -0.083853    -0.186898
C     -0.936384     1.425254    -0.290614
H     -0.927254     2.170469     0.405262
H     -0.439159     0.644203     0.892375
6
Family_3 [H][C]C([H])([H])[H] | RMSD: 0.3526 | 6476.00 to state    1 from traj    1 on state    2
C     -1.726661     0.229827     0.161527
H     -0.231366     0.793757    -0.936750
H     -2.395096    -0.544050    -0.069601
C     -0.973967     1.343239    -0.113696
H     -0.763719     2.784824     0.019197
H     -0.161716     0.976148     0.413926
6
Family_3 [H][C]C([H])([H])[H] | RMSD: 0.3414 | 4580.00 to state    1 from traj    1 on state    2
C     -1.876887     0.096500     0.121245
H     -0.196977     1.173251    -1.033162
H     -2.337843    -0.663551     0.463971
C     -0.835085     1.439539    -0.116396
H     -0.787355     2.780323    -0.028764
H     -0.094553     1.161856     0.536896
6
Family_3 [H][C]C([H])([H])[H] | RMSD: 0.2249 | 4900.00 to state    1 from traj    1 on state    2
C     -1.728671     0.214885     0.160455
H     -0.500366     0.944454    -0.987770
H     -2.395040    -0.716989    -0.039165
C     -0.941255     1.403998    -0.131270
H     -0.667630     2.281647    -0.038101
H     -0.354694     0.955621     0.713990
6
Family_3 [H][C]C([H])([H])[H] | RMSD: 0.4312 | 3708.00 to state    1 from traj    1 on state    2
C     -1.719993     0.191744     0.186217
H     -0.242373     1.153923    -1.031183
H     -2.721443    -0.412079     0.056783
C     -0.914338     1.389305    -0.202760
H     -1.235600     2.333884     0.269403
H     -0.142456     0.839827     0.898838
6
Family_3 [H][C]C([H])([H])[H] | RMSD: 0.3239 | 4984.00 to state    1 from traj    1 on state    2
C     -1.823973     0.213490     0.102460
H     -0.485662     1.308815    -1.118826
H     -1.877510    -0.718929     0.536119
C     -0.887624     1.369239    -0.117229
H     -0.554345     2.374579    -0.072247
H     -0.503680     0.931079     0.827660
6
Family_3 [H][C]C([H])([H])[H] | RMSD: 0.3991 | 8064.00 to state    1 from traj    1 on state    2
C     -1.782791     0.280476     0.151905
H     -0.293206     1.072154    -0.882613
H     -2.409999    -0.887276    -0.181495
C     -0.895149     1.314090    -0.079508
H     -1.207393     2.203618    -0.256878
H      0.088352     1.365989     0.455042
6
Family_3 [H][C]C([H])([H])[H] | RMSD: 0.3831 | 4984.00 to state    1 from traj    1 on state    2
C     -1.673711     0.257406     0.102569
H     -0.370922     1.032964    -1.347322
H     -2.682725    -0.327222    -0.071148
C     -0.976584     1.277806     0.009137
H     -0.871354     2.295882    -0.590366
H     -0.226650     1.460113     0.674497
6
Family_3 [H][C]C([H])([H])[H] | RMSD: 0.6179 | 20248.00 to state    1 from traj    1 on state    2
C     -1.866828     0.219095     0.178799
H     -0.247607     1.512992    -1.151972
H     -1.527673    -0.891595     0.564826
C     -0.878401     1.420279    -0.247320
H     -0.459666     1.940025     0.630361
H     -0.785505     0.659150     0.769971
6
Family_3 [H][C]C([H])([H])[H] | RMSD: 0.3105 | 7016.00 to state    1 from traj    1 on state    2
C     -1.759941     0.186557     0.148047
H     -0.105980     0.914205    -1.280183
H     -2.585565    -0.559994     0.051198
C     -0.942489     1.376005    -0.104468
H     -0.855909     2.493013     0.104560
H      0.017030     1.288611     0.601875
6
Family_3 [H][C]C([H])([H])[H] | RMSD: 0.4189 | 13240.00 to state    1 from traj    1 on state    2
C     -1.854501     0.176347     0.113093
H     -0.758388     1.028046    -0.993844
H     -1.947708    -0.707584    -0.108016
C     -0.849616     1.390036    -0.018157
H     -0.582985     2.308116    -0.705793
H     -0.221247     1.461721     0.673136
6
Family_3 [H][C]C([H])([H])[H] | RMSD: 0.3012 | 1248.00 to state    1 from traj    1 on state    2
C     -1.828283     0.208646     0.159946
H     -0.161488     1.201069    -1.011485
H     -2.289708    -0.764808    -0.094906
C     -0.886717     1.354907    -0.069936
H     -0.938472     2.465838    -0.460197
H      0.009027     1.221934     0.490775
6
Family_3 [H][C]C([H])([H])[H] | RMSD: 0.5878 | 1776.00 to state    1 from traj    1 on state    2
C     -1.845572     0.242195     0.084394
H     -0.347732     1.079941    -0.945010
H     -1.411614    -0.479872     0.793525
C     -0.883502     1.355329    -0.143706
H     -0.864344     2.547181     0.318492
H     -0.589249     0.571994     0.536450
6
Family_3 [H][C]C([H])([H])[H] | RMSD: 0.3076 | 3344.00 to state    1 from traj    1 on state    2
C     -1.806587     0.231175     0.116312
H     -0.308283     1.439267    -1.052090
H     -2.295765    -0.827846     0.462142
C     -0.912523     1.327299    -0.144320
H     -0.723266     2.483970    -0.014434
H     -0.004360     1.089162     0.934835
6
Family_3 [H][C]C([H])([H])[H] | RMSD: 0.3253 | 5364.00 to state    1 from traj    1 on state    2
C     -1.788510     0.235753     0.062435
H     -0.290789     1.217015    -0.946258
H     -2.328022    -0.646985     0.568009
C     -0.913043     1.305741    -0.054348
H     -0.832663     2.462335    -0.147597
H     -0.089402     1.354502     0.426200
6
Family_3 [H][C]C([H])([H])[H] | RMSD: 0.3824 | 6724.00 to state    1 from traj    1 on state    2
C     -1.735108     0.259745     0.149424
H     -0.255195     1.091069    -1.272788
H     -2.520541    -0.520201     0.091049
C     -0.912300     1.314977    -0.143990
H     -1.298602     2.255319     0.234501
H     -0.111722     1.164755     0.879210
6
Family_3 [H][C]C([H])([H])[H] | RMSD: 0.4923 | 13420.00 to state    1 from traj    1 on state    2
C     -1.758069     0.197820     0.131633
H     -0.296419     0.885396    -1.272349
H     -2.651049    -0.540559     0.228758
C     -0.837949     1.389687    -0.128051
H     -1.577176     2.419674     0.247115
H     -0.273758     1.074098     0.750505
6
Family_3 [H][C]C([H])([H])[H] | RMSD: 0.4066 | 15396.00 to state    1 from traj    1 on state    2
C     -1.808191     0.238314     0.064618
H     -0.525727     1.036401    -1.155656
H     -2.059417    -0.663688     0.612629
C     -0.859182     1.366971    -0.109771
H     -1.239334     2.385025     0.021664
H     -0.123683     0.869027     1.056109
6
Family_3 [H][C]C([H])([H])[H] | RMSD: 0.3632 | 16564.00 to state    1 from traj    1 on state    2
C     -1.784428     0.187633     0.135627
H     -0.074542     1.179467    -1.192694
H     -2.677372    -0.590405     0.107464
C     -0.882095     1.357639    -0.064743
H     -1.164541     2.407018    -0.261809
H     -0.041831     1.345783     0.499131
6
Family_3 [H][C]C([H])([H])[H] | RMSD: 0.3895 | 17632.00 to state    1 from traj    7 on state    2
C     -1.827121     0.154692     0.095651
H     -0.164957     1.379596    -1.014358
H     -2.532522    -0.483915     0.443711
C     -0.881564     1.354032    -0.081357
H     -0.940865     2.463634    -0.220502
H      0.182451     1.418042     0.617540
6
Family_3 [H][C]C([H])([H])[H] | RMSD: 0.4281 | 18720.00 to state    1 from traj    1 on state    2
C     -1.850573     0.206666     0.151338
H     -0.077370     1.584427    -1.071858
H     -2.450696    -0.693787     0.136102
C     -0.831994     1.302234    -0.087362
H     -1.166249     2.376443    -0.307474
H     -0.072786     1.508173     0.477623
6
Family_3 [H][C]C([H])([H])[H] | RMSD: 0.4752 | 6504.00 to state    1 from traj    1 on state    2
C     -1.843712     0.186587     0.111296
H     -0.442298     1.228791    -1.251603
H     -2.298459    -0.734554     0.538464
C     -0.762870     1.387474    -0.141108
H     -1.462615     2.472755     0.157731
H     -0.469153     1.031838     0.907360
6
Family_3 [H][C]C([H])([H])[H] | RMSD: 0.3198 | 10516.00 to state    1 from traj    1 on state    2
C     -1.771213     0.251605     0.074780
H     -0.143329     0.933746    -1.073257
H     -2.101839    -0.517173     0.555745
C     -0.938144     1.341407    -0.073368
H     -1.029452     2.409722     0.076612
H     -0.173256     0.946706     0.420795
6
Family_3 [H][C]C([H])([H])[H] | RMSD: 0.4207 | 13428.00 to state    1 from traj    1 on state    2
C     -1.763586     0.164489     0.181209
H     -0.306518     1.012298    -0.791601
H     -2.515907    -0.493105     0.083546
C     -0.869564     1.429324    -0.186854
H     -1.201069     2.395997     0.270731
H     -0.332450     0.848279     0.501303
6
Family_3 [H][C]C([H])([H])[H] | RMSD: 0.4452 | 14668.00 to state    1 from traj    1 on state    2
C     -1.788511     0.222117     0.149246
H     -0.284965     1.021834    -0.964769
H     -2.412286    -0.523020    -0.000944
C     -0.866849     1.367421    -0.128904
H     -1.537759     2.298818    -0.060476
H      0.143713     1.016767     0.780512
6
Family_3 [H][C]C([H])([H])[H] | RMSD: 0.3732 | 9216.00 to state    1 from traj    1 on state    2
C     -1.806103     0.230040     0.151986
H     -0.278791     0.887181    -1.030066
H     -2.237339    -0.640753    -0.144780
C     -0.885714     1.372044    -0.096032
H     -1.314870     2.317934    -0.183792
H      0.174109     1.100550     0.688622
6
Family_3 [H][C]C([H])([H])[H] | RMSD: 0.3370 | 11496.00 to state    1 from traj    1 on state    2
C     -1.901080     0.134318     0.121829
H     -0.145630     1.499260    -0.996634
H     -2.185050    -0.785772     0.562883
C     -0.827848     1.423460    -0.136643
H     -0.860137     2.340317    -0.045327
H     -0.023872     1.139037     0.652318
6
Family_3 [H][C]C([H])([H])[H] | RMSD: 0.3554 | 16572.00 to state    1 from traj    1 on state    2
C     -1.846207     0.174975     0.084720
H     -0.452494     1.297585    -0.953257
H     -2.248873    -0.578945     0.500188
C     -0.849511     1.356623    -0.104653
H     -0.964772     2.513003    -0.137133
H      0.055735     1.273152     0.824439
6
Family_3 [H][C]C([H])([H])[H] | RMSD: 0.2993 | 17100.00 to state    2 from traj    5 on state    1
C     -1.834245     0.156183     0.069784
H     -0.484574     0.920033    -1.210922
H     -2.194075    -0.754384     0.548103
C     -0.834444     1.440890    -0.063060
H     -0.945573     2.543579    -0.180570
H     -0.308244     1.015398     0.759979
6
Family_3 [H][C]C([H])([H])[H] | RMSD: 0.4241 | 2320.00 to state    1 from traj    1 on state    2
C     -1.814722     0.257518     0.063741
H     -0.176739     1.189021    -0.946465
H     -1.600765    -0.610313     0.728482
C     -0.959389     1.360238    -0.066103
H     -0.623894     2.334421    -0.270656
H     -0.274907     0.565036     0.513510
6
Family_3 [H][C]C([H])([H])[H] | RMSD: 0.5007 | 6664.00 to state    1 from traj    1 on state    2
C     -1.861703     0.225117     0.095652
H     -0.360382     1.658211    -1.104091
H     -1.916830    -0.540944     0.775640
C     -0.849399     1.277572    -0.163334
H     -0.883919     2.683902     0.129167
H     -0.265966     1.048098     1.002473
6
Family_3 [H][C]C([H])([H])[H] | RMSD: 0.4536 | 3852.00 to state    1 from traj    1 on state    2
C     -1.825677     0.239868     0.154576
H     -0.610457     0.784213    -0.995351
H     -1.965671    -0.639260    -0.412020
C     -0.850051     1.352788    -0.052460
H     -1.162497     2.250489    -0.392467
H     -0.109974     1.381798     0.579785
6
Family_3 [H][C]C([H])([H])[H] | RMSD: 0.3670 | 2832.00 to state    1 from traj    1 on state    2
C     -1.776717     0.180694     0.152642
H     -0.287081     1.450591    -1.077438
H     -2.644589    -0.486039     0.221670
C     -0.867661     1.348052    -0.148013
H     -1.108159     2.408282    -0.057424
H     -0.182328     1.165949     0.854762
6
Family_3 [H][C]C([H])([H])[H] | RMSD: 0.3674 | 5428.00 to state    1 from traj    1 on state    2
C     -1.840958     0.205435     0.152969
H     -0.232190     0.942698    -1.190979
H     -2.175206    -0.657901    -0.224717
C     -0.859545     1.377847    -0.046883
H     -1.225589     2.343488    -0.460183
H      0.079602     1.260656     0.608505
6
Family_3 [H][C]C([H])([H])[H] | RMSD: 0.4926 | 5608.00 to state    1 from traj    1 on state    2
C     -1.895686     0.238547     0.136096
H     -0.358968     1.586972    -1.060536
H     -2.118056    -0.892583    -0.028917
C     -0.826151     1.274258    -0.052163
H     -0.902706     2.224878    -0.546234
H      0.080549     1.809456     0.632286
6
Family_3 [H][C]C([H])([H])[H] | RMSD: 0.4039 | 11960.00 to state    1 from traj    1 on state    2
C     -1.795113     0.294345     0.110353
H     -0.252457     1.248716    -1.074622
H     -2.050131    -0.685295     0.525544
C     -0.923498     1.261367    -0.166946
H     -0.936949     2.487581     0.484900
H     -0.098078     1.166461     0.735241
6
Family_3 [H][C]C([H])([H])[H] | RMSD: 0.6779 | 1248.00 to state    1 from traj    1 on state    2
C     -1.811796     0.223634     0.193082
H     -0.535056     1.267533    -1.182617
H     -1.456051    -0.831781     0.171296
C     -0.937920     1.451898    -0.212623
H     -0.019367     1.529293     0.472853
H     -0.956513     0.824675     0.768028
6
Family_3 [H][C]C([H])([H])[H] | RMSD: 0.4102 | 3752.00 to state    1 from traj    1 on state    2
C     -1.696012     0.240709     0.163676
H     -0.168923     1.106056    -1.215070
H     -2.686376    -0.360613     0.020342
C     -0.917472     1.330338    -0.121302
H     -1.374417     2.345094    -0.010650
H     -0.360560     0.944205     0.697182
6
Family_3 [H][C]C([H])([H])[H] | RMSD: 0.3765 | 2120.00 to state    1 from traj    1 on state    2
C     -1.811245     0.255314     0.081681
H     -0.552596     1.315983    -1.145620
H     -2.198388    -0.674806     0.478020
C     -0.851595     1.275475    -0.101236
H     -1.017334     2.425987     0.035793
H     -0.233851     1.447272     0.861533
6
Family_3 [H][C]C([H])([H])[H] | RMSD: 0.4591 | 6156.00 to state    1 from traj    1 on state    2
C     -1.749340     0.216197     0.167991
H     -0.139820     0.896139    -0.950163
H     -2.541870    -0.474650     0.000690
C     -0.951767     1.363478    -0.179214
H     -1.120441     2.334997     0.461990
H      0.255945     1.175442     0.617924
6
Family_3 [H][C]C([H])([H])[H] | RMSD: 0.3735 | 4564.00 to state    1 from traj    1 on state    2
C     -1.847539     0.197545     0.111535
H     -0.305481     1.530665    -0.958724
H     -2.073953    -0.779360     0.673607
C     -0.852954     1.367580    -0.149368
H     -0.790130     2.428937     0.023420
H     -0.383950     0.925056     0.709227
6
Family_3 [H][C]C([H])([H])[H] | RMSD: 0.3466 | 8824.00 to state    1 from traj    1 on state    2
C     -1.838968     0.165561     0.165363
H     -0.427010     1.146626    -0.976491
H     -2.276949    -0.708166    -0.114592
C     -0.877499     1.366165    -0.107500
H     -0.660913     2.773659    -0.328267
H      0.001704     1.291146     0.726599
6
Family_3 [H][C]C([H])([H])[H] | RMSD: 0.4848 | 10680.00 to state    1 from traj    1 on state    2
C     -1.805045     0.299798     0.034908
H     -0.146239     1.139487    -1.069901
H     -1.617696    -0.580376     0.869678
C     -0.934946     1.317205    -0.046158
H     -1.042214     2.414087    -0.253041
H     -0.276716     0.513933     0.584031
6
Family_3 [H][C]C([H])([H])[H] | RMSD: 0.3327 | 2112.00 to state    1 from traj    1 on state    2
C     -1.772590     0.180920     0.056002
H     -0.384177     0.972936    -1.040055
H     -2.469381    -0.555378     0.489806
C     -0.919662     1.365284    -0.031305
H     -0.777271     2.732917    -0.366009
H     -0.020876     1.180281     0.618697
6
Family_3 [H][C]C([H])([H])[H] | RMSD: 0.3492 | 3092.00 to state    1 from traj    1 on state    2
C     -1.774510     0.156313     0.175403
H     -0.201546     1.340085    -1.068518
H     -2.744188    -0.698206     0.152460
C     -0.871057     1.405688    -0.154359
H     -1.010045     2.580290    -0.123799
H     -0.252203     0.920349     0.785825
6
Family_3 [H][C]C([H])([H])[H] | RMSD: 0.3258 | 5328.00 to state    1 from traj    1 on state    2
C     -1.790005     0.257103     0.144647
H     -0.254909     1.159644    -0.889466
H     -2.341216    -0.915666     0.159061
C     -0.938595     1.325503    -0.152498
H     -0.770618     2.393843     0.200042
H      0.148154     1.259176     0.620637
6
Family_3 [H][C]C([H])([H])[H] | RMSD: 0.4260 | 5676.00 to state    1 from traj    1 on state    2
C     -1.868291     0.158360     0.127913
H     -0.285421     1.336442    -1.083207
H     -1.985673    -0.683160     0.638084
C     -0.805306     1.417354    -0.158466
H     -0.983569     2.541564     0.159771
H     -0.619327     0.784280     0.646134
6
Family_3 [H][C]C([H])([H])[H] | RMSD: 0.4242 | 8264.00 to state    1 from traj    1 on state    2
C     -1.871437     0.155709     0.144054
H     -0.282942     0.773491    -1.024948
H     -2.067560    -0.587717    -0.250678
C     -0.866789     1.410033    -0.029849
H     -0.906582     2.408674    -0.400893
H      0.153192     1.503499     0.312407
6
Family_3 [H][C]C([H])([H])[H] | RMSD: 0.4364 | 13840.00 to state    1 from traj    1 on state    2
C     -1.823940     0.213669     0.155929
H     -0.321429     0.826903    -0.866999
H     -2.107153    -0.514758    -0.274773
C     -0.875610     1.371909    -0.070030
H     -1.276655     2.370552    -0.341169
H      0.140486     1.178892     0.456113
6
Family_3 [H][C]C([H])([H])[H] | RMSD: 0.4459 | 6976.00 to state    1 from traj    1 on state    2
C     -1.835216     0.250685     0.146545
H     -0.516426     0.943217    -1.260145
H     -2.072754    -0.827949    -0.373817
C     -0.850091     1.336971    -0.023494
H     -1.141968     2.355228    -0.677583
H     -0.003311     1.366335     0.842022
6
Family_3 [H][C]C([H])([H])[H] | RMSD: 0.4851 | 3368.00 to state    1 from traj    1 on state    2
C     -1.842610     0.228359     0.155980
H     -0.643877     0.757237    -0.971338
H     -1.842363    -0.659463    -0.439744
C     -0.908536     1.348578    -0.078159
H     -0.741883     2.477401    -0.352747
H      0.278181     1.389378     0.833249
6
Family_3 [H][C]C([H])([H])[H] | RMSD: 0.4065 | 2456.00 to state    1 from traj    1 on state    2
C     -1.750626     0.289396     0.132313
H     -0.480914     0.727103    -0.938432
H     -2.212240    -0.593740    -0.160380
C     -0.916207     1.313027    -0.087160
H     -1.249171     2.231399     0.022718
H     -0.012263     1.296107     0.534778
6
Family_3 [H][C]C([H])([H])[H] | RMSD: 0.3074 | 6376.00 to state    1 from traj    1 on state    2
C     -1.720652     0.228769     0.173970
H     -0.464457     0.934772    -1.319695
H     -2.402769    -0.585430    -0.161731
C     -0.953249     1.339366    -0.126242
H     -0.627948     2.631662    -0.015404
H     -0.375193     1.088426     0.924835
6
Family_3 [H][C]C([H])([H])[H] | RMSD: 0.4298 | 348.00 to state    1 from traj    1 on state    2
C     -1.662739     0.153894     0.137310
H     -0.802497     0.817497    -1.010826
H     -2.564819    -0.496045     0.116293
C     -0.974467     1.473662    -0.142154
H     -0.281332     2.203041     0.044148
H     -0.658967     0.836899     0.904824
6
Family_3 [H][C]C([H])([H])[H] | RMSD: 0.4020 | 10748.00 to state    1 from traj    1 on state    2
C     -1.815615     0.147407     0.042778
H     -0.416596     1.042165    -1.035920
H     -2.583216    -0.764883     0.507435
C     -0.871558     1.401032     0.000002
H     -0.800503     2.648192    -0.581842
H      0.088092     1.378655     0.597288
6
Family_3 [H][C]C([H])([H])[H] | RMSD: 0.2835 | 3400.00 to state    1 from traj    1 on state    2
C     -1.720390     0.279105     0.077018
H     -0.486976     0.867603    -0.983956
H     -2.390983    -0.739897     0.278043
C     -0.980318     1.319317    -0.075116
H     -0.706243     2.224829     0.055478
H      0.033255     1.356008     0.624485
6
Family_3 [H][C]C([H])([H])[H] | RMSD: 0.4044 | 3624.00 to state    1 from traj    1 on state    2
C     -1.783476     0.188405     0.184865
H     -0.031795     1.081857    -0.790275
H     -2.426838    -0.469987    -0.008342
C     -0.922934     1.367825    -0.154478
H     -1.044751     2.642527     0.073111
H      0.020379     0.956892     0.360143
6
Family_3 [H][C]C([H])([H])[H] | RMSD: 0.4896 | 3688.00 to state    2 from traj    2 on state    1
C     -1.773063     0.180947     0.201448
H      0.085082     1.175763    -0.721009
H     -2.592586    -0.449205    -0.047281
C     -0.912518     1.378242    -0.160587
H     -1.238775     2.614110    -0.016751
H      0.015086     0.835361     0.294878
6
Family_3 [H][C]C([H])([H])[H] | RMSD: 0.4372 | 4984.00 to state    1 from traj    1 on state    2
C     -1.689267     0.231985     0.179183
H     -0.483335     1.189895    -1.278960
H     -2.497688    -0.207994    -0.115639
C     -0.910441     1.309389    -0.130400
H     -1.096917     2.503521    -0.164911
H     -0.676492     0.902886     0.974942
6
Family_3 [H][C]C([H])([H])[H] | RMSD: 0.3484 | 5248.00 to state    1 from traj    4 on state    2
C     -1.812023     0.171786     0.159345
H     -0.222915     0.940503    -0.842430
H     -2.457495    -0.772726    -0.078685
C     -0.884135     1.416995    -0.095584
H     -0.956437     2.405105    -0.153984
H      0.031685     1.250534     0.312064
6
Family_3 [H][C]C([H])([H])[H] | RMSD: 0.2639 | 5360.00 to state    1 from traj    1 on state    2
C     -1.830339     0.125796     0.154397
H     -0.109067     1.336772    -1.059175
H     -2.417709    -0.597858     0.194233
C     -0.881283     1.427029    -0.102181
H     -0.787239     2.554796    -0.405184
H     -0.106880     0.958155     0.644653
6
Family_3 [H][C]C([H])([H])[H] | RMSD: 0.3359 | 6096.00 to state    1 from traj    4 on state    2
C     -1.762606     0.266294     0.116021
H     -0.794967     0.773336    -1.057500
H     -2.059790    -0.832678    -0.021684
C     -0.913283     1.347075    -0.088283
H     -0.692020     2.382195    -0.096190
H     -0.299903     1.207587     0.841576
6
Family_3 [H][C]C([H])([H])[H] | RMSD: 0.4032 | 7632.00 to state    1 from traj    4 on state    2
C     -1.826269     0.234276     0.068390
H     -0.273122     1.372039    -0.877068
H     -1.990353    -0.524665     0.677381
C     -0.864106     1.337472    -0.075325
H     -1.182286     2.299181    -0.282358
H     -0.228308     0.879829     0.561406
6
Family_3 [H][C]C([H])([H])[H] | RMSD: 0.3484 | 4736.00 to state    1 from traj    1 on state    2
C     -1.807140     0.214700     0.071322
H     -0.321776     0.968807    -1.054814
H     -2.129771    -0.520460     0.474183
C     -0.874243     1.394550    -0.068623
H     -1.313628     2.179931    -0.148140
H     -0.016036     0.951241     0.693327
6
Family_3 [H][C]C([H])([H])[H] | RMSD: 0.3215 | 3660.00 to state    1 from traj    1 on state    2
C     -1.726426     0.251745     0.072521
H     -0.542036     0.829510    -1.143214
H     -2.096253    -0.688885     0.531325
C     -0.983437     1.389632    -0.115042
H     -0.594160     2.338382     0.113259
H     -0.209413     0.717700     1.002012
6
Family_3 [H][C]C([H])([H])[H] | RMSD: 0.4024 | 6720.00 to state    1 from traj    1 on state    2
C     -1.809108     0.166878     0.087658
H     -0.328522     0.823724    -0.899042
H     -2.386853    -0.764963     0.546479
C     -0.877149     1.438643    -0.125252
H     -0.975321     2.432769     0.342563
H     -0.032443     1.132421     0.454670
6
Family_3 [H][C]C([H])([H])[H] | RMSD: 0.4471 | 2288.00 to state    1 from traj    1 on state    2
C     -1.783741     0.265476     0.077453
H      0.042867     1.004189    -1.061804
H     -1.770274    -0.400082     0.700513
C     -0.972530     1.334227    -0.086613
H     -0.913639     2.458100     0.122451
H     -0.247831     0.631071     0.344715
6
Family_3 [H][C]C([H])([H])[H] | RMSD: 0.4297 | 4232.00 to state    1 from traj    1 on state    2
C     -1.831425     0.121755     0.062462
H     -0.771158     0.809413    -1.080988
H     -2.489799    -0.778263     0.447921
C     -0.802902     1.469314    -0.086071
H     -1.035873     2.373504    -0.004413
H     -0.045094     1.391504     0.915513
6
Family_3 [H][C]C([H])([H])[H] | RMSD: 0.4225 | 2516.00 to state    1 from traj    1 on state    2
C     -1.777250     0.252562     0.123665
H     -0.438330     0.846720    -0.964760
H     -2.324507    -0.759537    -0.124723
C     -0.881702     1.387601    -0.056556
H     -1.410306     2.064991    -0.435077
H      0.124651     1.058988     0.721638
6
Family_3 [H][C]C([H])([H])[H] | RMSD: 0.2956 | 10040.00 to state    1 from traj    1 on state    2
C     -1.773598     0.278259     0.092404
H     -0.247915     1.379030    -1.149044
H     -2.201358    -0.628214     0.298396
C     -0.960708     1.263403    -0.045677
H     -0.755061     2.541887    -0.574593
H      0.053735     1.092165     0.865174
6
Family_3 [H][C]C([H])([H])[H] | RMSD: 0.4734 | 12232.00 to state    1 from traj    1 on state    2
C     -1.898914     0.125990     0.138307
H     -0.063175     1.482448    -1.114892
H     -2.483917    -0.816167     0.539522
C     -0.792076     1.382445    -0.154382
H     -1.050204     2.793934     0.156988
H     -0.069450     1.320585     0.606645
6
Family_3 [H][C]C([H])([H])[H] | RMSD: 0.4700 | 2316.00 to state    1 from traj    1 on state    2
C     -1.786470     0.316166     0.114333
H     -0.441164     1.109066    -1.195009
H     -2.134636    -0.716569     0.017384
C     -0.855340     1.304303    -0.067170
H     -1.611384     1.856439    -0.272313
H     -0.065581     1.196909     0.884679
6
Family_3 [H][C]C([H])([H])[H] | RMSD: 0.3295 | 1424.00 to state    1 from traj    1 on state    2
C     -1.855349     0.169490     0.154287
H     -0.440187     0.833397    -0.974461
H     -2.012675    -0.707809    -0.213270
C     -0.873507     1.417038    -0.070629
H     -0.763424     2.451149    -0.337324
H      0.000737     1.273538     0.524937
6
Family_3 [H][C]C([H])([H])[H] | RMSD: 0.4406 | 2100.00 to state    1 from traj    1 on state    2
C     -1.729417     0.241300     0.196881
H     -0.007723     1.165234    -0.678565
H     -2.491487    -0.407281    -0.141728
C     -0.962850     1.341723    -0.156174
H     -1.177213     2.262935    -0.003014
H      0.024903     0.871141     0.334963
6
Family_3 [H][C]C([H])([H])[H] | RMSD: 0.3897 | 4724.00 to state    1 from traj    1 on state    2
C     -1.683941     0.214166     0.176706
H     -0.485968     1.102264    -1.210591
H     -2.615787    -0.358688    -0.062184
C     -0.926149     1.340818    -0.143203
H     -0.921369     2.590002    -0.061600
H     -0.607605     0.892555     0.931881
6
Family_3 [H][C]C([H])([H])[H] | RMSD: 0.4513 | 1996.00 to state    1 from traj    1 on state    2
C     -1.787956     0.173484     0.167329
H     -0.313293     0.837969    -0.840623
H     -2.539133    -0.679111     0.028090
C     -0.897602     1.415139    -0.186930
H     -1.040651     2.477825     0.445524
H      0.161611     1.188620     0.597287
6
Family_3 [H][C]C([H])([H])[H] | RMSD: 0.4505 | 5752.00 to state    1 from traj    1 on state    2
C     -1.778054     0.180020     0.048788
H     -0.238658     0.707406    -1.035453
H     -2.476319    -0.475889     0.589678
C     -0.909558     1.397910    -0.063610
H     -1.135243     2.441207     0.199743
H      0.143229     1.279999     0.419371
6
Family_3 [H][C]C([H])([H])[H] | RMSD: 0.2420 | 10144.00 to state    1 from traj    1 on state    2
C     -1.686318     0.290063     0.149549
H     -0.419623     1.175589    -1.065916
H     -2.356897    -0.401250    -0.056634
C     -0.978917     1.271908    -0.101248
H     -0.832546     2.326460    -0.215229
H     -0.364573     1.042081     0.758965
6
Family_3 [H][C]C([H])([H])[H] | RMSD: 0.2932 | 11944.00 to state    1 from traj    1 on state    2
C     -1.746824     0.259788     0.134373
H     -0.357048     0.903691    -1.004573
H     -2.307686    -0.516156    -0.101931
C     -0.954836     1.307860    -0.080061
H     -0.921753     2.373042    -0.118084
H      0.046881     1.314654     0.574135
6
Family_3 [H][C]C([H])([H])[H] | RMSD: 0.4373 | 17792.00 to state    1 from traj    1 on state    2
C     -1.754495     0.211692     0.005734
H     -0.564310     0.806532    -0.830133
H     -2.350767    -0.349962     0.595229
C     -0.908940     1.362262    -0.000674
H     -1.120298     2.232609    -0.293788
H      0.040299     1.310909     0.465106
6
Family_3 [H][C]C([H])([H])[H] | RMSD: 0.5179 | 3824.00 to state    1 from traj    1 on state    2
C     -1.825761     0.262164     0.094800
H     -0.384490     1.282445    -1.072087
H     -1.752230    -0.714025     0.783733
C     -0.852079     1.337737    -0.160036
H     -1.055086     2.485445     0.286077
H     -0.631628     0.637050     0.776332
6
Family_3 [H][C]C([H])([H])[H] | RMSD: 0.3622 | 10452.00 to state    1 from traj    1 on state    2
C     -1.860722     0.197942     0.100869
H     -0.420323     1.288540    -0.947873
H     -1.791151    -0.831224     0.616305
C     -0.889358     1.398532    -0.141688
H     -0.499641     2.384749     0.048111
H     -0.251520     0.889683     0.766564
6
Family_3 [H][C]C([H])([H])[H] | RMSD: 0.3802 | 15412.00 to state    1 from traj    1 on state    2
C     -1.710096     0.340923     0.152998
H     -0.576533     0.897486    -1.060438
H     -2.064422    -0.513849    -0.193578
C     -0.963282     1.269158    -0.138804
H     -1.103606     2.078930     0.160112
H     -0.132042     1.107053     0.921493
6
Family_3 [H][C]C([H])([H])[H] | RMSD: 0.2950 | 3096.00 to state    1 from traj    1 on state    2
C     -1.768703     0.125815     0.165340
H     -0.323585     0.910378    -0.931005
H     -2.565293    -0.760190     0.147440
C     -0.916409     1.497437    -0.165927
H     -0.609866     2.307408     0.230911
H     -0.238044     0.955084     0.556367
6
Family_3 [H][C]C([H])([H])[H] | RMSD: 0.3743 | 948.00 to state    1 from traj    1 on state    2
C     -1.705928     0.207888     0.048443
H     -0.544394     1.237905    -1.172699
H     -2.663998    -0.361360     0.465037
C     -0.929854     1.327738    -0.011920
H     -0.822415     2.294549    -0.563325
H     -0.293773     1.285701     0.832507
6
Family_3 [H][C]C([H])([H])[H] | RMSD: 0.2866 | 3328.00 to state    1 from traj    1 on state    2
C     -1.782901     0.244181     0.143066
H     -0.224641     1.118826    -1.077073
H     -2.251684    -0.563657     0.115934
C     -0.944604     1.306251    -0.134782
H     -0.835069     2.426003     0.180623
H      0.079757     1.299194     0.678521
6
Family_3 [H][C]C([H])([H])[H] | RMSD: 0.5114 | 8520.00 to state    1 from traj    1 on state    2
C     -1.860645     0.229608     0.080441
H     -0.472394     1.469738    -0.950254
H     -1.874140    -0.718866     0.862928
C     -0.819155     1.325944    -0.160904
H     -1.024587     2.572506     0.201018
H     -0.428953     0.895982     0.841795
6
Family_3 [H][C]C([H])([H])[H] | RMSD: 0.3450 | 5088.00 to state    1 from traj    1 on state    2
C     -1.782296     0.213847     0.125901
H     -0.561701     0.842280    -1.057130
H     -2.399857    -0.858629     0.080564
C     -0.905601     1.369012    -0.122047
H     -0.747950     2.578480     0.118741
H      0.005910     1.331856     0.808616
6
Family_3 [H][C]C([H])([H])[H] | RMSD: 0.2942 | 7220.00 to state    1 from traj    1 on state    2
C     -1.735062     0.299448     0.070898
H     -0.153270     1.257059    -1.086818
H     -2.275399    -0.703164     0.656354
C     -0.980318     1.297793    -0.095759
H     -0.917806     2.361054    -0.069116
H     -0.029639     0.807664     0.792531
6
Family_3 [H][C]C([H])([H])[H] | RMSD: 0.3138 | 2172.00 to state    1 from traj    1 on state    2
C     -1.773854     0.239317     0.103741
H     -0.551758     0.912860    -1.006527
H     -2.066913    -0.808384     0.327712
C     -0.951477     1.352274    -0.118680
H     -0.417208     2.613493     0.115195
H     -0.221657     1.071966     0.738345
6
Family_3 [H][C]C([H])([H])[H] | RMSD: 0.2675 | 5796.00 to state    1 from traj    1 on state    2
C     -1.808974     0.214684     0.109490
H     -0.090187     1.192043    -1.184576
H     -2.196672    -0.684829     0.510905
C     -0.917603     1.364205    -0.116252
H     -0.809289     2.302770     0.193522
H     -0.146559     1.131303     0.557440
6
Family_3 [H][C]C([H])([H])[H] | RMSD: 0.4759 | 15364.00 to state    1 from traj    1 on state    2
C     -1.662859     0.211080     0.221663
H     -0.476614     1.044170    -1.004673
H     -2.830256    -0.496775    -0.341554
C     -0.922226     1.393597    -0.181361
H     -1.144873     2.383830    -0.075061
H     -0.476928     0.702789     0.937770
6
Family_3 [H][C]C([H])([H])[H] | RMSD: 0.3882 | 37492.00 to state    1 from traj    1 on state    2
C     -1.894180     0.106114     0.167813
H     -0.188555     1.323702    -1.032448
H     -2.445644    -0.693565     0.036281
C     -0.781518     1.425325    -0.099382
H     -1.172301     2.611291    -0.400965
H     -0.042455     1.265261     0.578450
6
Family_3 [H][C]C([H])([H])[H] | RMSD: 0.3597 | 7912.00 to state    1 from traj    1 on state    2
C     -1.774177     0.231078     0.157051
H     -0.220959     1.151741    -0.823069
H     -2.438530    -0.690000    -0.037670
C     -0.949018     1.306998    -0.108847
H     -0.734944     2.769435    -0.222121
H      0.111426     1.196434     0.505199
6
Family_3 [H][C]C([H])([H])[H] | RMSD: 0.4589 | 18112.00 to state    1 from traj    1 on state    2
C     -1.829966     0.310185     0.071672
H     -0.014467     1.301781    -1.203718
H     -2.217343    -0.864035     0.430578
C     -0.880116     1.248317    -0.020636
H     -1.292868     2.151014    -0.181890
H      0.085432     1.595458     0.343622
6
Family_3 [H][C]C([H])([H])[H] | RMSD: 0.3162 | 11560.00 to state    1 from traj    1 on state    2
C     -1.832151     0.154452     0.137331
H     -0.524481     0.620034    -1.071462
H     -2.166439    -0.857254    -0.077194
C     -0.864215     1.478612    -0.081245
H     -0.852281     2.474307    -0.213431
H     -0.059479     1.058677     0.690505
6
Family_3 [H][C]C([H])([H])[H] | RMSD: 0.3769 | 12620.00 to state    1 from traj    1 on state    2
C     -1.712932     0.247251     0.158593
H     -0.319027     1.104917    -1.161859
H     -2.463922    -0.344803    -0.053363
C     -0.936670     1.316721    -0.116464
H     -1.206610     2.564972    -0.269755
H     -0.170351     0.793944     0.979699
6
Family_3 [H][C]C([H])([H])[H] | RMSD: 0.3374 | 13456.00 to state    1 from traj    1 on state    2
C     -1.861052     0.175480     0.086470
H     -0.215765     1.050928    -1.153059
H     -2.018740    -0.801866     0.654603
C     -0.834191     1.436519    -0.090527
H     -1.031107     2.398394     0.024334
H     -0.350452     0.899315     0.519184
6
Family_3 [H][C]C([H])([H])[H] | RMSD: 0.4705 | 16212.00 to state    1 from traj    1 on state    2
C     -1.792207     0.135851     0.179235
H     -0.081485     1.486185    -1.138285
H     -2.663340    -0.265535     0.188253
C     -0.913272     1.347940    -0.192768
H     -0.776380     2.376620     0.365650
H      0.027115     1.477178     0.742360
6
Family_3 [H][C]C([H])([H])[H] | RMSD: 0.4313 | 13420.00 to state    1 from traj    1 on state    2
C     -1.873502     0.166179     0.147131
H     -0.358874     1.298243    -1.173576
H     -2.466170    -0.868998    -0.010982
C     -0.771894     1.375043    -0.064729
H     -1.272151     2.548079    -0.528745
H     -0.112822     1.412789     0.728142
6
Family_3 [H][C]C([H])([H])[H] | RMSD: 0.3288 | 12308.00 to state    1 from traj    1 on state    2
C     -1.789182     0.231984     0.155550
H     -0.171702     1.069439    -1.269317
H     -2.372423    -0.693339    -0.041780
C     -0.872234     1.359731    -0.079865
H     -1.324004     2.433087    -0.332654
H     -0.151005     0.979274     0.738631
6
Family_3 [H][C]C([H])([H])[H] | RMSD: 0.2999 | 3336.00 to state    1 from traj    1 on state    2
C     -1.777347     0.242300     0.127366
H     -0.449539     0.834494    -1.206472
H     -2.283103    -0.851760    -0.127548
C     -0.911802     1.345012    -0.031787
H     -0.790527     2.591065    -0.451274
H     -0.165515     1.267122     0.643132
6
Family_3 [H][C]C([H])([H])[H] | RMSD: 0.3774 | 5472.00 to state    1 from traj    1 on state    2
C     -1.844046     0.195594     0.112444
H     -0.215476     1.132106    -1.313556
H     -2.071388    -0.955428     0.642404
C     -0.870384     1.405475    -0.146031
H     -0.700940     2.517837     0.358868
H     -0.399640     0.982477     0.709215
6
Family_3 [H][C]C([H])([H])[H] | RMSD: 0.3754 | 2120.00 to state    1 from traj    1 on state    2
C     -1.797726     0.294668     0.063412
H     -0.187922     1.452957    -1.175267
H     -2.274704    -0.792537     0.627936
C     -0.881878     1.265663    -0.052221
H     -1.222601     2.333541    -0.299802
H     -0.117181     1.168460     0.710509
6
Family_3 [H][C]C([H])([H])[H] | RMSD: 0.4697 | 3632.00 to state    1 from traj    1 on state    2
C     -1.815322     0.260956     0.136294
H     -0.751863     1.067100    -1.110349
H     -2.036759    -0.601235    -0.246596
C     -0.825022     1.307997    -0.062793
H     -1.299001     2.234775    -0.486554
H     -0.182598     1.359047     0.964404
6
Family_3 [H][C]C([H])([H])[H] | RMSD: 0.3724 | 4016.00 to state    1 from traj    1 on state    2
C     -1.841263     0.133619     0.087633
H     -0.069657     1.272086    -0.942988
H     -2.407593    -0.710889     0.529924
C     -0.881515     1.425675    -0.038630
H     -0.797510     2.643124    -0.589348
H     -0.013211     0.970462     0.415229
6
Family_3 [H][C]C([H])([H])[H] | RMSD: 0.4997 | 6004.00 to state    1 from traj    1 on state    2
C     -1.790004     0.237742     0.137684
H     -0.399719     0.399838    -0.978321
H     -2.025763    -0.509730    -0.358998
C     -0.936566     1.364320    -0.048832
H     -1.033548     2.436108    -0.111080
H      0.216248     1.338946     0.386388
6
Family_3 [H][C]C([H])([H])[H] | RMSD: 0.4144 | 3228.00 to state    1 from traj    1 on state    2
C     -1.723188     0.273845     0.146152
H     -0.340786     1.480509    -1.161812
H     -2.590401    -0.503634     0.100218
C     -0.884111     1.280684    -0.107747
H     -1.355283     2.170519    -0.291838
H     -0.377510     1.084166     0.892530
6
Family_3 [H][C]C([H])([H])[H] | RMSD: 0.3324 | 4240.00 to state    1 from traj    1 on state    2
C     -1.810663     0.191456     0.167400
H     -0.614730     0.808696    -1.131862
H     -2.170865    -0.758223    -0.214992
C     -0.874117     1.403587    -0.125914
H     -0.810437     2.486409    -0.032649
H     -0.144717     1.211924     0.881885
6
Family_3 [H][C]C([H])([H])[H] | RMSD: 0.2882 | 1504.00 to state    1 from traj    1 on state    2
C     -1.763389     0.179560     0.154875
H     -0.376229     0.912319    -0.996876
H     -2.436890    -0.601116    -0.025777
C     -0.888301     1.431083    -0.105182
H     -1.084888     2.416098    -0.251817
H     -0.237019     0.835624     0.679058
6
Family_3 [H][C]C([H])([H])[H] | RMSD: 0.3821 | 3532.00 to state    1 from traj    1 on state    2
C     -1.754178     0.263314     0.170070
H     -0.256008     0.941705    -0.897421
H     -2.332072    -0.682589    -0.257929
C     -0.907055     1.359448    -0.082020
H     -1.309401     2.233351    -0.365611
H     -0.123835     0.926040     0.468503
6
Family_3 [H][C]C([H])([H])[H] | RMSD: 0.3697 | 7000.00 to state    1 from traj    1 on state    2
C     -1.876238     0.123796     0.135764
H     -0.467986     1.023577    -1.089596
H     -2.303298    -0.723179    -0.015981
C     -0.828818     1.406386    -0.071374
H     -0.730520     2.606012    -0.264584
H      0.002667     1.615258     0.599636
6
Family_3 [H][C]C([H])([H])[H] | RMSD: 0.4044 | 8936.00 to state    1 from traj    1 on state    2
C     -1.821893     0.283462     0.071622
H     -0.097577     1.447206    -0.982081
H     -1.788892    -0.696104     0.797556
C     -0.948145     1.283333    -0.099005
H     -0.660037     2.436490    -0.026763
H     -0.178322     0.897812     0.534293
6
Family_3 [H][C]C([H])([H])[H] | RMSD: 0.3468 | 4900.00 to state    1 from traj    1 on state    2
C     -1.782808     0.183109     0.141552
H     -0.345705     1.182136    -1.251618
H     -2.586776    -0.676597     0.141955
C     -0.840656     1.370976    -0.088975
H     -1.138616     2.644069    -0.299146
H     -0.400267     1.087251     0.779032
6
Family_3 [H][C]C([H])([H])[H] | RMSD: 0.3161 | 2304.00 to state    1 from traj    1 on state    2
C     -1.778519     0.240737     0.125617
H     -0.470193     0.897795    -1.185777
H     -2.399962    -0.810927     0.011891
C     -0.882975     1.333553    -0.078407
H     -1.017524     2.591509    -0.131466
H     -0.130522     1.317713     0.739520
6
Family_3 [H][C]C([H])([H])[H] | RMSD: 0.3570 | 7620.00 to state    1 from traj    1 on state    2
C     -1.722466     0.277660     0.134785
H     -0.233957     1.160845    -1.041578
H     -2.542943    -0.467435     0.057384
C     -0.938944     1.286160    -0.106419
H     -1.282988     2.262880    -0.082852
H      0.040683     1.164566     0.725766
6
Family_3 [H][C]C([H])([H])[H] | RMSD: 0.4074 | 3236.00 to state    1 from traj    1 on state    2
C     -1.835310     0.180303     0.076971
H     -0.328670     1.315761    -1.057986
H     -2.531457    -0.709725     0.492496
C     -0.826711     1.354180    -0.063225
H     -1.201740     2.501141    -0.320544
H      0.049941     1.363246     0.718963
6
Family_3 [H][C]C([H])([H])[H] | RMSD: 0.4054 | 4320.00 to state    1 from traj    1 on state    2
C     -1.738741     0.259467     0.186994
H     -0.181098     1.619108    -0.708723
H     -2.481889    -0.475565     0.037978
C     -0.933465     1.281031    -0.168731
H     -1.053393     2.369130    -0.196326
H     -0.174188     0.886078     0.646174
6
Family_3 [H][C]C([H])([H])[H] | RMSD: 0.4835 | 3832.00 to state    1 from traj    1 on state    2
C     -1.904207     0.094815     0.143627
H     -0.061758     1.159387    -0.768804
H     -1.992578    -0.892099     0.648643
C     -0.866152     1.529879    -0.200935
H     -0.523859     2.290530     0.495185
H     -0.142818     0.837677     0.304560
6
Family_3 [H][C]C([H])([H])[H] | RMSD: 0.2830 | 4652.00 to state    1 from traj    1 on state    2
C     -1.746620     0.310244     0.039580
H     -0.402401     0.978180    -1.094896
H     -1.891006    -0.596153     0.571420
C     -0.974675     1.297767    -0.029450
H     -0.824161     2.388987    -0.326020
H     -0.188067     0.823275     0.725498
6
Family_3 [H][C]C([H])([H])[H] | RMSD: 0.4284 | 5140.00 to state    1 from traj    1 on state    2
C     -1.810687     0.262251     0.166946
H      0.004236     1.141481    -1.064600
H     -2.227396    -0.721113     0.046053
C     -0.958642     1.290688    -0.160868
H     -0.827199     2.385471     0.417573
H      0.317089     1.444661     0.525276
6
Family_3 [H][C]C([H])([H])[H] | RMSD: 0.4138 | 2620.00 to state    1 from traj    1 on state    2
C     -1.799243     0.190277     0.141876
H     -0.279845     1.529261    -1.232024
H     -2.600201    -0.488000     0.212748
C     -0.850780     1.307968    -0.116536
H     -1.051085     2.290255    -0.044892
H     -0.223756     1.570703     0.758936
6
Family_3 [H][C]C([H])([H])[H] | RMSD: 0.3741 | 20184.00 to state    1 from traj    1 on state    2
C     -1.811048     0.185895     0.097742
H     -0.241057     1.065224    -1.148346
H     -2.437113    -0.617919     0.409215
C     -0.853067     1.396005    -0.093356
H     -1.359592     2.460713    -0.130734
H      0.050788     0.997401     0.814324
6
Family_3 [H][C]C([H])([H])[H] | RMSD: 0.3265 | 7048.00 to state    1 from traj    1 on state    2
C     -1.830196     0.179147     0.124982
H     -0.579382     1.140708    -0.976190
H     -1.959055    -0.847762     0.211859
C     -0.918301     1.405751    -0.104586
H     -0.187829     2.485774    -0.255694
H     -0.255246     1.090970     0.773714
6
Family_3 [H][C]C([H])([H])[H] | RMSD: 0.4422 | 7928.00 to state    1 from traj    1 on state    2
C     -1.702899     0.235265     0.008504
H     -0.496802     0.720592    -0.988375
H     -2.505210    -0.296741     0.590208
C     -0.935224     1.358576    -0.006343
H     -1.269715     2.161019    -0.190780
H     -0.024960     1.178265     0.559918
6
Family_3 [H][C]C([H])([H])[H] | RMSD: 0.4560 | 8256.00 to state    1 from traj    1 on state    2
C     -1.850159     0.241778     0.093203
H     -0.011433     1.296406    -1.075153
H     -2.139617    -0.828000     0.700257
C     -0.910626     1.315289    -0.147601
H     -0.912862     2.534304     0.381434
H      0.228823     1.198614     0.638370
6
Family_3 [H][C]C([H])([H])[H] | RMSD: 0.3264 | 7668.00 to state    1 from traj    1 on state    2
C     -1.786877     0.264682     0.111553
H     -0.399822     1.135519    -1.081514
H     -1.977030    -0.673827     0.374563
C     -0.968556     1.293611    -0.143683
H     -0.462678     2.559934     0.249947
H     -0.059328     1.165072     0.836575
6
Family_3 [H][C]C([H])([H])[H] | RMSD: 0.3275 | 1508.00 to state    1 from traj    1 on state    2
C     -1.807487     0.122248     0.084571
H     -0.388528     1.102606    -0.930762
H     -2.510761    -0.620854     0.360757
C     -0.903582     1.427552    -0.047013
H     -0.587787     2.599649    -0.505324
H      0.059592     1.206510     0.624521
6
Family_3 [H][C]C([H])([H])[H] | RMSD: 0.4409 | 3576.00 to state    1 from traj    1 on state    2
C     -1.783982     0.285271     0.145482
H     -0.532181     0.675049    -1.238832
H     -2.036736    -0.587712    -0.346720
C     -0.897297     1.296690    -0.066608
H     -1.170842     2.362058    -0.075489
H     -0.042697     1.455290     0.717915
6
Family_3 [H][C]C([H])([H])[H] | RMSD: 0.4040 | 5164.00 to state    1 from traj    1 on state    2
C     -1.817427     0.176825     0.040322
H     -0.240409     0.952859    -0.917948
H     -2.353138    -0.578988     0.532204
C     -0.910681     1.374447    -0.007231
H     -0.819050     2.392629    -0.261562
H      0.188139     1.503864     0.249721
6
Family_3 [H][C]C([H])([H])[H] | RMSD: 0.2906 | 2284.00 to state    1 from traj    1 on state    2
C     -1.771265     0.206303     0.168774
H     -0.180148     0.808236    -1.184373
H     -2.384912    -0.720582    -0.025693
C     -0.919688     1.410965    -0.136207
H     -0.981268     2.342497     0.231750
H     -0.120853     1.053830     0.586976
6
Family_3 [H][C]C([H])([H])[H] | RMSD: 0.4704 | 3460.00 to state    1 from traj    1 on state    2
C     -1.821575     0.247774     0.129555
H     -0.479463     0.946790    -0.995530
H     -2.081001    -0.611677    -0.189784
C     -0.854624     1.362581    -0.057138
H     -1.466730     2.081369    -0.501649
H      0.184205     1.149865     0.820785
6
Family_3 [H][C]C([H])([H])[H] | RMSD: 0.3783 | 2244.00 to state    1 from traj    1 on state    2
C     -1.627783     0.244682     0.170522
H     -0.551724     0.978690    -1.055248
H     -2.674010    -0.410910    -0.097936
C     -0.986037     1.341149    -0.139078
H     -0.717680     2.458019    -0.032895
H     -0.642854     0.832771     0.808129
6
Family_3 [H][C]C([H])([H])[H] | RMSD: 0.3070 | 4088.00 to state    1 from traj    1 on state    2
C     -1.795148     0.167438     0.136107
H     -0.262189     0.969763    -1.316742
H     -2.434565    -0.532022     0.076954
C     -0.864686     1.420751    -0.081349
H     -1.234197     2.380279    -0.261640
H     -0.107036     1.012453     0.845660
6
Family_3 [H][C]C([H])([H])[H] | RMSD: 0.4442 | 5396.00 to state    1 from traj    1 on state    2
C     -1.729368     0.230138     0.191726
H     -0.104221     1.049636    -0.823089
H     -2.465691    -0.273169    -0.156745
C     -0.990947     1.323667    -0.182020
H     -0.968539     2.310757     0.322307
H      0.221139     1.152965     0.538587
6
Family_3 [H][C]C([H])([H])[H] | RMSD: 0.4665 | 15768.00 to state    1 from traj    1 on state    2
C     -1.753671     0.318244     0.169899
H     -0.380181     0.693963    -0.841876
H     -2.112069    -0.742306    -0.474987
C     -0.939897     1.314467    -0.078644
H     -1.263057     2.277613    -0.271299
H      0.119283     1.070692     0.497516
6
Family_3 [H][C]C([H])([H])[H] | RMSD: 0.4326 | 8264.00 to state    1 from traj    1 on state    2
C     -1.797054     0.257206     0.143275
H     -0.511071     1.095932    -1.250344
H     -2.319253    -0.631028    -0.122409
C     -0.842611     1.307957    -0.097952
H     -1.404835     2.239794    -0.151297
H     -0.043166     1.400145     0.980711
6
Family_3 [H][C]C([H])([H])[H] | RMSD: 0.3758 | 5700.00 to state    1 from traj    1 on state    2
C     -1.795649     0.265357     0.129685
H     -0.340283     1.346945    -1.400807
H     -2.283017    -0.538871     0.090735
C     -0.869287     1.260968    -0.084236
H     -1.169322     2.231951    -0.122364
H     -0.184565     1.527604     0.887602
6
Family_3 [H][C]C([H])([H])[H] | RMSD: 0.3884 | 6960.00 to state    1 from traj    1 on state    2
C     -1.728131     0.249345     0.044093
H     -0.590214     0.725062    -0.867621
H     -2.244157    -0.630513     0.619227
C     -0.934412     1.372448    -0.086239
H     -0.963240     2.497563     0.081844
H     -0.208097     0.837952     0.665461
6
Family_3 [H][C]C([H])([H])[H] | RMSD: 0.4222 | 7112.00 to state    1 from traj    1 on state    2
C     -1.715215     0.247728     0.149070
H     -0.254640     1.274324    -1.142695
H     -2.523443    -0.226351     0.059547
C     -0.921730     1.310580    -0.122579
H     -1.398768     2.217693    -0.177834
H     -0.133875     0.920865     0.942050
6
Family_3 [H][C]C([H])([H])[H] | RMSD: 0.3426 | 1728.00 to state    1 from traj    1 on state    2
C     -1.793141     0.185636     0.133426
H     -0.478215     0.779412    -1.182158
H     -2.408266    -0.753714     0.104454
C     -0.862060     1.402224    -0.118147
H     -1.002181     2.568379     0.170294
H     -0.204535     1.240324     0.722065
6
Family_3 [H][C]C([H])([H])[H] | RMSD: 0.4572 | 2348.00 to state    1 from traj    1 on state    2
C     -1.681872     0.151872     0.213486
H     -0.355658     1.319917    -1.116437
H     -2.674242    -0.151834    -0.009368
C     -0.972195     1.400678    -0.229193
H     -0.543324     2.101196     0.403733
H     -0.533482     0.985859     0.905953
6
Family_3 [H][C]C([H])([H])[H] | RMSD: 0.7258 | 2116.00 to state    1 from traj    1 on state    2
C     -1.767097     0.207134     0.318267
H      0.292483     1.404713    -0.581759
H     -2.292123    -0.281668    -0.628114
C     -0.915026     1.385650    -0.206525
H     -1.432103     2.365097    -0.288329
H     -0.340663     0.287577     0.163440
6
Family_3 [H][C]C([H])([H])[H] | RMSD: 0.4277 | 4620.00 to state    1 from traj    1 on state    2
C     -1.826873     0.196233     0.126585
H     -0.612479     1.088980    -1.261285
H     -2.464753    -1.006698     0.110623
C     -0.825351     1.342663    -0.092481
H     -0.800146     2.815467    -0.140866
H     -0.251283     1.520079     0.881866
6
Family_3 [H][C]C([H])([H])[H] | RMSD: 0.5282 | 6584.00 to state    1 from traj    1 on state    2
C     -1.742100     0.200154     0.046965
H     -0.293613     1.350490    -0.689420
H     -2.456253    -0.087138     0.463955
C     -0.935630     1.340066     0.002280
H     -1.114647     1.988709    -0.762392
H      0.039767     1.149994     0.397784
6
Family_3 [H][C]C([H])([H])[H] | RMSD: 0.4168 | 3312.00 to state    1 from traj    1 on state    2
C     -1.807845     0.237502     0.069615
H     -0.322327     1.320544    -1.166381
H     -2.363046    -0.704055     0.539870
C     -0.831186     1.348666    -0.056984
H     -1.463306     2.152132    -0.350235
H     -0.137184     1.085930     0.822956
6
Family_3 [H][C]C([H])([H])[H] | RMSD: 0.2880 | 8860.00 to state    1 from traj    1 on state    2
C     -1.897901     0.105279     0.149424
H     -0.344038     1.280927    -1.175042
H     -2.333241    -0.961138     0.176525
C     -0.796099     1.455754    -0.097895
H     -0.734668     2.538060    -0.320001
H     -0.218930     1.296210     0.701228
6
Family_3 [H][C]C([H])([H])[H] | RMSD: 0.4376 | 2448.00 to state    1 from traj    1 on state    2
C     -1.771718     0.281465     0.082796
H     -0.381641     1.125237    -0.884004
H     -2.119985    -0.535677     0.500606
C     -0.874915     1.316701    -0.102244
H     -1.478686     2.356296    -0.086121
H     -0.214977     0.765729     0.697969
6
Family_3 [H][C]C([H])([H])[H] | RMSD: 0.3782 | 1744.00 to state    1 from traj    1 on state    2
C     -1.826170     0.217886     0.143432
H     -0.232532     1.181478    -1.083563
H     -2.335812    -0.647949    -0.007841
C     -0.870269     1.349455    -0.097252
H     -1.289928     2.341958    -0.292879
H      0.256463     1.203411     0.830738
6
Family_3 [H][C]C([H])([H])[H] | RMSD: 0.3913 | 4556.00 to state    1 from traj    1 on state    2
C     -1.858594     0.162628     0.159008
H     -0.546614     1.062865    -1.165028
H     -2.315577    -0.832754    -0.180731
C     -0.786888     1.412118    -0.076505
H     -1.174449     2.496823    -0.497580
H     -0.172358     1.263720     0.856981
6
Family_3 [H][C]C([H])([H])[H] | RMSD: 0.3949 | 5308.00 to state    1 from traj    1 on state    2
C     -1.799539     0.213567     0.081036
H     -0.038261     1.255318    -1.072188
H     -2.429261    -0.589133     0.525422
C     -0.892182     1.359537    -0.057318
H     -1.305606     2.419755    -0.384279
H      0.115093     0.924277     0.645150
6
Family_3 [H][C]C([H])([H])[H] | RMSD: 0.3680 | 4776.00 to state    1 from traj    1 on state    2
C     -1.816130     0.208416     0.132192
H     -0.319521     0.895563    -0.996875
H     -2.347442    -0.832072    -0.137567
C     -0.873269     1.402038    -0.038889
H     -1.156825     2.285150    -0.526285
H      0.138083     1.216536     0.545668
6
Family_3 [H][C]C([H])([H])[H] | RMSD: 0.3651 | 5592.00 to state    1 from traj    1 on state    2
C     -1.772848     0.240465     0.136443
H     -0.302169     0.715361    -1.062652
H     -2.317783    -0.674998    -0.151389
C     -0.938777     1.341434    -0.067915
H     -0.890075     2.401224    -0.010565
H      0.089162     1.463836     0.404771
6
Family_3 [H][C]C([H])([H])[H] | RMSD: 0.3632 | 10096.00 to state    1 from traj    1 on state    2
C     -1.779846     0.225999     0.128842
H     -0.367509     1.461126    -0.993783
H     -2.488673    -0.521830     0.206423
C     -0.865921     1.308944    -0.105447
H     -1.196476     2.310641    -0.291811
H     -0.152942     1.215000     0.797132
6
Family_3 [H][C]C([H])([H])[H] | RMSD: 0.3396 | 6600.00 to state    1 from traj    1 on state    2
C     -1.919845     0.070904     0.102354
H     -0.259096     1.151548    -1.312318
H     -2.342939    -0.900640     0.476957
C     -0.777597     1.506917    -0.074122
H     -0.975644     2.596556    -0.363499
H     -0.012183     1.106550     0.859179
6
Family_3 [H][C]C([H])([H])[H] | RMSD: 0.3878 | 15036.00 to state    1 from traj    1 on state    2
C     -1.834614     0.234317     0.082169
H     -0.380881     1.361846    -0.935651
H     -2.122098    -0.770097     0.668740
C     -0.874887     1.334922    -0.143155
H     -0.985863     2.409218     0.101452
H      0.042670     1.055319     0.888860
6
Family_3 [H][C]C([H])([H])[H] | RMSD: 0.4357 | 1540.00 to state    1 from traj    1 on state    2
C     -1.787301     0.197191     0.037738
H     -0.616269     0.726249    -0.953516
H     -2.335182    -0.651229     0.628836
C     -0.858099     1.405252    -0.079587
H     -1.170931     2.383026     0.168143
H     -0.087594     1.202575     0.651909
6
Family_3 [H][C]C([H])([H])[H] | RMSD: 0.3361 | 2404.00 to state    1 from traj    1 on state    2
C     -1.727446     0.218741     0.186867
H     -0.181127     1.077551    -0.993162
H     -2.550330    -0.510739    -0.035739
C     -0.955585     1.375016    -0.184423
H     -0.985246     2.194164     0.299763
H     -0.044872     1.003153     0.696729
6
Family_3 [H][C]C([H])([H])[H] | RMSD: 0.4749 | 3548.00 to state    1 from traj    1 on state    2
C     -1.762198     0.241223     0.165963
H     -0.119711     0.866889    -1.001592
H     -2.460373    -0.611351    -0.031410
C     -0.886523     1.382067    -0.138314
H     -1.552494     2.140346     0.233858
H     -0.037833     1.016337     0.466405
6
Family_3 [H][C]C([H])([H])[H] | RMSD: 0.2921 | 4920.00 to state    1 from traj    1 on state    2
C     -1.791700     0.229233     0.087631
H     -0.392544     1.115016    -1.347134
H     -2.150159    -0.701529     0.500946
C     -0.897344     1.340292    -0.085243
H     -0.808028     2.653967    -0.110120
H     -0.339201     0.985416     0.924564
6
Family_3 [H][C]C([H])([H])[H] | RMSD: 0.3211 | 2072.00 to state    1 from traj    1 on state    2
C     -1.702735     0.238430     0.137395
H     -0.654448     1.066965    -1.075891
H     -2.428550    -0.436465     0.017642
C     -0.916939     1.330888    -0.106305
H     -0.898650     2.375119    -0.177975
H     -0.534875     1.049717     0.862486
6
Family_3 [H][C]C([H])([H])[H] | RMSD: 0.4221 | 3036.00 to state    1 from traj    1 on state    2
C     -1.897357     0.144734     0.100360
H     -0.144692     1.422056    -1.171161
H     -2.327548    -0.832550     0.597073
C     -0.763582     1.419539    -0.080813
H     -1.346133     2.459739    -0.313525
H     -0.206451     1.066212     0.651414
6
Family_3 [H][C]C([H])([H])[H] | RMSD: 0.4073 | 7732.00 to state    1 from traj    1 on state    2
C     -1.847730     0.166237     0.156000
H     -0.130307     1.443306    -0.860811
H     -2.458064    -0.606516     0.090785
C     -0.838446     1.376854    -0.105005
H     -1.235050     2.325691    -0.385886
H      0.099313     1.205370     0.544987
6
Family_3 [H][C]C([H])([H])[H] | RMSD: 0.3136 | 8752.00 to state    1 from traj    1 on state    2
C     -1.851149     0.107713     0.134877
H     -0.395045     1.179634    -1.238618
H     -2.576639    -0.860279     0.259152
C     -0.801546     1.457627    -0.109003
H     -0.933607     2.518953    -0.161453
H     -0.217760     1.264433     0.829335
6
Family_3 [H][C]C([H])([H])[H] | RMSD: 0.4010 | 9776.00 to state    1 from traj    1 on state    2
C     -1.784140     0.214613     0.097508
H     -0.211506     0.945050    -1.084245
H     -2.515607    -0.737046     0.427366
C     -0.870533     1.379506    -0.099844
H     -1.256064     2.282861     0.244516
H     -0.116305     1.268952     0.436916
6
Family_3 [H][C]C([H])([H])[H] | RMSD: 0.4484 | 4228.00 to state    1 from traj    1 on state    2
C     -1.799756     0.286090     0.132727
H     -0.411698     1.234596    -1.255460
H     -2.155963    -0.656013     0.229026
C     -0.870969     1.278748    -0.161848
H     -1.213057     2.084497     0.447774
H     -0.127491     1.445637     0.922376
6
Family_3 [H][C]C([H])([H])[H] | RMSD: 0.4504 | 5308.00 to state    1 from traj    1 on state    2
C     -1.769487     0.252103     0.049225
H     -0.082196     0.826790    -0.995032
H     -2.401239    -0.665860     0.496941
C     -0.901476     1.348841     0.003545
H     -1.393001     2.456119    -0.320620
H     -0.028941     1.061436     0.186637
6
Family_3 [H][C]C([H])([H])[H] | RMSD: 0.4860 | 9676.00 to state    1 from traj    1 on state    2
C     -1.754571     0.149972     0.197468
H     -0.323861     1.323827    -1.160197
H     -2.605505    -0.288250     0.144761
C     -0.848519     1.404538    -0.220308
H     -1.273032     2.395866     0.291122
H     -0.511728     0.800333     0.993195
6
Family_3 [H][C]C([H])([H])[H] | RMSD: 0.4423 | 9828.00 to state    1 from traj    1 on state    2
C     -1.772172     0.130012     0.026564
H     -0.568436     0.497074    -0.957172
H     -2.462102    -0.604318     0.621642
C     -0.864135     1.500406    -0.023589
H     -1.080348     2.516250    -0.203339
H     -0.207437     0.918278     0.500133
6
Family_3 [H][C]C([H])([H])[H] | RMSD: 0.4126 | 2948.00 to state    1 from traj    1 on state    2
C     -1.809272     0.245446     0.124256
H     -0.550069     1.299652    -0.975036
H     -2.324732    -0.731120     0.160394
C     -0.802534     1.321924    -0.099133
H     -1.407803     2.242919    -0.221432
H     -0.327673     1.267101     0.733437
6
Family_3 [H][C]C([H])([H])[H] | RMSD: 0.3983 | 5260.00 to state    1 from traj    1 on state    2
C     -1.783215     0.230819     0.113734
H     -0.608400     0.985126    -1.216799
H     -2.372383    -0.679598     0.077021
C     -0.817867     1.361101    -0.069732
H     -1.371502     2.153927    -0.171277
H     -0.385762     1.326560     0.783463
6
Family_3 [H][C]C([H])([H])[H] | RMSD: 0.3514 | 4120.00 to state    1 from traj    1 on state    2
C     -1.741940     0.259502     0.174370
H     -0.365754     1.325329    -1.123460
H     -2.555839    -0.624749    -0.147621
C     -0.930360     1.260292    -0.125817
H     -0.859087     2.641906    -0.198479
H     -0.108758     1.302966     0.887737
6
Family_3 [H][C]C([H])([H])[H] | RMSD: 0.3305 | 5992.00 to state    1 from traj    1 on state    2
C     -1.854518     0.125789     0.170759
H     -0.478010     0.898114    -1.265869
H     -2.323562    -0.774559    -0.077358
C     -0.818774     1.464404    -0.141174
H     -0.947894     2.352170     0.121198
H     -0.128154     1.330865     0.866221
6
Family_3 [H][C]C([H])([H])[H] | RMSD: 0.4187 | 11688.00 to state    1 from traj    1 on state    2
C     -1.768581     0.221158     0.075582
H     -0.288091     1.085314    -1.030370
H     -2.531452    -0.573190     0.420922
C     -0.882610     1.360631    -0.059842
H     -1.415035     2.466133    -0.382609
H      0.093609     0.928486     0.801224
6
Family_3 [H][C]C([H])([H])[H] | RMSD: 0.4581 | 12668.00 to state    1 from traj    1 on state    2
C     -1.765786     0.197773     0.158348
H     -0.085574     1.259245    -0.922139
H     -2.621406    -0.525207     0.032468
C     -0.872308     1.380521    -0.082974
H     -1.438987     2.423213    -0.541427
H     -0.151063     0.791130     0.529686
6
Family_3 [H][C]C([H])([H])[H] | RMSD: 0.3024 | 4092.00 to state    1 from traj    1 on state    2
C     -1.718545     0.233760     0.192377
H     -0.138647     1.071571    -1.006270
H     -2.406684    -0.423192    -0.159543
C     -0.962123     1.353721    -0.132888
H     -0.997431     2.443339    -0.151395
H     -0.246968     0.747199     0.605079
6
Family_3 [H][C]C([H])([H])[H] | RMSD: 0.3958 | 4264.00 to state    1 from traj    1 on state    2
C     -1.797712     0.170225     0.075617
H     -0.355975     0.950477    -0.893851
H     -2.420572    -0.583933     0.496942
C     -0.891381     1.370789    -0.073868
H     -0.873734     2.880891    -0.118411
H     -0.039069     1.145161     0.491191
6
Family_3 [H][C]C([H])([H])[H] | RMSD: 0.3520 | 11760.00 to state    1 from traj    1 on state    2
C     -1.854678     0.164824     0.087475
H     -0.285910     1.085227    -1.300682
H     -2.384369    -0.832558     0.485713
C     -0.816764     1.428676    -0.084296
H     -1.232371     2.273839    -0.049913
H      0.002973     1.240684     0.823725
6
Family_3 [H][C]C([H])([H])[H] | RMSD: 0.3846 | 19888.00 to state    1 from traj    1 on state    2
C     -1.805652     0.124772     0.026019
H     -0.568603     0.860786    -0.979012
H     -2.412164    -0.484620     0.527672
C     -0.856145     1.439842     0.017905
H     -0.895890     2.424099    -0.564390
H     -0.137947     1.311123     0.489068
6
Family_3 [H][C]C([H])([H])[H] | RMSD: 0.3485 | 2732.00 to state    1 from traj    1 on state    2
C     -1.774997     0.193551     0.106191
H     -0.638549     0.944061    -1.256853
H     -2.424616    -0.669853     0.204114
C     -0.880017     1.358752    -0.093487
H     -0.716607     2.476269     0.082051
H     -0.315651     1.507600     0.816038
6
Family_3 [H][C]C([H])([H])[H] | RMSD: 0.4039 | 3536.00 to state    1 from traj    1 on state    2
C     -1.805592     0.240088     0.154815
H     -0.637385     0.734935    -0.986242
H     -1.980774    -0.737983    -0.338842
C     -0.875459     1.372424    -0.070037
H     -1.023212     2.480617    -0.423296
H     -0.143803     1.063080     0.734920
6
Family_3 [H][C]C([H])([H])[H] | RMSD: 0.3745 | 5296.00 to state    1 from traj    1 on state    2
C     -1.793571     0.220059     0.150144
H     -0.199377     1.326008    -0.944973
H     -2.540965    -0.692086     0.091382
C     -0.865523     1.354946    -0.115056
H     -1.297074     2.142844    -0.167037
H     -0.009393     1.210802     0.599243
6
Family_3 [H][C]C([H])([H])[H] | RMSD: 0.4852 | 9536.00 to state    1 from traj    1 on state    2
C     -1.870253     0.182075     0.084470
H     -0.207266     1.377073    -1.434387
H     -2.204901    -0.750345     0.735020
C     -0.763424     1.399106    -0.087155
H     -1.476207     2.327398    -0.121410
H     -0.461294     0.959860     0.849487
6
Family_3 [H][C]C([H])([H])[H] | RMSD: 0.3879 | 18724.00 to state    1 from traj    1 on state    2
C     -1.851203     0.148051     0.126954
H     -0.276021     1.199409    -1.155343
H     -2.573763    -0.773858     0.164374
C     -0.835874     1.380163    -0.083952
H     -0.944893     2.483152    -0.135921
H      0.081305     1.636416     0.611219
6
Family_3 [H][C]C([H])([H])[H] | RMSD: 0.3384 | 19708.00 to state    1 from traj    1 on state    2
C     -1.820808     0.206706     0.102436
H     -0.110584     1.313035    -1.019544
H     -2.244769    -0.532078     0.535098
C     -0.881544     1.345457    -0.109243
H     -1.117908     2.418384    -0.012800
H     -0.058096     1.060405     0.575076
6
Family_3 [H][C]C([H])([H])[H] | RMSD: 0.3827 | 2620.00 to state    1 from traj    1 on state    2
C     -1.750807     0.177094     0.194707
H     -0.096826     0.861118    -0.744964
H     -2.465662    -0.548342    -0.164604
C     -0.974312     1.421503    -0.152300
H     -0.733627     2.454126     0.104105
H      0.036044     0.939552     0.296877
6
Family_3 [H][C]C([H])([H])[H] | RMSD: 0.2905 | 4012.00 to state    1 from traj    1 on state    2
C     -1.718993     0.192278     0.170588
H     -0.312310     1.108908    -1.203884
H     -2.595955    -0.400868     0.001969
C     -0.948025     1.379291    -0.156216
H     -0.865505     2.290194     0.096147
H     -0.178616     1.030274     0.931231
6
Family_3 [H][C]C([H])([H])[H] | RMSD: 0.2988 | 5092.00 to state    1 from traj    1 on state    2
C     -1.768490     0.180365     0.163018
H     -0.033183     1.309820    -1.094248
H     -2.659058    -0.643380     0.141191
C     -0.917963     1.366319    -0.109528
H     -0.827283     2.554846    -0.184607
H     -0.201286     1.103750     0.497007
6
Family_3 [H][C]C([H])([H])[H] | RMSD: 0.3733 | 4012.00 to state    1 from traj    1 on state    2
C     -1.766361     0.204754     0.080570
H     -0.465001     1.254783    -0.889201
H     -2.507656    -0.491186     0.457560
C     -0.899965     1.348151    -0.101059
H     -1.077150     2.418210    -0.241509
H      0.089178     1.069104     0.914013
6
Family_3 [H][C]C([H])([H])[H] | RMSD: 0.4856 | 3652.00 to state    1 from traj    1 on state    2
C     -1.711765     0.205242     0.223153
H     -0.558795     1.371697    -1.160917
H     -2.583014    -0.287221    -0.201850
C     -0.905932     1.310427    -0.223522
H     -0.879142     2.554170     0.197783
H     -0.519131     1.055950     1.166100
6
Family_3 [H][C]C([H])([H])[H] | RMSD: 0.4850 | 2776.00 to state    1 from traj    1 on state    2
C     -1.687306     0.247187     0.235670
H     -0.169403     1.615456    -0.883327
H     -2.689220    -0.390638    -0.121493
C     -0.929966     1.290988    -0.204462
H     -1.061305     2.459687    -0.042892
H     -0.625211     0.741928     0.672573
6
Family_3 [H][C]C([H])([H])[H] | RMSD: 0.3516 | 1452.00 to state    1 from traj    1 on state    2
C     -1.771462     0.235252     0.136308
H     -0.469364     0.837669    -0.834486
H     -2.140922    -0.667574    -0.165604
C     -0.928837     1.363514    -0.048781
H     -0.836154     2.578623    -0.567649
H     -0.109384     0.955726     0.521519
6
Family_3 [H][C]C([H])([H])[H] | RMSD: 0.4690 | 4448.00 to state    1 from traj    1 on state    2
C     -1.820621     0.190860     0.052271
H     -0.743754     0.989784    -1.158492
H     -2.314643    -0.939776     0.710830
C     -0.795809     1.392383    -0.095409
H     -1.015931     2.668616     0.074003
H     -0.480854     1.170780     0.884387
6
Family_3 [H][C]C([H])([H])[H] | RMSD: 0.3965 | 7912.00 to state    1 from traj    1 on state    2
C     -1.790523     0.209261     0.057545
H     -0.260339     0.781163    -1.003090
H     -2.213061    -0.435251     0.540710
C     -0.915379     1.366150    -0.068585
H     -1.095318     2.435128     0.153225
H      0.079661     1.201699     0.437424
6
Family_3 [H][C]C([H])([H])[H] | RMSD: 0.4536 | 6488.00 to state    1 from traj    1 on state    2
C     -1.743756     0.208297     0.007441
H     -0.373236     0.795310    -0.761269
H     -2.417597    -0.346040     0.632237
C     -0.956731     1.351882     0.004014
H     -0.951878     2.519006    -0.350899
H      0.189133     1.195953     0.340150
6
Family_3 [H][C]C([H])([H])[H] | RMSD: 0.3459 | 8228.00 to state    1 from traj    1 on state    2
C     -1.790733     0.200962     0.160944
H     -0.243720     1.013246    -1.013276
H     -2.352817    -0.541986     0.054687
C     -0.872602     1.389599    -0.142468
H     -1.251067     2.223406     0.178632
H     -0.148663     1.107551     0.556513
6
Family_3 [H][C]C([H])([H])[H] | RMSD: 0.4524 | 9200.00 to state    1 from traj    1 on state    2
C     -1.823694     0.240048     0.145836
H     -0.513983     0.810609    -0.963346
H     -2.045440    -0.895882    -0.322272
C     -0.876118     1.410613    -0.052620
H     -1.179443     2.206287    -0.656044
H      0.177241     0.965068     0.827644
6
Family_3 [H][C]C([H])([H])[H] | RMSD: 0.3530 | 12984.00 to state    1 from traj    1 on state    2
C     -1.755318     0.238114     0.072711
H     -0.342089     1.016529    -1.063548
H     -2.358164    -0.462170     0.476867
C     -0.904296     1.354813    -0.084310
H     -1.274134     2.113774     0.032758
H     -0.066223     1.105886     0.688851
6
Family_3 [H][C]C([H])([H])[H] | RMSD: 0.4353 | 19004.00 to state    1 from traj    1 on state    2
C     -1.776551     0.247293     0.056441
H     -0.122390     0.980626    -0.854644
H     -2.325752    -0.639331     0.672258
C     -0.911823     1.351191    -0.071331
H     -1.287737     2.440712    -0.001703
H      0.037974     0.925799     0.358241
6
Family_3 [H][C]C([H])([H])[H] | RMSD: 0.4190 | 20096.00 to state    1 from traj    1 on state    2
C     -1.748519     0.289943     0.067256
H     -0.445542     1.262685    -1.197620
H     -2.386578    -0.511667     0.454784
C     -0.858518     1.257342    -0.045333
H     -1.411585     2.262973    -0.214773
H     -0.423395     1.303875     0.693102
6
Family_3 [H][C]C([H])([H])[H] | RMSD: 0.3954 | 8948.00 to state    1 from traj    1 on state    2
C     -1.768171     0.283160     0.122892
H     -0.573723     0.776105    -1.076051
H     -2.286354    -0.809521    -0.152629
C     -0.874735     1.327055    -0.059621
H     -1.299564     2.310995    -0.237199
H     -0.080055     1.290441     0.708685
6
Family_3 [H][C]C([H])([H])[H] | RMSD: 0.3501 | 4848.00 to state    1 from traj    1 on state    2
C     -1.785782     0.199251     0.179311
H     -0.324490     1.133913    -1.184031
H     -2.390734    -0.570999    -0.071753
C     -0.894775     1.317830    -0.132859
H     -0.719944     2.697461     0.114864
H     -0.355889     1.417401     0.584136
6
Family_3 [H][C]C([H])([H])[H] | RMSD: 0.3829 | 5424.00 to state    1 from traj    1 on state    2
C     -1.781196     0.280354     0.132009
H     -0.293269     1.250379    -1.076016
H     -2.378175    -0.809621    -0.043358
C     -0.868655     1.311541    -0.040517
H     -1.339497     2.150731    -0.588683
H     -0.146004     1.194828     0.614589
6
Family_3 [H][C]C([H])([H])[H] | RMSD: 0.2126 | 9044.00 to state    1 from traj    1 on state    2
C     -1.735622     0.196790     0.125354
H     -0.276650     0.983400    -1.305111
H     -2.558905    -0.602715     0.032436
C     -0.970391     1.381830    -0.057026
H     -0.619092     2.345870    -0.327913
H     -0.033089     1.217930     0.783127
6
Family_3 [H][C]C([H])([H])[H] | RMSD: 0.4022 | 10748.00 to state    1 from traj    1 on state    2
C     -1.769361     0.258270     0.172074
H     -0.203613     1.108127    -0.850841
H     -2.490461    -0.711671    -0.201095
C     -0.900485     1.318998    -0.103052
H     -1.241554     2.291357    -0.169459
H      0.016944     1.272792     0.395677
6
Family_3 [H][C]C([H])([H])[H] | RMSD: 0.3712 | 9588.00 to state    1 from traj    1 on state    2
C     -1.855586     0.175999     0.074482
H     -0.278620     1.284200    -1.097049
H     -2.298101    -0.729338     0.648164
C     -0.834384     1.368547    -0.084007
H     -1.067724     2.660199    -0.188658
H     -0.034441     1.135445     0.747759
6
Family_3 [H][C]C([H])([H])[H] | RMSD: 0.3844 | 10700.00 to state    1 from traj    1 on state    2
C     -1.830090     0.192617     0.101774
H     -0.208285     1.358819    -1.052422
H     -2.451189    -0.924643     0.625750
C     -0.855743     1.362955    -0.121902
H     -0.930647     2.727674    -0.032103
H     -0.138070     1.057285     0.695335
6
Family_3 [H][C]C([H])([H])[H] | RMSD: 0.4293 | 11636.00 to state    1 from traj    1 on state    2
C     -1.800320     0.256968     0.160900
H     -0.445708     1.049848    -1.020646
H     -2.366136    -0.770321    -0.235155
C     -0.860907     1.294572    -0.094889
H     -1.245984     2.689489    -0.306113
H      0.036436     1.298156     0.772067
6
Family_3 [H][C]C([H])([H])[H] | RMSD: 0.3999 | 12536.00 to state    1 from traj    1 on state    2
C     -1.837454     0.251008     0.074501
H     -0.227108     1.312382    -1.141835
H     -2.022999    -0.885630     0.779769
C     -0.873589     1.353056    -0.122326
H     -1.075978     2.402402     0.043342
H     -0.101715     0.812160     0.885315
6
Family_3 [H][C]C([H])([H])[H] | RMSD: 0.4200 | 20964.00 to state    1 from traj    1 on state    2
C     -1.825642     0.258327     0.073852
H     -0.266670     1.334909    -1.091800
H     -1.704857    -0.524107     0.756074
C     -0.915404     1.319357    -0.115468
H     -0.872635     2.442057    -0.029672
H     -0.226130     0.702786     0.858004
6
Family_3 [H][C]C([H])([H])[H] | RMSD: 0.5156 | 5784.00 to state    1 from traj    1 on state    2
C     -1.633801     0.170541     0.026941
H     -0.779395     0.595120    -1.019811
H     -2.628422    -0.072865     0.162374
C     -1.021976     1.429682     0.050018
H     -0.503508     1.898285    -0.717737
H     -0.175004     1.266535     0.654866
6
Family_3 [H][C]C([H])([H])[H] | RMSD: 0.3219 | 1484.00 to state    1 from traj    1 on state    2
C     -1.822597     0.169294     0.101479
H     -0.443103     0.864140    -0.852190
H     -2.192417    -0.983126     0.435811
C     -0.885609     1.468167    -0.116054
H     -0.705653     2.538867    -0.027325
H     -0.120435     0.823484     0.614097
6
Family_3 [H][C]C([H])([H])[H] | RMSD: 0.3385 | 10500.00 to state    1 from traj    1 on state    2
C     -1.798208     0.226380     0.160997
H     -0.300384     0.826814    -1.127317
H     -2.304253    -0.793050    -0.189240
C     -0.866285     1.390068    -0.081720
H     -1.250685     2.321082    -0.184123
H     -0.127149     1.138906     0.552758
6
Family_3 [H][C]C([H])([H])[H] | RMSD: 0.3601 | 3652.00 to state    1 from traj    1 on state    2
C     -1.742885     0.286814     0.065601
H     -0.313183     0.873939    -1.228338
H     -2.031895    -0.566239     0.617050
C     -0.933298     1.330492    -0.084666
H     -1.073740     2.324522     0.208149
H     -0.424355     0.851296     0.627029
6
Family_3 [H][C]C([H])([H])[H] | RMSD: 0.3752 | 5988.00 to state    1 from traj    1 on state    2
C     -1.890453     0.151844     0.111748
H     -0.247092     1.437495    -0.973775
H     -1.975756    -0.784532     0.680417
C     -0.857648     1.432632    -0.164869
H     -0.738687     2.385407     0.045544
H     -0.024695     0.836354     0.877505
6
Family_3 [H][C]C([H])([H])[H] | RMSD: 0.3513 | 6700.00 to state    1 from traj    1 on state    2
C     -1.814862     0.222932     0.058019
H     -0.302364     0.938666    -1.149615
H     -2.108155    -0.786409     0.693575
C     -0.875207     1.391389    -0.077832
H     -1.104440     2.512517    -0.010071
H     -0.162758     0.854323     0.698912
6
Family_3 [H][C]C([H])([H])[H] | RMSD: 0.4512 | 5540.00 to state    1 from traj    1 on state    2
C     -1.880749     0.143418     0.132415
H     -0.283875     1.849750    -1.054799
H     -2.387519    -0.703509     0.476054
C     -0.796161     1.354118    -0.120871
H     -0.912869     2.544223    -0.421370
H     -0.250252     1.220212     0.859275
6
Family_3 [H][C]C([H])([H])[H] | RMSD: 0.5051 | 9192.00 to state    1 from traj    1 on state    2
C     -1.765546     0.182389     0.094597
H     -0.565414     1.070551    -1.104618
H     -2.578267    -0.494620     0.301017
C     -0.792145     1.419532    -0.065306
H     -1.645730     2.090731    -0.343800
H     -0.465674     1.000186     0.795099
6
Family_3 [H][C]C([H])([H])[H] | RMSD: 0.4248 | 4508.00 to state    1 from traj    1 on state    2
C     -1.842440     0.165951     0.065645
H     -0.388580     0.977140    -1.082580
H     -2.351411    -0.615663     0.506938
C     -0.803591     1.392047    -0.049597
H     -1.375541     2.669398    -0.256538
H     -0.086926     1.159348     0.637676
6
Family_3 [H][C]C([H])([H])[H] | RMSD: 0.4753 | 26308.00 to state    1 from traj    1 on state    2
C     -1.853664     0.172880     0.107867
H     -0.333922     0.918687    -1.016357
H     -2.315347    -0.877256     0.445473
C     -0.865642     1.402356    -0.159456
H     -0.868440     2.491861     0.558173
H      0.188380     1.451521     0.624154
6
Family_3 [H][C]C([H])([H])[H] | RMSD: 0.4212 | 3080.00 to state    1 from traj    1 on state    2
C     -1.838179     0.099879     0.175926
H     -0.293420     1.029447    -1.076041
H     -2.585529    -0.738842     0.155342
C     -0.787052     1.512857    -0.178957
H     -1.288424     2.124841     0.336549
H     -0.282928     1.122534     0.616993
6
Family_3 [H][C]C([H])([H])[H] | RMSD: 0.3415 | 4860.00 to state    1 from traj    1 on state    2
C     -1.859469     0.156517     0.087454
H     -0.263285     1.344016    -0.979670
H     -2.257810    -0.715420     0.533617
C     -0.875699     1.403840    -0.091699
H     -0.842602     2.492263    -0.361276
H      0.223356     1.041256     0.854628
6
Family_3 [H][C]C([H])([H])[H] | RMSD: 0.4059 | 7236.00 to state    1 from traj    1 on state    2
C     -1.882223     0.092078     0.142188
H     -0.452318     0.956217    -1.163490
H     -2.468413    -0.803997     0.177401
C     -0.745249     1.503460    -0.129450
H     -1.332364     2.289041     0.092830
H     -0.170507     1.301640     0.738189
6
Family_3 [H][C]C([H])([H])[H] | RMSD: 0.4582 | 7408.00 to state    1 from traj    1 on state    2
C     -1.882731     0.088733     0.109229
H     -0.708538     0.826810    -0.897097
H     -2.292906    -0.883445     0.433382
C     -0.759305     1.526423    -0.162785
H     -1.117789     2.548199     0.217392
H     -0.130836     1.017585     0.881193
6
Family_3 [H][C]C([H])([H])[H] | RMSD: 0.4634 | 8760.00 to state    2 from traj    4 on state    1
C     -1.816012     0.231053     0.124612
H     -0.724162     0.789081    -0.965233
H     -2.035080    -0.606733    -0.254175
C     -0.869929     1.309792    -0.037186
H     -0.846913     2.664304    -0.402742
H     -0.120753     1.547967     0.577134
6
Family_3 [H][C]C([H])([H])[H] | RMSD: 0.4028 | 12324.00 to state    1 from traj    6 on state    2
C     -1.803710     0.245652     0.098771
H     -0.086760     1.332936    -1.160338
H     -2.163758    -0.534515     0.578450
C     -0.868361     1.336888    -0.101219
H     -1.393107     2.263080    -0.067409
H     -0.248559     0.836288     0.675185
6
Family_3 [H][C]C([H])([H])[H] | RMSD: 0.3546 | 16316.00 to state    1 from traj    1 on state    2
C     -1.781213     0.294107     0.117963
H     -0.208184     1.140667    -1.012605
H     -1.948063    -0.870550    -0.026621
C     -0.965300     1.344567     0.001600
H     -0.745121     2.083081    -0.885513
H     -0.103787     0.875712     0.496784
6
Family_3 [H][C]C([H])([H])[H] | RMSD: 0.3305 | 17216.00 to state    1 from traj    1 on state    2
C     -1.854144     0.181333     0.086305
H     -0.550919     1.240547    -1.209505
H     -2.117727    -0.911700     0.583786
C     -0.835114     1.403200    -0.114359
H     -0.746052     2.397948    -0.026801
H     -0.272686     1.147242     0.983522
6
Family_3 [H][C]C([H])([H])[H] | RMSD: 0.3338 | 10420.00 to state    1 from traj    1 on state    2
C     -1.800926     0.186872     0.090917
H     -0.319199     1.168202    -1.100123
H     -2.481757    -0.533400     0.377077
C     -0.881698     1.338746    -0.075965
H     -0.978385     2.525321    -0.117962
H      0.012918     1.415936     0.659558
6
Family_3 [H][C]C([H])([H])[H] | RMSD: 0.3618 | 1224.00 to state    1 from traj    1 on state    2
C     -1.758814     0.181183     0.176045
H     -0.393500     0.885435    -1.030207
H     -2.424082    -0.570271    -0.013196
C     -0.939085     1.391759    -0.186277
H     -0.658764     2.519333     0.434410
H     -0.108070     1.177648     0.727632
6
Family_3 [H][C]C([H])([H])[H] | RMSD: 0.3765 | 7864.00 to state    1 from traj    1 on state    2
C     -1.809387     0.147408     0.171156
H     -0.310987     1.138938    -0.884823
H     -2.543302    -0.585123     0.030613
C     -0.891565     1.403816    -0.177844
H     -0.913231     2.512657     0.134222
H      0.219487     1.204461     0.796402
6
Family_3 [H][C]C([H])([H])[H] | RMSD: 0.3241 | 11280.00 to state    1 from traj    1 on state    2
C     -1.826428     0.212402     0.070664
H     -0.213548     1.117546    -0.928230
H     -1.951178    -0.626113     0.659253
C     -0.905569     1.400156    -0.087067
H     -0.939167     2.203068    -0.073283
H     -0.074215     0.845607     0.534440
6
Family_3 [H][C]C([H])([H])[H] | RMSD: 0.3825 | 3244.00 to state    1 from traj    1 on state    2
C     -1.740784     0.251868     0.043453
H     -0.231801     1.008955    -1.271591
H     -2.466416    -0.425577     0.522600
C     -0.957211     1.271544    -0.019311
H     -0.856526     2.401096    -0.010994
H     -0.028526     1.617855     0.469032
6
Family_3 [H][C]C([H])([H])[H] | RMSD: 0.4091 | 4576.00 to state    1 from traj    1 on state    2
C     -1.730644     0.205334     0.045377
H     -0.651983     0.871001    -0.834492
H     -2.511384    -0.483164     0.394189
C     -0.896001     1.400824    -0.029902
H     -1.203101     2.239486    -0.487294
H     -0.066981     0.989044     0.739921
6
Family_3 [H][C]C([H])([H])[H] | RMSD: 0.4810 | 5796.00 to state    1 from traj    1 on state    2
C     -1.909832     0.078020     0.102123
H     -0.447199     1.126634    -1.057957
H     -2.475264    -0.970065     0.531666
C     -0.707666     1.548060    -0.118335
H     -1.513916     2.242361    -0.156105
H     -0.106067     0.980045     0.872297
6
Family_3 [H][C]C([H])([H])[H] | RMSD: 0.4521 | 11780.00 to state    1 from traj    1 on state    2
C     -1.865097     0.160189     0.128328
H     -0.504314     1.301069    -1.130400
H     -2.003404    -0.763211     0.559644
C     -0.772157     1.425448    -0.155998
H     -1.052142     2.550605     0.061384
H     -0.747194     0.772416     0.835795
6
Family_3 [H][C]C([H])([H])[H] | RMSD: 0.2458 | 7720.00 to state    1 from traj    1 on state    2
C     -1.804049     0.208489     0.069030
H     -0.439039     1.042022    -1.310052
H     -2.309449    -0.956473     0.484428
C     -0.889341     1.393088    -0.050812
H     -0.697575     2.327380    -0.197846
H     -0.192074     1.258029     0.803104
6
Family_3 [H][C]C([H])([H])[H] | RMSD: 0.3332 | 9764.00 to state    1 from traj    1 on state    2
C     -1.832095     0.157190     0.073758
H     -0.376816     0.980811    -0.880898
H     -2.270480    -0.662604     0.475960
C     -0.884260     1.399013    -0.064785
H     -0.723808     2.592913    -0.131103
H      0.006600     1.300496     0.425838
6
Family_3 [H][C]C([H])([H])[H] | RMSD: 0.4119 | 3720.00 to state    1 from traj    1 on state    2
C     -1.727300     0.221870     0.004636
H     -0.730369     0.870449    -0.842486
H     -2.433726    -0.447719     0.597994
C     -0.942830     1.345756    -0.020523
H     -0.777550     2.233638    -0.221954
H      0.026344     1.419125     0.652465
6
Family_3 [H][C]C([H])([H])[H] | RMSD: 0.4115 | 7684.00 to state    1 from traj    1 on state    2
C     -1.785575     0.287402     0.081982
H     -0.365775     1.482979    -0.975062
H     -2.209182    -0.755751     0.721497
C     -0.882978     1.264464    -0.133810
H     -1.042224     2.511422     0.094131
H     -0.316917     1.024636     0.773723
6
Family_3 [H][C]C([H])([H])[H] | RMSD: 0.4412 | 10924.00 to state    1 from traj    1 on state    2
C     -1.876478     0.198721     0.121634
H     -0.092349     1.445181    -1.167583
H     -1.897603    -0.672819     0.691017
C     -0.866000     1.356672    -0.170812
H     -0.776038     2.296784     0.463655
H     -0.287228     1.152119     0.595614
6
Family_3 [H][C]C([H])([H])[H] | RMSD: 0.3336 | 5824.00 to state    1 from traj    1 on state    2
C     -1.752355     0.200013     0.204386
H     -0.188670     1.385145    -1.179617
H     -2.471883    -0.461974    -0.036365
C     -0.898211     1.353620    -0.161178
H     -0.998577     2.491828    -0.115297
H     -0.489292     0.827228     0.813144
6
Family_3 [H][C]C([H])([H])[H] | RMSD: 0.5281 | 9160.00 to state    1 from traj    1 on state    2
C     -1.718010     0.137508     0.264279
H     -0.224576     1.416144    -1.221549
H     -2.584639    -0.019691    -0.315925
C     -0.910307     1.377974    -0.210210
H     -0.899485     2.586261    -0.044093
H     -0.704834     0.714123     0.934021
6
Family_3 [H][C]C([H])([H])[H] | RMSD: 0.2706 | 8616.00 to state    1 from traj    1 on state    2
C     -1.786328     0.269784     0.090436
H     -0.214801     1.307802    -0.948345
H     -2.208250    -0.821425     0.359322
C     -0.976398     1.308294    -0.069926
H     -0.606331     2.282159    -0.326286
H      0.217424     1.182413     0.667630
6
Family_3 [H][C]C([H])([H])[H] | RMSD: 0.4042 | 4832.00 to state    1 from traj    1 on state    2
C     -1.830436     0.256464     0.145006
H     -0.413632     1.031175    -1.035872
H     -2.053587    -0.721900    -0.299815
C     -0.890273     1.301364    -0.037693
H     -0.907216     2.284959    -0.448938
H      0.061825     1.598016     0.502644
6
Family_3 [H][C]C([H])([H])[H] | RMSD: 0.4222 | 4984.00 to state    1 from traj    1 on state    2
C     -1.813697     0.299028     0.070725
H     -0.159817     1.271265    -1.253815
H     -1.544537    -0.464189     0.716229
C     -0.948801     1.275013    -0.088800
H     -0.764102     2.289950     0.094093
H     -0.346213     0.902028     0.655598
6
Family_3 [H][C]C([H])([H])[H] | RMSD: 0.3572 | 1660.00 to state    1 from traj    1 on state    2
C     -1.814797     0.253737     0.073195
H     -0.310402     1.128063    -1.112937
H     -2.109082    -0.806302     0.668187
C     -0.886044     1.341236    -0.118973
H     -1.059281     2.381293     0.210379
H     -0.070591     1.046578     0.776560
6
Family_3 [H][C]C([H])([H])[H] | RMSD: 0.2090 | 5752.00 to state    1 from traj    1 on state    2
C     -1.790473     0.217715     0.147624
H     -0.471399     0.928592    -1.053650
H     -2.079374    -0.703438    -0.067624
C     -0.930245     1.380183    -0.100277
H     -0.611462     2.361377    -0.154550
H     -0.150274     1.128254     0.708375
6
Family_3 [H][C]C([H])([H])[H] | RMSD: 0.4342 | 10200.00 to state    1 from traj    1 on state    2
C     -1.829198     0.199988     0.166700
H     -0.491376     0.607684    -0.871429
H     -1.950687    -0.667387    -0.385165
C     -0.875318     1.417660    -0.072252
H     -1.007150     2.435488    -0.309235
H     -0.056348     1.103671     0.437142
6
Family_3 [H][C]C([H])([H])[H] | RMSD: 0.4374 | 1360.00 to state    1 from traj    1 on state    2
C     -1.788031     0.276765     0.085335
H     -0.267546     1.029659    -1.057949
H     -1.680570    -0.680431     0.703235
C     -0.943296     1.357986    -0.126126
H     -0.744768     2.316981     0.266592
H     -0.493215     0.609444     0.570900
6
Family_3 [H][C]C([H])([H])[H] | RMSD: 0.3596 | 3736.00 to state    1 from traj    1 on state    2
C     -1.845733     0.234175     0.094705
H     -0.203792     1.460532    -1.270722
H     -2.116117    -0.594874     0.522137
C     -0.862324     1.275980    -0.086650
H     -0.966875     2.483172    -0.048655
H     -0.176598     1.411477     0.697980
6
Family_3 [H][C]C([H])([H])[H] | RMSD: 0.3494 | 4028.00 to state    1 from traj    1 on state    2
C     -1.787039     0.246480     0.093468
H     -0.391836     1.181622    -1.357640
H     -2.351755    -0.754511     0.423181
C     -0.908157     1.288245    -0.103467
H     -0.756450     2.592515     0.137236
H     -0.116585     1.447905     0.913087
6
Family_3 [H][C]C([H])([H])[H] | RMSD: 0.3694 | 4104.00 to state    1 from traj    1 on state    2
C     -1.830039     0.215520     0.105927
H     -0.231111     1.264916    -1.012278
H     -2.162808    -0.852414     0.635870
C     -0.857233     1.401490    -0.149795
H     -1.125450     2.257355     0.163668
H     -0.191674     0.817193     0.732172
6
Family_3 [H][C]C([H])([H])[H] | RMSD: 0.3045 | 4372.00 to state    1 from traj    1 on state    2
C     -1.805050     0.170065     0.181151
H     -0.269152     0.960442    -0.743785
H     -2.271457    -0.737571    -0.131734
C     -0.915239     1.435156    -0.127925
H     -0.703755     2.373651    -0.110767
H     -0.073267     1.031003     0.348776
6
Family_3 [H][C]C([H])([H])[H] | RMSD: 0.5391 | 5100.00 to state    1 from traj    1 on state    2
C     -1.654501     0.197257     0.218265
H     -0.235056     1.305314    -1.195655
H     -2.673940     0.057551    -0.016422
C     -0.972116     1.339198    -0.235912
H     -0.990438     2.334944     0.419304
H     -0.534360     0.749111     0.999773
6
Family_3 [H][C]C([H])([H])[H] | RMSD: 0.3183 | 7932.00 to state    1 from traj    1 on state    2
C     -1.811139     0.148483     0.157511
H     -0.218667     0.936857    -1.011909
H     -2.467205    -0.643441     0.062588
C     -0.890502     1.431253    -0.137816
H     -0.909111     2.372967     0.184446
H      0.055155     1.264813     0.526911
6
Family_3 [H][C]C([H])([H])[H] | RMSD: 0.6200 | 1164.00 to state    1 from traj    1 on state    2
C     -1.827272     0.267149     0.153970
H     -0.494431     1.205602    -1.177736
H     -1.301042    -0.818320     0.406219
C     -0.944353     1.384198    -0.207272
H     -0.185850     1.951651     0.541518
H     -0.724610     0.738969     0.861849
6
Family_3 [H][C]C([H])([H])[H] | RMSD: 0.5256 | 1288.00 to state    2 from traj    2 on state    1
C     -1.860879     0.217885     0.138803
H     -0.263080     1.338380    -1.047972
H     -1.401607    -0.568216     0.540659
C     -0.921391     1.386993    -0.180588
H     -0.379739     2.017489     0.408251
H     -0.534657     0.843963     0.593677
6
Family_3 [H][C]C([H])([H])[H] | RMSD: 0.4857 | 1340.00 to state    1 from traj    1 on state    2
C     -1.853693     0.215667     0.126624
H     -0.181907     1.403855    -0.996546
H     -1.554344    -0.533952     0.651197
C     -0.917284     1.373271    -0.174936
H     -0.520696     2.143844     0.355455
H     -0.456698     0.807798     0.562277
6
Family_3 [H][C]C([H])([H])[H] | RMSD: 0.4774 | 7460.00 to state    1 from traj    1 on state    2
C     -1.905391     0.084135     0.189909
H      0.114225     1.679281    -1.138742
H     -2.671890    -0.763446     0.225993
C     -0.807649     1.420559    -0.162251
H     -0.947926     2.448181    -0.011340
H      0.101590     1.461359     0.591243
6
Family_3 [H][C]C([H])([H])[H] | RMSD: 0.3093 | 8624.00 to state    1 from traj    1 on state    2
C     -1.776766     0.286002     0.158962
H     -0.219426     1.119480    -0.955376
H     -2.214965    -0.781052    -0.220568
C     -0.941457     1.290927    -0.059257
H     -0.856648     2.316579    -0.392519
H     -0.051202     1.309643     0.377124
6
Family_3 [H][C]C([H])([H])[H] | RMSD: 0.3858 | 10072.00 to state    1 from traj    1 on state    2
C     -1.724611     0.324276     0.129929
H     -0.302650     1.098732    -1.286133
H     -2.455749    -0.773315    -0.052870
C     -0.904859     1.281363    -0.050066
H     -1.444173     2.267687    -0.455746
H     -0.197221     1.029450     0.839852
6
Family_3 [H][C]C([H])([H])[H] | RMSD: 0.5112 | 9804.00 to state    1 from traj    1 on state    2
C     -1.829314     0.189416     0.073225
H     -0.129842     1.302958    -0.698644
H     -2.255235    -0.594631     0.696334
C     -0.839574     1.401100    -0.068733
H     -1.402668     2.395653    -0.406785
H     -0.142363     0.698775     0.352285
6
Family_3 [H][C]C([H])([H])[H] | RMSD: 0.5253 | 11904.00 to state    1 from traj    1 on state    2
C     -1.725647     0.295470     0.140531
H     -0.777600     0.585200    -0.892462
H     -2.164458    -0.558027    -0.297166
C     -0.884446     1.330995    -0.094492
H     -1.456681     2.400418    -0.165138
H     -0.231944     0.946802     0.802905
6
Family_3 [H][C]C([H])([H])[H] | RMSD: 0.5615 | 14600.00 to state    1 from traj    1 on state    2
C     -1.794058     0.312157     0.170747
H     -0.580551     0.746208    -1.129845
H     -1.974715    -0.749888    -0.309077
C     -0.930105     1.253626    -0.167322
H     -0.860670     2.442938     0.568824
H      0.144480     1.658198     0.826004
6
Family_3 [H][C]C([H])([H])[H] | RMSD: 0.4157 | 7384.00 to state    1 from traj    1 on state    2
C     -1.813490     0.257337     0.152522
H     -0.496335     0.833823    -1.147847
H     -2.093199    -0.666289    -0.303629
C     -0.879784     1.302763    -0.076780
H     -1.034129     2.407642    -0.076438
H     -0.015863     1.590003     0.622107
6
Family_3 [H][C]C([H])([H])[H] | RMSD: 0.4043 | 6012.00 to state    1 from traj    1 on state    2
C     -1.705188     0.179616     0.007993
H     -0.689918     0.741547    -1.151540
H     -2.598557    -0.346222     0.554045
C     -0.925400     1.387079     0.017859
H     -0.837163     2.417868    -0.426575
H     -0.260841     1.273387     0.712737
6
Family_3 [H][C]C([H])([H])[H] | RMSD: 0.5418 | 7720.00 to state    1 from traj    1 on state    2
C     -1.804412     0.286663     0.066427
H     -0.176931     0.984159    -0.972396
H     -1.622051    -0.492376     0.810277
C     -0.921086     1.333036    -0.124282
H     -1.112204     2.268175     0.428202
H     -0.344369     0.695062     0.420010
6
Family_3 [H][C]C([H])([H])[H] | RMSD: 0.3818 | 4908.00 to state    1 from traj    1 on state    2
C     -1.845051     0.154018     0.174587
H     -0.485975     0.853599    -1.055614
H     -2.365508    -0.894583    -0.128921
C     -0.833653     1.426397    -0.145183
H     -0.917290     2.656827     0.100340
H     -0.044367     1.307262     0.730552
6
Family_3 [H][C]C([H])([H])[H] | RMSD: 0.4093 | 17880.00 to state    1 from traj    1 on state    2
C     -1.742340     0.319201     0.138236
H     -0.138405     0.857554    -1.279813
H     -2.302316    -0.642074    -0.108445
C     -0.918705     1.292497    -0.060498
H     -1.528746     2.229074    -0.139208
H     -0.054096     1.105805     0.597882
6
Family_3 [H][C]C([H])([H])[H] | RMSD: 0.3942 | 6788.00 to state    1 from traj    1 on state    2
C     -1.871084     0.135482     0.175039
H     -0.143193     0.967785    -1.365086
H     -2.467442    -0.879797    -0.052136
C     -0.823769     1.431924    -0.118786
H     -1.099939     2.706411    -0.030594
H      0.089864     1.283713     0.774243
6
Family_3 [H][C]C([H])([H])[H] | RMSD: 0.3333 | 11784.00 to state    1 from traj    1 on state    2
C     -1.721419     0.292261     0.147673
H     -0.569349     1.080840    -1.339844
H     -2.334139    -0.577749    -0.151345
C     -0.918819     1.259939    -0.084685
H     -0.937698     2.450298    -0.197806
H     -0.430305     1.305920     0.935163
6
Family_3 [H][C]C([H])([H])[H] | RMSD: 0.3672 | 3704.00 to state    1 from traj    1 on state    2
C     -1.763134     0.217563     0.123124
H     -0.378290     1.027278    -1.363126
H     -2.526621    -0.563405     0.118125
C     -0.899480     1.299344    -0.081513
H     -0.893034     2.761820    -0.037982
H     -0.206916     1.454154     0.783887
6
Family_3 [H][C]C([H])([H])[H] | RMSD: 0.3573 | 6784.00 to state    1 from traj    1 on state    2
C     -1.699086     0.203011     0.181079
H     -0.448565     0.844966    -1.062956
H     -2.450093    -0.471629    -0.037778
C     -0.958055     1.399378    -0.180706
H     -0.697571     2.343396     0.393811
H     -0.473845     0.944540     0.699187
6
Family_3 [H][C]C([H])([H])[H] | RMSD: 0.3928 | 2456.00 to state    1 from traj    1 on state    2
C     -1.715153     0.258803     0.178603
H     -0.115288     1.410658    -0.887268
H     -2.609325    -0.373901    -0.045981
C     -0.964184     1.288007    -0.151422
H     -1.143620     2.294849    -0.131538
H      0.062631     0.991922     0.737627
6
Family_3 [H][C]C([H])([H])[H] | RMSD: 0.4184 | 3484.00 to state    1 from traj    1 on state    2
C     -1.876403     0.178794     0.148931
H     -0.391334     1.005858    -1.301558
H     -2.281888    -0.937621    -0.234870
C     -0.819712     1.389122    -0.039129
H     -0.961728     2.307325    -0.416908
H      0.029274     1.696473     0.641689
6
Family_3 [H][C]C([H])([H])[H] | RMSD: 0.3895 | 3720.00 to state    1 from traj    1 on state    2
C     -1.793310     0.201932     0.092880
H     -0.056831     1.486696    -1.141918
H     -2.562617    -0.469145     0.482736
C     -0.913221     1.307995    -0.072868
H     -0.980940     2.371372    -0.239169
H      0.118821     1.374090     0.656609
6
Family_3 [H][C]C([H])([H])[H] | RMSD: 0.3834 | 6016.00 to state    1 from traj    1 on state    2
C     -1.799353     0.233544     0.115015
H     -0.456578     0.849550    -1.241711
H     -2.296234    -0.638211     0.005217
C     -0.848269     1.338571    -0.056132
H     -1.339366     2.520617    -0.232556
H     -0.091323     1.290046     0.764138
6
Family_3 [H][C]C([H])([H])[H] | RMSD: 0.3796 | 5972.00 to state    1 from traj    1 on state    2
C     -1.825483     0.206517     0.107080
H     -0.079502     1.216798    -1.129312
H     -2.286853    -0.820987     0.650213
C     -0.881371     1.388108    -0.149277
H     -1.017423     2.312076     0.364285
H     -0.093930     1.045897     0.614334
6
Family_3 [H][C]C([H])([H])[H] | RMSD: 0.4650 | 7176.00 to state    1 from traj    1 on state    2
C     -1.848443     0.198969     0.152598
H     -0.572033     0.725636    -1.319441
H     -2.179889    -0.770825    -0.342429
C     -0.812881     1.383766    -0.059391
H     -1.233443     2.465802    -0.284247
H     -0.034871     1.474843     0.832212
6
Family_3 [H][C]C([H])([H])[H] | RMSD: 0.3778 | 3484.00 to state    1 from traj    1 on state    2
C     -1.727563     0.185281     0.166615
H     -0.515824     1.063938    -1.195892
H     -2.626446    -0.596816     0.062073
C     -0.867405     1.392225    -0.143719
H     -0.997549     2.536033     0.021878
H     -0.671089     0.954621     0.835840
6
Family_3 [H][C]C([H])([H])[H] | RMSD: 0.3392 | 4604.00 to state    1 from traj    1 on state    2
C     -1.794829     0.131073     0.151380
H     -0.569622     1.144151    -1.067334
H     -2.527122    -0.608007     0.140974
C     -0.817388     1.446088    -0.135682
H     -1.064045     2.443472    -0.160027
H     -0.444582     0.982274     0.896049
6
Family_3 [H][C]C([H])([H])[H] | RMSD: 0.4247 | 5724.00 to state    1 from traj    1 on state    2
C     -1.833668     0.221229     0.100320
H     -0.169860     1.130650    -1.313515
H     -2.432589    -0.804071     0.391657
C     -0.813920     1.344513    -0.073135
H     -1.459119     2.432557    -0.022773
H     -0.122343     1.338818     0.617427
6
Family_3 [H][C]C([H])([H])[H] | RMSD: 0.3068 | 6916.00 to state    1 from traj    1 on state    2
C     -1.814672     0.189618     0.113063
H     -0.243005     1.229746    -0.956396
H     -2.290642    -0.564105     0.387722
C     -0.916516     1.351060    -0.125604
H     -0.798099     2.581852    -0.009648
H      0.143991     1.149107     0.724478
6
Family_3 [H][C]C([H])([H])[H] | RMSD: 0.4845 | 1708.00 to state    1 from traj    1 on state    2
C     -1.831855     0.197713     0.151060
H     -0.402222     0.483860    -0.936907
H     -2.195854    -0.843489    -0.325040
C     -0.880249     1.423612    -0.071606
H     -1.086372     2.497600    -0.143758
H      0.269288     1.297662     0.455676
6
Family_3 [H][C]C([H])([H])[H] | RMSD: 0.4696 | 4780.00 to state    1 from traj    1 on state    2
C     -1.776073     0.289603     0.117992
H     -0.590219     0.851074    -0.979646
H     -2.145758    -0.733636    -0.178476
C     -0.864047     1.322934    -0.029795
H     -1.434713     2.434334    -0.662360
H     -0.102194     0.988579     0.766284
6
Family_3 [H][C]C([H])([H])[H] | RMSD: 0.3514 | 2268.00 to state    1 from traj    1 on state    2
C     -1.742970     0.175256     0.038834
H     -0.593744     0.752334    -0.814717
H     -2.386297    -0.481924     0.519444
C     -0.931503     1.415945    -0.033965
H     -0.738515     2.458083    -0.267856
H     -0.144996     1.066085     0.501828
6
Family_3 [H][C]C([H])([H])[H] | RMSD: 0.3043 | 3424.00 to state    1 from traj    1 on state    2
C     -1.826081     0.210128     0.109022
H     -0.190537     1.257978    -1.247414
H     -2.243394    -0.803582     0.521580
C     -0.896803     1.343874    -0.123707
H     -0.729559     2.566366     0.160362
H     -0.123208     1.217078     0.737165
6
Family_3 [H][C]C([H])([H])[H] | RMSD: 0.4287 | 8476.00 to state    1 from traj    1 on state    2
C     -1.796142     0.247492     0.072726
H     -0.138992     0.897920    -1.031670
H     -2.160674    -0.603044     0.577855
C     -0.933278     1.350228    -0.111046
H     -1.101499     2.231557     0.405535
H      0.192349     1.190476     0.501607
6
Family_3 [H][C]C([H])([H])[H] | RMSD: 0.3506 | 10264.00 to state    1 from traj    1 on state    2
C     -1.850814     0.190791     0.133295
H     -0.103394     1.512404    -1.217317
H     -2.104257    -0.623093     0.558152
C     -0.876989     1.351448    -0.161176
H     -0.792351     2.369495     0.232373
H     -0.228086     1.119188     0.755727
6
Family_3 [H][C]C([H])([H])[H] | RMSD: 0.3505 | 2084.00 to state    1 from traj    1 on state    2
C     -1.808060     0.219618     0.085427
H     -0.527867     0.938139    -1.042553
H     -2.100351    -0.676981     0.463765
C     -0.896352     1.371072    -0.133806
H     -0.907685     2.433273     0.238640
H      0.029092     1.106250     0.913339
6
Family_3 [H][C]C([H])([H])[H] | RMSD: 0.3604 | 2536.00 to state    1 from traj    1 on state    2
C     -1.778181     0.252418     0.105791
H     -0.494625     1.065938    -1.244199
H     -2.345280    -0.623938     0.022589
C     -0.859942     1.322057    -0.033753
H     -1.279479     2.186585    -0.435065
H     -0.177312     1.365312     0.795002
6
Family_3 [H][C]C([H])([H])[H] | RMSD: 0.4408 | 7816.00 to state    1 from traj    1 on state    2
C     -1.822164     0.191207     0.163028
H     -0.405248     0.890725    -1.183343
H     -2.427466    -0.776905    -0.030752
C     -0.797903     1.393250    -0.130694
H     -1.447309     2.593539     0.086929
H     -0.231818     1.167580     0.738600
6
Family_3 [H][C]C([H])([H])[H] | RMSD: 0.4544 | 8992.00 to state    1 from traj    1 on state    2
C     -1.830782     0.207823     0.111323
H     -0.211156     0.980703    -1.004691
H     -2.039117    -0.822436     0.640196
C     -0.860628     1.431224    -0.169673
H     -1.126593     2.298548     0.505427
H     -0.284877     0.767644     0.551074
6
Family_3 [H][C]C([H])([H])[H] | RMSD: 0.4234 | 12240.00 to state    1 from traj    1 on state    2
C     -1.836723     0.200940     0.087089
H     -0.041818     0.869878    -1.050150
H     -2.015534    -0.673561     0.636256
C     -0.918226     1.417602    -0.127748
H     -1.008124     2.386522     0.368646
H      0.160853     0.885956     0.526449
6
Family_3 [H][C]C([H])([H])[H] | RMSD: 0.4876 | 4500.00 to state    1 from traj    1 on state    2
C     -1.863438     0.221966     0.097489
H     -0.169424     1.198275    -1.081318
H     -1.749787    -0.749428     0.812011
C     -0.866220     1.391895    -0.168298
H     -0.979942     2.329981     0.459055
H     -0.306835     0.745756     0.650702
6
Family_3 [H][C]C([H])([H])[H] | RMSD: 0.5072 | 1964.00 to state    1 from traj    1 on state    2
C     -1.670825     0.249462     0.174200
H     -0.332542     1.080135    -1.193125
H     -2.571871    -0.135720    -0.014948
C     -0.909032     1.315771    -0.148639
H     -1.449944     2.323127     0.131682
H     -0.636612     0.836460     0.768530
6
Family_3 [H][C]C([H])([H])[H] | RMSD: 0.5004 | 3260.00 to state    1 from traj    1 on state    2
C     -1.703707     0.278904     0.015234
H     -0.852352     0.727994    -0.916632
H     -2.316242    -0.385458     0.588340
C     -0.910686     1.308390    -0.070147
H     -1.240096     2.279168     0.142966
H     -0.170754     1.219439     0.836374
6
Family_3 [H][C]C([H])([H])[H] | RMSD: 0.4504 | 3608.00 to state    2 from traj    3 on state    1
C     -1.822923     0.211297     0.126332
H     -0.031834     1.299266    -0.896907
H     -1.985947    -0.662823     0.681316
C     -0.952340     1.384374    -0.204857
H     -0.659362     2.352972     0.503462
H      0.014570     0.751912     0.644525
6
Family_3 [H][C]C([H])([H])[H] | RMSD: 0.3446 | 7080.00 to state    1 from traj    1 on state    2
C     -1.801559     0.216501     0.058784
H     -0.143482     0.993510    -1.113585
H     -2.369497    -0.663486     0.564108
C     -0.895467     1.361137    -0.042252
H     -1.158268     2.448264    -0.144827
H      0.076420     1.177912     0.494033
6
Family_3 [H][C]C([H])([H])[H] | RMSD: 0.3968 | 8604.00 to state    1 from traj    1 on state    2
C     -1.704183     0.235684     0.157743
H     -0.374640     1.159390    -1.047376
H     -2.630429    -0.392684     0.021214
C     -0.916293     1.348200    -0.146074
H     -1.319022     2.227710    -0.057672
H     -0.182869     0.887351     0.941511
6
Family_3 [H][C]C([H])([H])[H] | RMSD: 0.4646 | 10364.00 to state    1 from traj    1 on state    2
C     -1.785005     0.170240     0.014063
H     -0.075270     0.866701    -0.917173
H     -2.376370    -0.617355     0.581044
C     -0.948993     1.450138     0.076686
H     -0.825937     2.114306    -0.836697
H      0.123293     1.083279     0.088207
6
Family_3 [H][C]C([H])([H])[H] | RMSD: 0.2894 | 3120.00 to state    1 from traj    1 on state    2
C     -1.792695     0.213102     0.128602
H     -0.473681     0.981806    -0.992995
H     -2.413761    -0.960411     0.052038
C     -0.861394     1.404875    -0.075445
H     -1.034816     2.388995    -0.365277
H     -0.184190     1.065146     0.669553
6
Family_3 [H][C]C([H])([H])[H] | RMSD: 0.3875 | 3376.00 to state    1 from traj    1 on state    2
C     -1.815653     0.216680     0.121709
H     -0.622228     1.040337    -1.099882
H     -2.308032    -0.786382    -0.054054
C     -0.811421     1.366573    -0.045658
H     -1.244362     2.324823    -0.517067
H     -0.253729     1.310519     0.761521
6
Family_3 [H][C]C([H])([H])[H] | RMSD: 0.4164 | 4208.00 to state    1 from traj    1 on state    2
C     -1.779247     0.291390     0.134601
H     -0.268332     1.059737    -1.113561
H     -2.377776    -0.784782     0.009779
C     -0.884867     1.313119    -0.103215
H     -1.492497     2.172153    -0.072111
H      0.151620     1.188902     0.798619
6
Family_3 [H][C]C([H])([H])[H] | RMSD: 0.4205 | 23792.00 to state    1 from traj    1 on state    2
C     -1.756579     0.221836     0.063422
H     -0.634381     1.206937    -1.183382
H     -2.512763    -0.440571     0.491180
C     -0.878390     1.300105    -0.088778
H     -1.035003     2.378327    -0.003976
H     -0.152116     1.475166     0.995038
6
Family_3 [H][C]C([H])([H])[H] | RMSD: 0.3787 | 7000.00 to state    1 from traj    1 on state    2
C     -1.826110     0.222614     0.064223
H     -0.169688     1.090107    -0.943556
H     -1.933657    -0.611923     0.696644
C     -0.907465     1.383876    -0.079917
H     -1.044281     2.450342    -0.172930
H     -0.011692     0.683886     0.603565
6
Family_3 [H][C]C([H])([H])[H] | RMSD: 0.2728 | 8412.00 to state    1 from traj    1 on state    2
C     -1.764418     0.178093     0.152443
H     -0.336644     1.235217    -1.135540
H     -2.611957    -0.628831     0.121723
C     -0.904693     1.370065    -0.126850
H     -0.791059     2.571033    -0.137412
H     -0.187785     1.130045     0.842997
6
Family_3 [H][C]C([H])([H])[H] | RMSD: 0.3445 | 18396.00 to state    1 from traj    1 on state    2
C     -1.790678     0.143348     0.062068
H     -0.597960     1.057559    -1.073428
H     -2.481232    -0.492841     0.407782
C     -0.873829     1.403691    -0.039352
H     -0.842412     2.523416    -0.485971
H     -0.060709     1.232667     0.877650
6
Family_3 [H][C]C([H])([H])[H] | RMSD: 0.4570 | 19392.00 to state    1 from traj    1 on state    2
C     -1.865606     0.121390     0.068541
H     -0.538405     1.350201    -1.187009
H     -2.582302    -0.819390     0.562862
C     -0.772899     1.398515    -0.053539
H     -1.005249     2.671974    -0.445701
H     -0.166181     1.441330     0.887808
6
Family_3 [H][C]C([H])([H])[H] | RMSD: 0.3549 | 20544.00 to state    1 from traj    1 on state    2
C     -1.819229     0.131130     0.094177
H     -0.147769     1.329418    -1.290865
H     -2.548625    -0.538638     0.380954
C     -0.853935     1.429769    -0.022863
H     -1.076920     2.246142    -0.674589
H     -0.105836     1.118736     0.731463
6
Family_3 [H][C]C([H])([H])[H] | RMSD: 0.6125 | 21208.00 to state    1 from traj    1 on state    2
C     -1.829138     0.279353     0.048312
H     -0.256018     1.384877    -1.146258
H     -1.480383    -0.361901     0.981347
C     -0.872942     1.317555    -0.096701
H     -1.210037     2.148766     0.005413
H     -0.588169     0.554837     0.732800
6
Family_3 [H][C]C([H])([H])[H] | RMSD: 0.4912 | 21388.00 to state    1 from traj    1 on state    2
C     -1.769573     0.292552     0.168448
H     -0.385286     0.595245    -0.879861
H     -1.976075    -0.563042    -0.366829
C     -0.938372     1.340983    -0.121649
H     -1.299289     2.237219     0.078679
H      0.195937     1.020722     0.607090
6
Family_3 [H][C]C([H])([H])[H] | RMSD: 0.3157 | 21748.00 to state    1 from traj    1 on state    2
C     -1.801576     0.170855     0.133271
H     -0.416802     1.083510    -0.890854
H     -2.404388    -0.652323     0.119214
C     -0.904311     1.368903    -0.106468
H     -0.605019     2.577551    -0.067408
H     -0.063030     1.398826     0.516391
6
Family_3 [H][C]C([H])([H])[H] | RMSD: 0.3972 | 1652.00 to state    1 from traj    1 on state    2
C     -1.896292     0.088906     0.094382
H     -0.350231     1.168338    -0.902887
H     -2.430023    -0.811636     0.401161
C     -0.818045     1.468956    -0.079009
H     -0.909787     2.608317    -0.418713
H      0.301494     1.226818     0.733981
6
Family_3 [H][C]C([H])([H])[H] | RMSD: 0.6122 | 6488.00 to state    1 from traj    1 on state    2
C     -1.768170     0.262480     0.039320
H     -0.733424     0.598644    -0.802967
H     -2.011234    -0.694971     0.703181
C     -0.853388     1.410540    -0.126999
H     -1.434969     2.065220     0.498305
H     -0.314438     0.850762     0.642949
6
Family_3 [H][C]C([H])([H])[H] | RMSD: 0.3855 | 1228.00 to state    1 from traj    1 on state    2
C     -1.760325     0.238663     0.028622
H     -0.442590     0.781827    -0.965806
H     -2.449308    -0.802727     0.638483
C     -0.917403     1.361644    -0.048295
H     -1.008597     2.508386    -0.017426
H      0.075726     1.198599     0.575888
6
Family_3 [H][C]C([H])([H])[H] | RMSD: 0.2990 | 3124.00 to state    1 from traj    1 on state    2
C     -1.784888     0.260649     0.090814
H     -0.266190     1.305548    -1.084286
H     -2.216160    -0.617763     0.529841
C     -0.898163     1.292286    -0.096025
H     -1.034638     2.487550    -0.055351
H     -0.244347     1.075218     0.668604
6
Family_3 [H][C]C([H])([H])[H] | RMSD: 0.4293 | 4264.00 to state    1 from traj    1 on state    2
C     -1.692243     0.209264     0.241024
H     -0.081957     1.346111    -0.919033
H     -2.581284    -0.260678    -0.181514
C     -0.972233     1.351839    -0.213821
H     -0.921833     2.458097     0.079506
H     -0.397606     0.609685     0.693618
6
Family_3 [H][C]C([H])([H])[H] | RMSD: 0.4972 | 5852.00 to state    1 from traj    1 on state    2
C     -1.820114     0.293536     0.127814
H     -0.439188     1.013109    -0.874012
H     -2.056709    -0.682540    -0.186520
C     -0.880781     1.299661    -0.070932
H     -1.432161     2.150383    -0.382306
H      0.379347     1.289858     0.761767
6
Family_3 [H][C]C([H])([H])[H] | RMSD: 0.5458 | 3532.00 to state    1 from traj    1 on state    2
C     -1.886101     0.193650     0.094940
H     -0.226723     1.206952    -1.060046
H     -1.479161    -0.546801     0.833098
C     -0.850852     1.409226    -0.150644
H     -0.883679     2.371504     0.306477
H     -0.529500     0.623817     0.580937
6
Family_3 [H][C]C([H])([H])[H] | RMSD: 0.3359 | 7496.00 to state    1 from traj    1 on state    2
C     -1.848091     0.167084     0.117755
H     -0.421763     1.224480    -1.060103
H     -2.266086    -0.656353     0.322400
C     -0.851430     1.352094    -0.114938
H     -0.743816     2.604370     0.046261
H     -0.133429     1.480290     0.654588
6
Family_3 [H][C]C([H])([H])[H] | RMSD: 0.3134 | 8496.00 to state    1 from traj    1 on state    2
C     -1.843647     0.141614     0.171603
H     -0.310142     1.035616    -0.813406
H     -2.408673    -0.971980    -0.002567
C     -0.869783     1.466037    -0.144969
H     -0.747496     2.382417    -0.032125
H      0.066960     1.152516     0.527449
6
Family_3 [H][C]C([H])([H])[H] | RMSD: 0.4745 | 3644.00 to state    1 from traj    1 on state    2
C     -1.818926     0.287020     0.087053
H     -0.339233     1.208574    -1.025379
H     -1.746789    -0.623324     0.715930
C     -0.907380     1.292659    -0.167538
H     -0.928153     2.348624     0.534870
H     -0.231758     0.998004     0.730339
6
Family_3 [H][C]C([H])([H])[H] | RMSD: 0.4600 | 13648.00 to state    1 from traj    1 on state    2
C     -1.847648     0.242873     0.097597
H     -0.307663     1.750439    -0.955645
H     -2.031450    -0.665076     0.730740
C     -0.869111     1.259474    -0.145421
H     -0.756110     2.576682     0.031093
H     -0.264473     1.191301     0.760388
6
Family_3 [H][C]C([H])([H])[H] | RMSD: 0.4278 | 15904.00 to state    1 from traj    1 on state    2
C     -1.815523     0.293116     0.125271
H     -0.377099     1.531725    -1.325679
H     -2.123387    -0.696405     0.068411
C     -0.839429     1.258863    -0.045904
H     -1.272564     2.066562    -0.562821
H     -0.323106     1.360056     0.871090
6
Family_3 [H][C]C([H])([H])[H] | RMSD: 0.3440 | 2972.00 to state    1 from traj    1 on state    2
C     -1.816349     0.156890     0.155907
H     -0.164522     1.092807    -0.977450
H     -2.570121    -0.714163     0.127831
C     -0.873645     1.407120    -0.136566
H     -1.021291     2.516742     0.066447
H      0.077323     1.223199     0.549422
6
Family_3 [H][C]C([H])([H])[H] | RMSD: 0.3566 | 3840.00 to state    1 from traj    1 on state    2
C     -1.791356     0.271520     0.089196
H     -0.402444     1.375323    -1.071508
H     -2.158897    -0.683706     0.556974
C     -0.870553     1.282561    -0.104435
H     -1.096356     2.562375    -0.125420
H     -0.355576     0.982902     0.818254
6
Family_3 [H][C]C([H])([H])[H] | RMSD: 0.4532 | 3692.00 to state    1 from traj    1 on state    2
C     -1.902295     0.118304     0.109243
H     -0.360334     1.099000    -0.910330
H     -1.644256    -0.676542     0.615959
C     -0.843649     1.477555    -0.121548
H     -0.530669     2.659519    -0.077344
H     -0.476676     0.657104     0.515051
6
Family_3 [H][C]C([H])([H])[H] | RMSD: 0.4010 | 6652.00 to state    1 from traj    1 on state    2
C     -1.881940     0.133541     0.117611
H     -0.216085     1.308171    -1.195657
H     -2.413797    -1.096324     0.634033
C     -0.788900     1.466715    -0.140517
H     -1.055265     2.557394     0.004428
H     -0.221694     0.917450     0.826856
6
Family_3 [H][C]C([H])([H])[H] | RMSD: 0.4268 | 8556.00 to state    1 from traj    1 on state    2
C     -1.789617     0.241671     0.062760
H     -0.445130     0.930419    -0.976455
H     -2.024501    -0.334820     0.537163
C     -0.878858     1.312757    -0.079203
H     -1.248654     2.602495     0.034726
H     -0.216736     1.034676     0.597216
6
Family_3 [H][C]C([H])([H])[H] | RMSD: 0.3989 | 3060.00 to state    1 from traj    1 on state    2
C     -1.768100     0.201289     0.045378
H     -0.421372     1.172193    -1.151322
H     -2.588910    -0.456568     0.421771
C     -0.890140     1.337507    -0.001683
H     -1.083446     2.202078    -0.506101
H      0.036750     1.501320     0.711709
6
Family_3 [H][C]C([H])([H])[H] | RMSD: 0.4232 | 8924.00 to state    1 from traj    1 on state    2
C     -1.816990     0.260467     0.070073
H     -0.208780     1.145439    -1.005737
H     -1.841349    -0.566292     0.738284
C     -0.895223     1.343963    -0.110773
H     -1.176969     2.306060     0.121960
H     -0.186762     0.751752     0.627174
6
Family_3 [H][C]C([H])([H])[H] | RMSD: 0.4896 | 6400.00 to state    1 from traj    1 on state    2
C     -1.818616     0.236535     0.136261
H     -0.499193     0.824619    -0.844220
H     -1.905873    -0.770442    -0.342874
C     -0.889537     1.394843     0.004857
H     -0.970962     2.294346    -0.965490
H     -0.086198     0.967331     0.467790
6
Family_3 [H][C]C([H])([H])[H] | RMSD: 0.2724 | 11708.00 to state    1 from traj    1 on state    2
C     -1.751759     0.238274     0.182388
H     -0.092845     1.178332    -0.969796
H     -2.311838    -0.503489    -0.096450
C     -0.954349     1.320692    -0.112113
H     -0.823579     2.496574    -0.166374
H     -0.258338     1.007271     0.391964
6
Family_3 [H][C]C([H])([H])[H] | RMSD: 0.4203 | 2824.00 to state    1 from traj    1 on state    2
C     -1.800955     0.224351     0.071271
H     -0.406310     1.260189    -1.151408
H     -2.425665    -0.556931     0.443640
C     -0.823116     1.319732    -0.043184
H     -1.432631     2.390340    -0.379069
H     -0.199530     1.262436     0.748878
6
Family_3 [H][C]C([H])([H])[H] | RMSD: 0.4132 | 7152.00 to state    1 from traj    1 on state    2
C     -1.857370     0.186393     0.158432
H     -0.547817     0.916242    -1.134392
H     -2.200266    -0.754378    -0.207684
C     -0.833948     1.370628    -0.110809
H     -0.980511     2.439596    -0.006124
H      0.065766     1.600400     0.777459
6
Family_3 [H][C]C([H])([H])[H] | RMSD: 0.3351 | 8644.00 to state    1 from traj    1 on state    2
C     -1.776399     0.220112     0.072161
H     -0.403379     0.843039    -0.966739
H     -2.165811    -0.687623     0.579009
C     -0.897068     1.401809    -0.092677
H     -1.000925     2.411341     0.097452
H     -0.305418     0.861783     0.531459
6
Family_3 [H][C]C([H])([H])[H] | RMSD: 0.3295 | 14052.00 to state    1 from traj    1 on state    2
C     -1.734934     0.208683     0.135125
H     -0.488861     0.804890    -1.227668
H     -2.518723    -0.671792     0.103570
C     -0.884982     1.395645    -0.111423
H     -1.053819     2.442757     0.099157
H     -0.452236     1.062319     0.739231
6
Family_3 [H][C]C([H])([H])[H] | RMSD: 0.2539 | 16792.00 to state    1 from traj    1 on state    2
C     -1.761229     0.200947     0.176994
H     -0.336914     1.165680    -0.956448
H     -2.368956    -0.456755    -0.064654
C     -0.929354     1.361053    -0.151783
H     -0.837467     2.375731    -0.021116
H     -0.128249     1.057885     0.738526
6
Family_3 [H][C]C([H])([H])[H] | RMSD: 0.3393 | 1480.00 to state    1 from traj    1 on state    2
C     -1.791024     0.252179     0.059320
H     -0.525420     0.963420    -1.067778
H     -2.041002    -0.744098     0.622578
C     -0.895517     1.336388    -0.090297
H     -0.860482     2.562761     0.089902
H     -0.292856     1.043884     0.721123
6
Family_3 [H][C]C([H])([H])[H] | RMSD: 0.4053 | 9436.00 to state    1 from traj    1 on state    2
C     -1.831330     0.202299     0.153567
H     -0.642958     0.750957    -0.883306
H     -1.962578    -0.940295    -0.283025
C     -0.872021     1.429331    -0.062043
H     -0.735008     2.496473    -0.549552
H     -0.178906     1.005703     0.622034
6
Family_3 [H][C]C([H])([H])[H] | RMSD: 0.3875 | 11952.00 to state    1 from traj    1 on state    2
C     -1.760318     0.279958     0.148666
H     -0.675095     0.829554    -0.877225
H     -1.971865    -0.570933    -0.218091
C     -0.916454     1.299610    -0.096350
H     -0.820290     2.374245    -0.038358
H     -0.368908     1.300328     0.507005
6
Family_3 [H][C]C([H])([H])[H] | RMSD: 0.2605 | 1452.00 to state    1 from traj    1 on state    2
C     -1.723234     0.252400     0.132877
H     -0.523962     0.889167    -0.874774
H     -2.312694    -0.606331    -0.013244
C     -0.938749     1.356779    -0.095501
H     -0.906275     2.294841    -0.156802
H     -0.269450     1.002684     0.596183
6
Family_3 [H][C]C([H])([H])[H] | RMSD: 0.3728 | 2988.00 to state    1 from traj    1 on state    2
C     -1.848575     0.140286     0.166807
H     -0.338187     1.026406    -1.253788
H     -2.516742    -0.853244     0.015179
C     -0.783138     1.451248    -0.125521
H     -1.301338     2.385013    -0.011115
H     -0.216798     1.232438     0.754490
6
Family_3 [H][C]C([H])([H])[H] | RMSD: 0.3066 | 2220.00 to state    1 from traj    1 on state    2
C     -1.774540     0.284624     0.086160
H     -0.183082     1.253784    -0.924671
H     -1.911562    -0.620683     0.605089
C     -0.974336     1.316467    -0.109154
H     -0.726755     2.224885     0.022192
H     -0.155589     0.818746     0.568096
6
Family_3 [H][C]C([H])([H])[H] | RMSD: 0.4543 | 3424.00 to state    1 from traj    1 on state    2
C     -1.788811     0.273696     0.167722
H     -0.447670     0.893349    -1.078230
H     -2.295917    -0.733374    -0.274188
C     -0.870666     1.291795    -0.114496
H     -1.332712     2.718250    -0.102296
H      0.034056     1.222716     0.817210
6
Family_3 [H][C]C([H])([H])[H] | RMSD: 0.3772 | 1308.00 to state    1 from traj    1 on state    2
C     -1.797040     0.248631     0.117541
H     -0.560323     1.060852    -0.964869
H     -2.368423    -0.782228     0.006652
C     -0.853904     1.326385    -0.077321
H     -1.226363     2.339105    -0.282432
H      0.011188     1.369710     0.758112
6
Family_3 [H][C]C([H])([H])[H] | RMSD: 0.4195 | 1516.00 to state    1 from traj    1 on state    2
C     -1.721915     0.158383     0.215448
H     -0.322261     1.110965    -1.027396
H     -2.566286    -0.356845    -0.021993
C     -0.913518     1.418527    -0.222569
H     -0.921798     2.521906     0.310505
H     -0.518405     0.688846     0.820451
6
Family_3 [H][C]C([H])([H])[H] | RMSD: 0.3350 | 6824.00 to state    1 from traj    1 on state    2
C     -1.797878     0.210001     0.124518
H     -0.624014     1.292100    -1.140382
H     -2.384052    -0.913538     0.191168
C     -0.825587     1.387994    -0.091626
H     -0.999040     2.228216    -0.385794
H     -0.464240     1.106852     0.939796
6
Family_3 [H][C]C([H])([H])[H] | RMSD: 0.4186 | 12356.00 to state    1 from traj    1 on state    2
C     -1.728211     0.277541     0.165518
H     -0.082494     0.875848    -1.085811
H     -2.487559    -0.635247    -0.057200
C     -0.926930     1.335624    -0.122972
H     -1.375637     2.206902     0.232062
H     -0.148214     1.085370     0.400698
6
Family_3 [H][C]C([H])([H])[H] | RMSD: 0.4121 | 7196.00 to state    1 from traj    1 on state    2
C     -1.854064     0.196684     0.132279
H     -0.083931     1.774301    -1.191078
H     -2.174962    -0.689955     0.642687
C     -0.855443     1.348732    -0.161208
H     -0.908940     2.255860     0.028594
H     -0.278271     0.999936     0.861222
6
Family_3 [H][C]C([H])([H])[H] | RMSD: 0.3325 | 12052.00 to state    1 from traj    1 on state    2
C     -1.777942     0.236050     0.168450
H     -0.157646     1.144918    -1.022784
H     -2.459458    -0.665071    -0.005060
C     -0.892767     1.322262    -0.124374
H     -1.127512     2.483424     0.038382
H     -0.163785     1.223214     0.460994
6
Family_3 [H][C]C([H])([H])[H] | RMSD: 0.4881 | 2104.00 to state    1 from traj    1 on state    2
C     -1.662467     0.231849     0.235020
H     -0.369176     1.124494    -1.083613
H     -2.583960    -0.150425    -0.319190
C     -0.954483     1.318367    -0.210987
H     -1.044512     2.512645     0.228358
H     -0.551333     0.796229     0.884799
6
Family_3 [H][C]C([H])([H])[H] | RMSD: 0.3784 | 3244.00 to state    1 from traj    1 on state    2
C     -1.817077     0.293032     0.073720
H     -0.266452     1.288338    -1.127163
H     -1.745788    -0.688674     0.720337
C     -0.915812     1.295365    -0.111668
H     -0.884591     2.332411     0.115746
H     -0.270666     0.895927     0.739970
6
Family_3 [H][C]C([H])([H])[H] | RMSD: 0.2937 | 3720.00 to state    1 from traj    1 on state    2
C     -1.880544     0.118727     0.127396
H     -0.503391     1.171434    -1.210290
H     -2.243726    -0.765442     0.141505
C     -0.810899     1.427044    -0.074289
H     -0.717780     2.492413    -0.344197
H     -0.196453     1.437503     0.776896
6
Family_3 [H][C]C([H])([H])[H] | RMSD: 0.4101 | 5300.00 to state    1 from traj    1 on state    2
C     -1.807646     0.235782     0.052869
H     -0.405817     1.302513    -1.369715
H     -2.341990    -0.761917     0.641546
C     -0.821395     1.322458    -0.030505
H     -1.248598     2.472056    -0.393319
H     -0.408493     1.174681     0.851728
6
Family_3 [H][C]C([H])([H])[H] | RMSD: 0.3676 | 7720.00 to state    1 from traj    1 on state    2
C     -1.912846     0.094670     0.143208
H     -0.284477     0.963988    -1.075222
H     -2.179606    -0.766955    -0.118084
C     -0.819328     1.489847    -0.037768
H     -0.916200     2.369111    -0.637449
H      0.204272     1.308093     0.571093
6
Family_3 [H][C]C([H])([H])[H] | RMSD: 0.3932 | 8684.00 to state    1 from traj    1 on state    2
C     -1.833261     0.138727     0.134620
H     -0.305236     1.191819    -1.267739
H     -2.541038    -0.523992     0.228951
C     -0.810596     1.371961    -0.103327
H     -1.135130     2.643983    -0.019001
H     -0.246953     1.442139     0.681624
6
Family_3 [H][C]C([H])([H])[H] | RMSD: 0.3768 | 11172.00 to state    1 from traj    1 on state    2
C     -1.786032     0.163041     0.071574
H     -0.359200     1.263261    -1.065092
H     -2.547584    -0.322149     0.411270
C     -0.885509     1.362049    -0.043619
H     -1.042234     2.273820    -0.414414
H      0.050523     1.367411     0.731854
6
Family_3 [H][C]C([H])([H])[H] | RMSD: 0.4772 | 5220.00 to state    1 from traj    1 on state    2
C     -1.847706     0.199875     0.160981
H     -0.828340     0.739963    -1.026878
H     -1.922937    -0.745213    -0.427058
C     -0.814031     1.402892    -0.070991
H     -0.997030     2.272610    -0.350713
H     -0.267017     1.389410     0.729078
6
Family_3 [H][C]C([H])([H])[H] | RMSD: 0.4875 | 9408.00 to state    1 from traj    1 on state    2
C     -1.825257     0.093854     0.216960
H     -0.097331     1.388503    -1.258902
H     -2.647690    -0.527308     0.086852
C     -0.792215     1.488742    -0.201344
H     -1.442575     2.368349    -0.004504
H     -0.355162     0.667577     0.987200
6
Family_3 [H][C]C([H])([H])[H] | RMSD: 0.4419 | 4336.00 to state    1 from traj    1 on state    2
C     -1.810159     0.203978     0.072145
H     -0.482166     1.230412    -1.180928
H     -2.426832    -0.529616     0.412951
C     -0.812835     1.346510    -0.052622
H     -1.465070     2.345570    -0.396027
H     -0.102898     1.233331     0.928086
6
Family_3 [H][C]C([H])([H])[H] | RMSD: 0.4523 | 11148.00 to state    1 from traj    1 on state    2
C     -1.691042     0.192540     0.187919
H     -0.482800     1.130343    -1.436191
H     -2.686382    -0.270468    -0.108316
C     -0.908817     1.348042    -0.157328
H     -0.954239     2.429770     0.116475
H     -0.629216     1.108107     1.060243
6
Family_3 [H][C]C([H])([H])[H] | RMSD: 0.4814 | 3448.00 to state    1 from traj    1 on state    2
C     -1.782961     0.277921     0.031245
H     -0.597223     1.271491    -1.088107
H     -2.137087    -0.522159     0.803810
C     -0.847940     1.260549    -0.076347
H     -1.279875     2.584796    -0.084116
H     -0.368557     1.088776     0.902548
6
Family_3 [H][C]C([H])([H])[H] | RMSD: 0.5113 | 8688.00 to state    1 from traj    1 on state    2
C     -1.843216     0.235825     0.060888
H     -0.202185     1.344000    -1.372432
H     -2.117053    -0.780713     0.903770
C     -0.800563     1.353763    -0.092816
H     -1.431691     2.319936     0.070245
H     -0.478365     0.930588     0.775579
6
Family_3 [H][C]C([H])([H])[H] | RMSD: 0.4795 | 9664.00 to state    1 from traj    1 on state    2
C     -1.798263     0.220731     0.050314
H     -0.480085     0.815834    -0.816848
H     -2.179463    -0.724110     0.557369
C     -0.865394     1.428112    -0.070831
H     -1.424376     2.383749    -0.286505
H      0.091489     0.632269     0.787177
6
Family_3 [H][C]C([H])([H])[H] | RMSD: 0.3974 | 4596.00 to state    1 from traj    1 on state    2
C     -1.798264     0.231636     0.167350
H     -0.495365     0.823851    -0.988547
H     -2.270653    -0.720131    -0.229986
C     -0.867744     1.350663    -0.125092
H     -1.121523     2.429199     0.105456
H     -0.076883     1.367732     0.606269
6
Family_3 [H][C]C([H])([H])[H] | RMSD: 0.3018 | 6156.00 to state    1 from traj    1 on state    2
C     -1.817245     0.139324     0.099800
H     -0.412782     0.960764    -1.227150
H     -2.458974    -0.681897     0.361399
C     -0.847784     1.418666    -0.078800
H     -0.885884     2.664102    -0.099462
H     -0.218437     1.247354     0.711693
6
Family_3 [H][C]C([H])([H])[H] | RMSD: 0.3325 | 7264.00 to state    1 from traj    1 on state    2
C     -1.860627     0.099104     0.143889
H     -0.431093     1.196899    -1.034604
H     -2.550976    -0.858655     0.206244
C     -0.791077     1.464200    -0.116294
H     -0.959518     2.616078    -0.255081
H     -0.193274     1.172680     0.751354
6
Family_3 [H][C]C([H])([H])[H] | RMSD: 0.4441 | 4616.00 to state    1 from traj    1 on state    2
C     -1.855056     0.159545     0.133639
H     -0.705444     0.669453    -1.007733
H     -2.242091    -0.906871    -0.211894
C     -0.794870     1.462175    -0.060040
H     -1.144907     2.263553    -0.312611
H     -0.063607     1.404798     0.651969
6
Family_3 [H][C]C([H])([H])[H] | RMSD: 0.3612 | 5776.00 to state    2 from traj    2 on state    1
C     -1.738103     0.291919     0.124186
H     -0.719493     0.691679    -0.890694
H     -1.940129    -0.723648    -0.194238
C     -0.955837     1.336307    -0.055333
H     -0.655157     2.282804    -0.307629
H     -0.316817     1.102571     0.568849
6
Family_3 [H][C]C([H])([H])[H] | RMSD: 0.4306 | 7988.00 to state    1 from traj    1 on state    2
C     -1.829100     0.282960     0.062806
H     -0.264491     1.401268    -1.207412
H     -1.778890    -0.644638     0.816226
C     -0.887177     1.290186    -0.101499
H     -1.029515     2.415772    -0.024488
H     -0.292543     0.837310     0.873449
6
Family_3 [H][C]C([H])([H])[H] | RMSD: 0.5300 | 10092.00 to state    1 from traj    4 on state    2
C     -1.821087     0.218965     0.065623
H     -0.130028     1.000469    -0.748041
H     -1.783987    -0.633529     0.824270
C     -0.910067     1.404901    -0.086526
H     -0.916465     2.587628    -0.058289
H     -0.357673     0.450793     0.227857
6
Family_3 [H][C]C([H])([H])[H] | RMSD: 0.3825 | 4104.00 to state    1 from traj    1 on state    2
C     -1.731874     0.218522     0.167691
H     -0.174617     1.355354    -0.960008
H     -2.627309    -0.375213     0.105340
C     -0.907410     1.328879    -0.144846
H     -1.229501     2.387337    -0.077957
H     -0.251436     0.949012     0.657125
6
Family_3 [H][C]C([H])([H])[H] | RMSD: 0.5267 | 3820.00 to state    1 from traj    1 on state    2
C     -1.864449     0.171012     0.123925
H     -0.189062     1.063455    -0.771785
H     -1.822597    -0.784251     0.687591
C     -0.883239     1.473567    -0.206100
H     -0.764411     2.114228     0.658847
H     -0.215079     0.765118     0.401234
6
Family_3 [H][C]C([H])([H])[H] | RMSD: 0.3801 | 5332.00 to state    1 from traj    1 on state    2
C     -1.743661     0.247670     0.156258
H     -0.206239     1.072523    -0.889763
H     -2.449606    -0.485915    -0.140308
C     -0.939403     1.321335    -0.085878
H     -1.189743     2.530764    -0.428352
H      0.084403     0.941690     0.616510
6
Family_3 [H][C]C([H])([H])[H] | RMSD: 0.4838 | 6836.00 to state    1 from traj    1 on state    2
C     -1.871388     0.181836     0.093410
H     -0.062697     1.351151    -1.094089
H     -2.000565    -0.524656     0.754258
C     -0.804590     1.390643    -0.105316
H     -1.391882     2.383755    -0.015988
H     -0.390480     0.807427     0.494404
6
Family_3 [H][C]C([H])([H])[H] | RMSD: 0.5226 | 4652.00 to state    1 from traj    1 on state    2
C     -1.786974     0.175223     0.154811
H     -0.171054     1.027526    -0.788528
H     -2.767020    -0.784190     0.086641
C     -0.830138     1.439095    -0.120462
H     -1.605694     2.398059    -0.179121
H     -0.003286     0.877738     0.468437
6
Family_3 [H][C]C([H])([H])[H] | RMSD: 0.3919 | 6700.00 to state    1 from traj    1 on state    2
C     -1.757139     0.281437     0.070793
H     -0.518009     0.752393    -1.078696
H     -2.194909    -0.928858     0.488406
C     -0.928813     1.358087    -0.115143
H     -0.879072     2.184230     0.441416
H     -0.134782     1.211015     0.674063
6
Family_3 [H][C]C([H])([H])[H] | RMSD: 0.5102 | 7844.00 to state    1 from traj    1 on state    2
C     -1.780565     0.301734     0.113580
H     -1.049992     1.114631    -1.123575
H     -1.793358    -0.627846    -0.108481
C     -0.877250     1.246837    -0.064476
H     -0.667401     2.393930    -0.405320
H     -0.551283     1.421841     1.048978
6
Family_3 [H][C]C([H])([H])[H] | RMSD: 0.4505 | 5092.00 to state    1 from traj    1 on state    2
C     -1.823640     0.238667     0.118664
H     -0.804864     0.926251    -1.058246
H     -2.058782    -0.743842    -0.223112
C     -0.843002     1.323423    -0.031843
H     -0.886120     2.291382    -0.441373
H     -0.207098     1.667670     0.684922
6
Family_3 [H][C]C([H])([H])[H] | RMSD: 0.3859 | 7472.00 to state    1 from traj    1 on state    2
C     -1.878959     0.085151     0.164109
H     -0.338540     1.291155    -0.901824
H     -2.520345    -0.832646     0.046965
C     -0.766107     1.513055    -0.101840
H     -1.212738     2.208429    -0.530459
H     -0.142332     1.044182     0.640053
6
Family_3 [H][C]C([H])([H])[H] | RMSD: 0.2382 | 2736.00 to state    1 from traj    1 on state    2
C     -1.779695     0.252980     0.094684
H     -0.422970     1.160764    -1.074172
H     -1.936040    -0.706481     0.465922
C     -0.941992     1.354018    -0.100409
H     -0.596179     2.287455    -0.098964
H     -0.345783     0.864611     0.772146
6
Family_3 [H][C]C([H])([H])[H] | RMSD: 0.3657 | 5416.00 to state    1 from traj    1 on state    2
C     -1.744252     0.240443     0.138806
H     -0.514426     0.784094    -0.877393
H     -2.394806    -0.681217     0.004430
C     -0.892021     1.368440    -0.118566
H     -1.174657     2.459034     0.046627
H     -0.234844     1.021988     0.581888
6
Family_3 [H][C]C([H])([H])[H] | RMSD: 0.4408 | 8740.00 to state    1 from traj    1 on state    2
C     -1.825756     0.236830     0.158151
H     -0.553950     0.788932    -0.925552
H     -2.148149    -0.791610    -0.328459
C     -0.852107     1.355862    -0.089243
H     -1.167211     2.349275    -0.147516
H      0.046149     1.430225     0.577154
6
Family_3 [H][C]C([H])([H])[H] | RMSD: 0.4336 | 11452.00 to state    1 from traj    1 on state    2
C     -1.827216     0.201225     0.155236
H     -0.574946     0.877069    -0.813028
H     -2.136912    -0.734911    -0.221647
C     -0.836673     1.401202    -0.085271
H     -1.212181     2.572525    -0.502287
H     -0.065633     0.946137     0.700001
6
Family_3 [H][C]C([H])([H])[H] | RMSD: 0.4526 | 9916.00 to state    1 from traj    1 on state    2
C     -1.752471     0.302277     0.154990
H     -0.061083     1.178910    -0.939416
H     -2.492635    -0.603378    -0.081943
C     -0.937005     1.249404    -0.102226
H     -1.391127     2.545455    -0.198949
H      0.260067     1.144500     0.588305
6
Family_3 [H][C]C([H])([H])[H] | RMSD: 0.5116 | 14896.00 to state    1 from traj    1 on state    2
C     -1.831450     0.283124     0.074395
H     -0.080400     1.228323    -1.300648
H     -1.972669    -0.801794     0.821372
C     -0.847943     1.328898    -0.115977
H     -1.459176     2.302762     0.255315
H     -0.292675     0.817201     0.716158
6
Family_3 [H][C]C([H])([H])[H] | RMSD: 0.3261 | 2616.00 to state    1 from traj    1 on state    2
C     -1.759854     0.209639     0.197365
H     -0.233243     1.521719    -0.984996
H     -2.525411    -0.559545     0.003720
C     -0.904555     1.328182    -0.168086
H     -0.883943     2.492327    -0.134575
H     -0.340875     0.976142     0.763686
6
Family_3 [H][C]C([H])([H])[H] | RMSD: 0.5105 | 6720.00 to state    1 from traj    1 on state    2
C     -1.797073     0.281426     0.072027
H     -0.213272     1.230122    -1.092251
H     -1.820779    -0.610078     0.872035
C     -0.883406     1.326686    -0.122400
H     -1.154437     2.294402     0.270260
H     -0.603503     0.678632     0.546909
6
Family_3 [H][C]C([H])([H])[H] | RMSD: 0.5011 | 8028.00 to state    1 from traj    1 on state    2
C     -1.819465     0.263727     0.143976
H     -0.609342     0.626980    -1.310288
H     -1.695215    -0.574395    -0.515406
C     -0.915463     1.322939    -0.010184
H     -0.771467     2.325318    -0.491886
H     -0.067167     1.470719     0.720076
6
Family_3 [H][C]C([H])([H])[H] | RMSD: 0.3873 | 2568.00 to state    1 from traj    1 on state    2
C     -1.782656     0.218250     0.104374
H     -0.321390     1.268728    -1.078671
H     -2.596879    -0.607803     0.290845
C     -0.886263     1.287193    -0.080519
H     -0.996208     2.693682    -0.173244
H     -0.015254     1.461844     0.673543
6
Family_3 [H][C]C([H])([H])[H] | RMSD: 0.3878 | 3848.00 to state    1 from traj    1 on state    2
C     -1.784228     0.267069     0.104455
H     -0.182324     1.278735    -0.977642
H     -2.356966    -0.655061     0.452828
C     -0.919400     1.275542    -0.128843
H     -1.009283     2.359426     0.284138
H      0.032425     1.390467     0.527996
6
Family_3 [H][C]C([H])([H])[H] | RMSD: 0.3414 | 9484.00 to state    2 from traj    4 on state    1
C     -1.719366     0.217455     0.070796
H     -0.215598     0.980052    -1.217881
H     -2.570450    -0.372852     0.174270
C     -0.995956     1.323096     0.022377
H     -0.672009     2.352912    -0.579302
H      0.081254     1.438000     0.509413
6
Family_3 [H][C]C([H])([H])[H] | RMSD: 0.3819 | 9808.00 to state    1 from traj    1 on state    2
C     -1.728784     0.206129     0.170350
H     -0.046686     1.268183    -1.119119
H     -2.554870    -0.529228    -0.082946
C     -0.961144     1.367374    -0.060899
H     -0.847715     2.582242    -0.764468
H     -0.230125     0.684276     0.659066
6
Family_3 [H][C]C([H])([H])[H] | RMSD: 0.4329 | 3500.00 to state    1 from traj    1 on state    2
C     -1.745241     0.215335     0.053479
H     -0.360196     0.832632    -0.765817
H     -2.411017    -0.599370     0.478683
C     -0.922846     1.428741    -0.043239
H     -1.272634     2.282101    -0.451837
H      0.104190     0.649190     0.613663
6
Family_3 [H][C]C([H])([H])[H] | RMSD: 0.3829 | 10868.00 to state    1 from traj    1 on state    2
C     -1.661319     0.316704     0.153484
H     -0.286320     1.126590    -1.111556
H     -2.562157    -0.504038     0.148026
C     -1.002474     1.263388    -0.188778
H     -1.025602     2.335795     0.435892
H     -0.116742     0.968606     0.944906
6
Family_3 [H][C]C([H])([H])[H] | RMSD: 0.2772 | 3228.00 to state    1 from traj    1 on state    2
C     -1.746965     0.204847     0.191006
H     -0.162522     1.153349    -1.072594
H     -2.517176    -0.606971    -0.020607
C     -0.931506     1.363913    -0.156438
H     -0.792630     2.436729     0.154008
H     -0.343588     1.078881     0.524015
6
Family_3 [H][C]C([H])([H])[H] | RMSD: 0.4467 | 3828.00 to state    2 from traj    5 on state    1
C     -1.914217     0.075093     0.187715
H     -0.495842     0.762111    -0.802373
H     -2.270761    -0.940482    -0.238569
C     -0.776981     1.524394    -0.134960
H     -0.953514     2.594710    -0.082418
H      0.055848     1.279512     0.491466
6
Family_3 [H][C]C([H])([H])[H] | RMSD: 0.2251 | 5560.00 to state    1 from traj    1 on state    2
C     -1.750999     0.199043     0.131780
H     -0.251543     0.876275    -1.186087
H     -2.464582    -0.708698     0.068429
C     -0.935914     1.391942    -0.059030
H     -0.743108     2.600390    -0.293078
H     -0.256088     1.029192     0.540587
6
Family_3 [H][C]C([H])([H])[H] | RMSD: 0.3661 | 8464.00 to state    1 from traj    1 on state    2
C     -1.807701     0.241283     0.169892
H     -0.113086     1.189185    -0.881077
H     -2.375761    -0.780317    -0.127325
C     -0.920653     1.320899    -0.111198
H     -0.977317     2.424736    -0.170156
H      0.244642     1.306760     0.475906
6
Family_3 [H][C]C([H])([H])[H] | RMSD: 0.2465 | 9520.00 to state    1 from traj    1 on state    2
C     -1.796772     0.190370     0.141806
H     -0.473189     1.040259    -0.930508
H     -2.170270    -0.705038     0.017411
C     -0.906052     1.406301    -0.091251
H     -0.708439     2.498791    -0.432380
H     -0.173836     0.895399     0.739789
6
Family_3 [H][C]C([H])([H])[H] | RMSD: 0.4639 | 11032.00 to state    1 from traj    1 on state    2
C     -1.799026     0.151647     0.150543
H     -0.287485     0.928100    -0.991907
H     -2.637083    -0.734740     0.059009
C     -0.923845     1.382705    -0.142005
H     -0.580428     2.739704     0.264581
H      0.218136     1.538918     0.563297
6
Family_3 [H][C]C([H])([H])[H] | RMSD: 0.3389 | 15352.00 to state    1 from traj    1 on state    2
C     -1.891764     0.139483     0.112701
H     -0.288678     1.252530    -1.352786
H     -2.197113    -0.882404     0.486725
C     -0.814437     1.405658    -0.101626
H     -0.696174     2.543061     0.058810
H     -0.303529     1.430226     0.672002
6
Family_3 [H][C]C([H])([H])[H] | RMSD: 0.6517 | 1328.00 to state    1 from traj    1 on state    2
C     -1.810629     0.235735     0.063652
H     -1.180045     0.668759    -0.788526
H     -1.522324    -0.780271    -0.093964
C     -0.934649     1.421515    -0.002350
H     -0.244287     1.929100    -0.779786
H     -0.073210     1.189978     0.928539
6
Family_3 [H][C]C([H])([H])[H] | RMSD: 0.2850 | 10092.00 to state    1 from traj    1 on state    2
C     -1.793570     0.154677     0.081210
H     -0.126352     1.156947    -0.996103
H     -2.467922    -0.706819     0.461482
C     -0.937930     1.450849    -0.040153
H     -0.722816     2.247909    -0.550312
H      0.133040     0.925853     0.592433
6
Family_3 [H][C]C([H])([H])[H] | RMSD: 0.3234 | 11284.00 to state    1 from traj    1 on state    2
C     -1.790260     0.174223     0.147554
H     -0.260510     1.188155    -1.207909
H     -2.615388    -0.733002     0.068923
C     -0.846357     1.410763    -0.080394
H     -1.201073     2.371535    -0.417950
H     -0.237661     1.041955     0.753394
6
Family_3 [H][C]C([H])([H])[H] | RMSD: 0.4128 | 2332.00 to state    1 from traj    1 on state    2
C     -1.771979     0.208050     0.045213
H     -0.318898     0.989191    -0.770932
H     -2.433408    -0.526905     0.596234
C     -0.928842     1.343144    -0.050368
H     -0.870430     2.435349    -0.045614
H      0.073137     1.373661     0.278464
6
Family_3 [H][C]C([H])([H])[H] | RMSD: 0.3593 | 7256.00 to state    1 from traj    1 on state    2
C     -1.731971     0.191127     0.048384
H     -0.362246     1.232255    -1.270767
H     -2.653012    -0.363784     0.503638
C     -0.923719     1.346428    -0.003099
H     -0.864386     2.164779    -0.476899
H     -0.207721     1.400564     0.701133
6
Family_3 [H][C]C([H])([H])[H] | RMSD: 0.4751 | 1432.00 to state    1 from traj    1 on state    2
C     -1.654566     0.184452     0.197065
H     -0.310065     1.305864    -1.064383
H     -2.778975    -0.173202     0.100894
C     -0.965562     1.374473    -0.215188
H     -0.781329     2.134031     0.408477
H     -0.640746     0.912484     0.767678
6
Family_3 [H][C]C([H])([H])[H] | RMSD: 0.5081 | 4012.00 to state    1 from traj    1 on state    2
C     -1.835989     0.187690     0.077452
H     -0.337404     1.392271    -1.386632
H     -2.531766    -0.629061     0.459975
C     -0.777619     1.337294    -0.030988
H     -1.505104     2.526716    -0.550434
H     -0.214532     1.293678     0.920151
6
Family_3 [H][C]C([H])([H])[H] | RMSD: 0.5057 | 3660.00 to state    1 from traj    1 on state    2
C     -1.820141     0.235463     0.098026
H     -0.081691     1.030674    -1.381941
H     -1.900986    -0.718874     0.761200
C     -0.863547     1.390111    -0.130196
H     -1.156329     2.386495     0.419456
H     -0.614747     0.686707     0.581330
6
Family_3 [H][C]C([H])([H])[H] | RMSD: 0.5051 | 2120.00 to state    1 from traj    1 on state    2
C     -1.660465     0.205616     0.207393
H     -0.395709     1.457154    -1.101580
H     -2.802970    -0.151516    -0.050651
C     -0.921728     1.319478    -0.189954
H     -1.001421     2.327991     0.081140
H     -0.763037     0.948657     0.860012
6
Family_3 [H][C]C([H])([H])[H] | RMSD: 0.3515 | 2056.00 to state    1 from traj    1 on state    2
C     -1.776080     0.246288     0.080557
H     -0.254719     1.046242    -0.776589
H     -1.941935    -0.663599     0.629098
C     -0.967785     1.380413    -0.111208
H     -0.659132     2.252463     0.082554
H     -0.180914     0.736473     0.426874
6
Family_3 [H][C]C([H])([H])[H] | RMSD: 0.3372 | 5236.00 to state    1 from traj    1 on state    2
C     -1.852149     0.200044     0.077325
H     -0.138792     1.360106    -1.148196
H     -2.056211    -0.678969     0.633619
C     -0.861433     1.374318    -0.053399
H     -1.031418     2.429738    -0.439777
H     -0.171128     0.884363     0.665975
6
Family_3 [H][C]C([H])([H])[H] | RMSD: 0.4543 | 8944.00 to state    1 from traj    1 on state    2
C     -1.760311     0.257765     0.131255
H     -0.865437     0.820573    -1.083299
H     -2.261003    -0.633427    -0.137399
C     -0.857474     1.313030    -0.108045
H     -1.141657     2.532453    -0.049891
H     -0.270938     1.318137     0.990748
6
Family_3 [H][C]C([H])([H])[H] | RMSD: 0.3279 | 11400.00 to state    1 from traj    1 on state    2
C     -1.747597     0.315393     0.109254
H     -0.525444     0.958796    -1.018107
H     -2.084362    -0.601595    -0.086518
C     -0.920372     1.277040    -0.029148
H     -1.135449     2.235235    -0.481171
H     -0.195802     1.187468     0.627994
6
Family_3 [H][C]C([H])([H])[H] | RMSD: 0.3979 | 1672.00 to state    1 from traj    1 on state    2
C     -1.836732     0.119405     0.042393
H     -0.566210     0.911444    -1.066369
H     -2.480531    -0.709182     0.544765
C     -0.809390     1.458023    -0.022307
H     -1.106822     2.560837    -0.469384
H     -0.047813     1.195601     0.748374
6
Family_3 [H][C]C([H])([H])[H] | RMSD: 0.3781 | 4704.00 to state    1 from traj    1 on state    2
C     -1.761537     0.150977     0.188162
H     -0.159027     1.046588    -1.098686
H     -2.578056    -0.432426     0.083672
C     -0.898890     1.417193    -0.184748
H     -1.057240     2.614721     0.249278
H     -0.236592     0.840140     0.721769
6
Family_3 [H][C]C([H])([H])[H] | RMSD: 0.4730 | 3216.00 to state    1 from traj    1 on state    2
C     -1.826757     0.247482     0.059269
H     -0.152765     1.393555    -1.213518
H     -2.113183    -0.520854     0.735978
C     -0.842354     1.291010    -0.048893
H     -1.395278     2.629574    -0.354343
H     -0.266219     0.920366     0.704957
6
Family_3 [H][C]C([H])([H])[H] | RMSD: 0.2723 | 6284.00 to state    1 from traj    1 on state    2
C     -1.793468     0.240238     0.146727
H     -0.334211     1.117430    -1.203422
H     -2.379674    -0.806044     0.007320
C     -0.882573     1.329702    -0.100795
H     -1.034717     2.474468    -0.139953
H     -0.096275     1.262070     0.785464
6
Family_3 [H][C]C([H])([H])[H] | RMSD: 0.3542 | 4536.00 to state    1 from traj    1 on state    2
C     -1.833183     0.197311     0.169994
H     -0.411020     1.002521    -1.208313
H     -2.324909    -0.905194    -0.165586
C     -0.844849     1.360059    -0.097227
H     -0.891338     2.754159    -0.198489
H     -0.193870     1.346211     0.702030
6
Family_3 [H][C]C([H])([H])[H] | RMSD: 0.4471 | 7056.00 to state    1 from traj    1 on state    2
C     -1.742067     0.154706     0.028671
H     -0.723607     0.948771    -1.124791
H     -2.623095    -0.271251     0.404969
C     -0.882467     1.390137     0.007616
H     -0.969896     2.165253    -0.508967
H     -0.142016     1.504199     0.793131
6
Family_3 [H][C]C([H])([H])[H] | RMSD: 0.3512 | 13092.00 to state    1 from traj    1 on state    2
C     -1.898339     0.076969     0.128480
H     -0.202955     1.132474    -1.210173
H     -2.431994    -0.718463     0.404633
C     -0.790318     1.473187    -0.124076
H     -1.017144     2.537141     0.102395
H     -0.042444     1.332513     0.647381
6
Family_3 [H][C]C([H])([H])[H] | RMSD: 0.5149 | 13656.00 to state    1 from traj    1 on state    2
C     -1.685478     0.262294    -0.021301
H     -0.778886     0.953394    -1.091213
H     -2.388004    -0.064092     0.760991
C     -0.956739     1.258820    -0.019623
H     -1.015030     2.440679    -0.198579
H     -0.065990     1.299732     1.013161
6
Family_3 [H][C]C([H])([H])[H] | RMSD: 0.2751 | 6192.00 to state    1 from traj    1 on state    2
C     -1.782725     0.244148     0.074495
H     -0.366181     0.925924    -1.007541
H     -2.038232    -0.570241     0.448737
C     -0.957777     1.345071    -0.091575
H     -0.773460     2.420252     0.029854
H      0.101097     1.042266     0.729189
6
Family_3 [H][C]C([H])([H])[H] | RMSD: 0.5043 | 9708.00 to state    1 from traj    1 on state    2
C     -1.812160     0.253977     0.090255
H      0.155205     1.229831    -0.963700
H     -1.844516    -0.469673     0.737555
C     -0.949662     1.346438    -0.112148
H     -1.123388     2.494439    -0.029035
H     -0.010034     0.430196     0.512770
6
Family_3 [H][C]C([H])([H])[H] | RMSD: 0.4486 | 17336.00 to state    1 from traj    1 on state    2
C     -1.865055     0.149567     0.168899
H     -0.508753     0.689178    -0.861082
H     -2.078025    -0.656989    -0.230293
C     -0.800624     1.450633    -0.106549
H     -1.255211     2.540768    -0.133727
H     -0.126345     1.114404     0.478878
6
Family_3 [H][C]C([H])([H])[H] | RMSD: 0.4406 | 2008.00 to state    1 from traj    1 on state    2
C     -1.752794     0.245861     0.038632
H     -0.592377     1.201363    -1.342047
H     -2.490605    -0.429883     0.514185
C     -0.868443     1.273158    -0.025094
H     -1.184590     2.384392    -0.298783
H     -0.230320     1.498812     0.962049
6
Family_3 [H][C]C([H])([H])[H] | RMSD: 0.2946 | 4376.00 to state    1 from traj    1 on state    2
C     -1.878538     0.098963     0.154832
H     -0.354681     0.926537    -1.352111
H     -2.276002    -0.877180     0.028388
C     -0.780856     1.518986    -0.076195
H     -1.065984     2.415397    -0.371050
H     -0.346562     1.011105     0.754484
6
Family_3 [H][C]C([H])([H])[H] | RMSD: 0.3805 | 6856.00 to state    1 from traj    1 on state    2
C     -1.833035     0.210864     0.121439
H      0.081748     1.388196    -1.192618
H     -2.270535    -0.869074     0.629373
C     -0.917297     1.384889    -0.159600
H     -0.868733     2.252393     0.270154
H      0.097885     0.968824     0.744520
6
Family_3 [H][C]C([H])([H])[H] | RMSD: 0.4532 | 832.00 to state    1 from traj    1 on state    2
C     -1.772600     0.245685     0.196895
H      0.030492     1.393239    -0.781960
H     -2.536072    -0.539014    -0.117849
C     -0.916368     1.296589    -0.145037
H     -1.255456     2.414258    -0.112954
H      0.070195     1.109099     0.391558
6
Family_3 [H][C]C([H])([H])[H] | RMSD: 0.3841 | 3388.00 to state    1 from traj    1 on state    2
C     -1.764616     0.284140     0.054326
H     -0.486895     0.907540    -0.939195
H     -2.055447    -0.570167     0.580160
C     -0.920657     1.311803    -0.098192
H     -1.143861     2.443198     0.126184
H     -0.048669     0.957508     0.752258
6
Family_3 [H][C]C([H])([H])[H] | RMSD: 0.4167 | 11740.00 to state    1 from traj    1 on state    2
C     -1.832466     0.226355     0.125828
H     -0.042766     1.427976    -0.984044
H     -1.962652    -0.782054     0.656691
C     -0.933368     1.343815    -0.165680
H     -0.488636     2.401765     0.356753
H     -0.280875     0.997500     0.442177
6
Family_3 [H][C]C([H])([H])[H] | RMSD: 0.4846 | 5136.00 to state    1 from traj    1 on state    2
C     -1.850645     0.225735     0.086507
H     -0.188194     1.204496    -1.032225
H     -1.802190    -0.602263     0.792882
C     -0.848875     1.376407    -0.137110
H     -1.220830     2.372452     0.233257
H     -0.353881     0.689535     0.605775
6
Family_3 [H][C]C([H])([H])[H] | RMSD: 0.4539 | 1556.00 to state    1 from traj    1 on state    2
C     -1.770145     0.237103     0.180265
H     -0.659994     0.648870    -0.722548
H     -2.093489    -0.738960    -0.347755
C     -0.898854     1.389892    -0.135204
H     -0.975062     2.592203    -0.096958
H     -0.200227     0.865970     0.627044
6
Family_3 [H][C]C([H])([H])[H] | RMSD: 0.4396 | 8572.00 to state    1 from traj    1 on state    2
C     -1.793867     0.263165     0.153646
H     -0.441255     0.700040    -1.012093
H     -2.012230    -0.503404    -0.328481
C     -0.891587     1.311212    -0.067937
H     -1.206048     2.507334    -0.165558
H     -0.073179     1.291086     0.481563
6
Family_3 [H][C]C([H])([H])[H] | RMSD: 0.4339 | 9740.00 to state    1 from traj    1 on state    2
C     -1.714331     0.328388     0.039232
H     -0.542100     1.077984    -1.091904
H     -2.377384    -0.567484     0.616958
C     -0.904462     1.234364    -0.070549
H     -1.303681     2.295244     0.144022
H     -0.303856     1.327826     0.700806
6
Family_3 [H][C]C([H])([H])[H] | RMSD: 0.5073 | 4512.00 to state    1 from traj    1 on state    2
C     -1.880010     0.102080     0.130999
H     -0.218365     1.054998    -1.204355
H     -2.550407    -0.682026     0.110845
C     -0.763103     1.498702    -0.073733
H     -1.663009     2.195314    -0.429598
H      0.194549     1.112135     0.837466
6
Family_3 [H][C]C([H])([H])[H] | RMSD: 0.4293 | 5384.00 to state    1 from traj    1 on state    2
C     -1.819429     0.186991     0.094255
H     -0.238900     1.350625    -0.863287
H     -2.578006    -0.806438     0.515451
C     -0.876422     1.335589    -0.097152
H     -0.881787     2.801567    -0.193080
H      0.089867     1.266494     0.572152
6
Family_3 [H][C]C([H])([H])[H] | RMSD: 0.4045 | 8044.00 to state    1 from traj    1 on state    2
C     -1.745315     0.298912     0.078570
H     -0.321454     0.994610    -1.233983
H     -2.457198    -0.625950     0.255809
C     -0.908203     1.280590    -0.053347
H     -1.450899     2.306675    -0.162244
H      0.116312     1.258647     0.836592
6
Family_3 [H][C]C([H])([H])[H] | RMSD: 0.3590 | 10388.00 to state    1 from traj    1 on state    2
C     -1.869439     0.094300     0.184030
H     -0.252897     1.223967    -0.951967
H     -2.493039    -0.872566     0.017156
C     -0.835886     1.464418    -0.141594
H     -0.765804     2.810432    -0.304066
H      0.015811     1.019810     0.729936
6
Family_3 [H][C]C([H])([H])[H] | RMSD: 0.4072 | 12036.00 to state    1 from traj    1 on state    2
C     -1.767404     0.164392     0.231199
H      0.015111     1.413357    -0.819037
H     -2.665442    -0.742976    -0.063747
C     -0.909736     1.412687    -0.180890
H     -0.822443     2.567557    -0.132114
H     -0.358995     0.724915     0.412143
6
Family_3 [H][C]C([H])([H])[H] | RMSD: 0.3900 | 11688.00 to state    1 from traj    1 on state    2
C     -1.801832     0.201540     0.134017
H     -0.394137     0.935556    -1.144402
H     -2.430607    -0.783392    -0.044835
C     -0.838173     1.382323    -0.047346
H     -1.256884     2.679465    -0.540019
H     -0.192640     1.050386     0.693232
6
Family_3 [H][C]C([H])([H])[H] | RMSD: 0.2617 | 5304.00 to state    1 from traj    1 on state    2
C     -1.743849     0.229794     0.127415
H     -0.532689     0.952442    -0.914713
H     -2.282560    -0.495364     0.040730
C     -0.936726     1.358703    -0.108908
H     -0.898848     2.351459    -0.148436
H     -0.076752     1.018272     0.798614
6
Family_3 [H][C]C([H])([H])[H] | RMSD: 0.3621 | 7972.00 to state    1 from traj    1 on state    2
C     -1.729763     0.231310     0.017265
H     -0.101231     0.835498    -1.024386
H     -2.190969    -0.310171     0.729988
C     -1.022390     1.359601    -0.003943
H     -0.726969     2.345420    -0.240234
H      0.081222     0.927297     0.372605
6
Family_3 [H][C]C([H])([H])[H] | RMSD: 0.4062 | 12848.00 to state    1 from traj    1 on state    2
C     -1.783613     0.167879     0.156194
H     -0.324731     1.543659    -1.040056
H     -2.718109    -0.518266     0.226963
C     -0.851887     1.337059    -0.147825
H     -0.989692     2.432159    -0.027447
H     -0.295411     1.364919     0.737535
6
Family_3 [H][C]C([H])([H])[H] | RMSD: 0.3911 | 4108.00 to state    1 from traj    1 on state    2
C     -1.769379     0.217813     0.163448
H     -0.429414     0.864809    -1.144445
H     -2.351358    -0.637569    -0.086103
C     -0.843506     1.399382    -0.114983
H     -1.409458     2.361223    -0.081231
H     -0.407189     0.896381     0.731005
6
Family_3 [H][C]C([H])([H])[H] | RMSD: 0.5091 | 7300.00 to state    1 from traj    1 on state    2
C     -1.684969     0.220590     0.201015
H     -0.233194     1.083994    -1.128870
H     -2.645299    -0.207713    -0.008547
C     -0.919332     1.335641    -0.202368
H     -1.277311     2.486256     0.432338
H     -0.543893     0.848734     0.717923
6
Family_3 [H][C]C([H])([H])[H] | RMSD: 0.3795 | 10224.00 to state    1 from traj    1 on state    2
C     -1.813543     0.150038     0.050804
H     -0.354048     0.979407    -0.900564
H     -2.383052    -0.680326     0.497493
C     -0.861804     1.478005    -0.009517
H     -1.149125     2.134081    -0.647943
H      0.033091     0.922427     0.555771
6
Family_3 [H][C]C([H])([H])[H] | RMSD: 0.4057 | 11340.00 to state    1 from traj    1 on state    2
C     -1.810003     0.259644     0.062835
H     -0.516635     1.336402    -1.219129
H     -2.081888    -0.631238     0.687841
C     -0.859179     1.269227    -0.098460
H     -0.952768     2.539846     0.074700
H     -0.375316     1.292279     0.877804
6
Family_3 [H][C]C([H])([H])[H] | RMSD: 0.2984 | 12776.00 to state    1 from traj    1 on state    2
C     -1.778788     0.213606     0.092924
H     -0.397953     1.282342    -0.993532
H     -2.376363    -0.530987     0.372680
C     -0.885273     1.337972    -0.069738
H     -1.036827     2.450876    -0.403253
H     -0.176480     1.064494     0.744547
6
Family_3 [H][C]C([H])([H])[H] | RMSD: 0.4566 | 2100.00 to state    1 from traj    1 on state    2
C     -1.660551     0.285436     0.201417
H     -0.190860     1.198726    -0.880628
H     -2.820372    -0.592578    -0.100750
C     -0.954722     1.303126    -0.187998
H     -1.273502     2.417951     0.158621
H     -0.284238     0.801931     0.659578
6
Family_3 [H][C]C([H])([H])[H] | RMSD: 0.4530 | 33128.00 to state    1 from traj    1 on state    2
C     -1.807199     0.278684     0.048044
H     -0.318159     1.239440    -1.228474
H     -2.234056    -0.933643     0.831456
C     -0.871879     1.306814    -0.100179
H     -1.198298     2.600873     0.030263
H     -0.058169     0.955876     0.984693
6
Family_3 [H][C]C([H])([H])[H] | RMSD: 0.4422 | 35964.00 to state    1 from traj    1 on state    2
C     -1.770926     0.276157     0.085820
H     -0.460561     1.173890    -1.053030
H     -2.222384    -0.511875     0.436737
C     -0.842165     1.289315    -0.084625
H     -1.517201     2.479510    -0.155135
H     -0.394816     0.959635     0.753902
6
Family_3 [H][C]C([H])([H])[H] | RMSD: 0.2495 | 9884.00 to state    1 from traj    1 on state    2
C     -1.782967     0.226681     0.083881
H     -0.376370     1.079356    -1.236285
H     -2.263060    -0.771560     0.492239
C     -0.886042     1.368289    -0.072353
H     -0.946519     2.485362    -0.180793
H     -0.342718     0.956519     0.784202
6
Family_3 [H][C]C([H])([H])[H] | RMSD: 0.4851 | 5236.00 to state    1 from traj    1 on state    2
C     -1.762981     0.294777     0.156375
H     -0.802640     0.771977    -0.887829
H     -1.999167    -0.621788    -0.401605
C     -0.868753     1.300164    -0.079394
H     -1.197779     2.425318    -0.307889
H     -0.373228     1.174514     0.676756
6
Family_3 [H][C]C([H])([H])[H] | RMSD: 0.3652 | 1892.00 to state    1 from traj    1 on state    2
C     -1.793437     0.161126     0.088134
H     -0.375444     1.305477    -1.037165
H     -2.529419    -0.477034     0.376284
C     -0.903361     1.336628    -0.056653
H     -0.662195     2.682361    -0.407676
H     -0.030480     1.397261     0.690159
6
Family_3 [H][C]C([H])([H])[H] | RMSD: 0.5137 | 3232.00 to state    1 from traj    1 on state    2
C     -1.815241     0.208111     0.103711
H     -0.287170     0.974422    -1.288314
H     -2.329309    -0.709300     0.572926
C     -0.806074     1.390669    -0.144096
H     -1.511184     2.374327     0.484039
H     -0.369297     1.064826     0.709281
6
Family_3 [H][C]C([H])([H])[H] | RMSD: 0.4703 | 7116.00 to state    1 from traj    1 on state    2
C     -1.688745     0.212699     0.203679
H     -0.245201     1.383644    -1.178642
H     -2.821548    -0.456997     0.020080
C     -0.908334     1.355175    -0.190896
H     -1.200207     2.469880    -0.001483
H     -0.518791     0.676017     1.004451
6
Family_3 [H][C]C([H])([H])[H] | RMSD: 0.4299 | 7344.00 to state    1 from traj    1 on state    2
C     -1.805979     0.175097     0.131043
H     -0.139343     0.826549    -1.215716
H     -2.548339    -0.677130     0.110805
C     -0.840849     1.421387    -0.074203
H     -1.490523     2.550721    -0.167231
H     -0.014767     1.031492     0.591563
6
Family_3 [H][C]C([H])([H])[H] | RMSD: 0.3640 | 10624.00 to state    1 from traj    1 on state    2
C     -1.808813     0.282563     0.069856
H     -0.099121     1.305338    -1.209178
H     -2.219339    -0.711448     0.578222
C     -0.898752     1.277505    -0.064671
H     -1.228038     2.376946    -0.131799
H      0.077262     1.194716     0.697699
6
Family_3 [H][C]C([H])([H])[H] | RMSD: 0.3919 | 12628.00 to state    1 from traj    1 on state    2
C     -1.779946     0.204550     0.182442
H     -0.198301     1.386132    -0.981418
H     -2.606238    -0.554627    -0.036503
C     -0.897693     1.317413    -0.151879
H     -1.069218     2.669975    -0.164969
H      0.047929     1.118127     0.815429
6
Family_3 [H][C]C([H])([H])[H] | RMSD: 0.4828 | 2004.00 to state    1 from traj    1 on state    2
C     -1.744235     0.322856     0.157572
H     -0.653859     0.661539    -0.939029
H     -2.069841    -0.725621    -0.443918
C     -0.904619     1.317652    -0.083786
H     -1.350804     2.214428    -0.249810
H     -0.094312     1.056719     0.750271
6
Family_3 [H][C]C([H])([H])[H] | RMSD: 0.4721 | 6324.00 to state    1 from traj    1 on state    2
C     -1.861973     0.211868     0.112991
H     -0.051051     1.140546    -1.037313
H     -1.795358    -0.720100     0.705920
C     -0.910624     1.395473    -0.183532
H     -0.806836     2.334664     0.577257
H     -0.041092     0.847154     0.591387
6
Family_3 [H][C]C([H])([H])[H] | RMSD: 0.3456 | 3856.00 to state    1 from traj    1 on state    2
C     -1.749702     0.272952     0.173071
H     -0.350186     0.975509    -1.021212
H     -2.302740    -0.610295    -0.276524
C     -0.954614     1.270182    -0.105668
H     -0.758994     2.591341    -0.027396
H     -0.096028     1.410786     0.518700
6
Family_3 [H][C]C([H])([H])[H] | RMSD: 0.3904 | 5140.00 to state    1 from traj    1 on state    2
C     -1.701616     0.262836     0.193752
H     -0.236574     1.267419    -1.014516
H     -2.543974    -0.430598    -0.171623
C     -0.923779     1.300689    -0.127787
H     -1.219094     2.464522    -0.267717
H     -0.448706     0.823020     0.664552
6
Family_3 [H][C]C([H])([H])[H] | RMSD: 0.3285 | 5332.00 to state    1 from traj    1 on state    2
C     -1.756646     0.233008     0.114690
H     -0.473242     1.040571    -1.030187
H     -2.377602    -0.817023     0.095461
C     -0.884868     1.405755    -0.050235
H     -1.134058     2.210474    -0.626576
H     -0.271392     0.793831     0.789994
6
Family_3 [H][C]C([H])([H])[H] | RMSD: 0.3773 | 2788.00 to state    1 from traj    1 on state    2
C     -1.729274     0.252627     0.177699
H     -0.411759     1.257358    -1.281462
H     -2.671973    -0.837736    -0.113625
C     -0.881987     1.308653    -0.111052
H     -0.998296     2.588859    -0.254682
H     -0.534744     1.142631     0.852352
6
Family_3 [H][C]C([H])([H])[H] | RMSD: 0.3166 | 9176.00 to state    1 from traj    1 on state    2
C     -1.806756     0.236526     0.149201
H     -0.436677     1.109961    -0.948992
H     -2.139967    -0.675041    -0.181602
C     -0.899287     1.340941    -0.072960
H     -0.948474     2.369903    -0.521250
H      0.037746     1.153403     0.740107
6
Family_3 [H][C]C([H])([H])[H] | RMSD: 0.4421 | 9420.00 to state    1 from traj    1 on state    2
C     -1.715628     0.193869     0.002288
H     -0.394716     0.763230    -0.963984
H     -2.668562    -0.506030     0.556155
C     -0.932951     1.412521     0.060039
H     -1.064444     2.209328    -0.700227
H     -0.044374     1.147070     0.362114
6
Family_3 [H][C]C([H])([H])[H] | RMSD: 0.2812 | 10204.00 to state    1 from traj    1 on state    2
C     -1.788849     0.187388     0.088101
H     -0.622218     0.777843    -1.039871
H     -2.135134    -0.869773     0.368900
C     -0.910660     1.445609    -0.091290
H     -0.518802     2.372016    -0.015394
H     -0.289070     1.016479     0.721084
6
Family_3 [H][C]C([H])([H])[H] | RMSD: 0.3605 | 3612.00 to state    1 from traj    1 on state    2
C     -1.798205     0.208121     0.125752
H     -0.246270     1.562869    -1.056341
H     -2.417822    -0.575758     0.459749
C     -0.907531     1.324386    -0.161771
H     -0.863373     2.351091     0.056403
H      0.036434     1.155757     0.966105
6
Family_3 [H][C]C([H])([H])[H] | RMSD: 0.4815 | 5124.00 to state    1 from traj    1 on state    2
C     -1.801800     0.246233     0.057663
H     -0.270983     1.247596    -0.966296
H     -1.954032    -0.592415     0.770554
C     -0.867274     1.349191    -0.053125
H     -1.193100     2.547425    -0.413598
H     -0.509762     0.541659     0.551982
6
Family_3 [H][C]C([H])([H])[H] | RMSD: 0.3980 | 7048.00 to state    1 from traj    1 on state    2
C     -1.816648     0.212101     0.126600
H     -0.344614     1.476938    -1.256986
H     -2.453688    -0.708084     0.231083
C     -0.812567     1.325967    -0.072842
H     -1.262248     2.463775    -0.484709
H     -0.342288     1.195076     0.866769
6
Family_3 [H][C]C([H])([H])[H] | RMSD: 0.4202 | 9156.00 to state    1 from traj    1 on state    2
C     -1.759275     0.307099     0.104075
H     -0.412089     1.286387    -0.995619
H     -2.364714    -0.654262     0.216883
C     -0.869976     1.245796    -0.070361
H     -1.447550     2.553479    -0.406639
H     -0.178053     1.065421     0.780375
6
Family_3 [H][C]C([H])([H])[H] | RMSD: 0.3683 | 20652.00 to state    1 from traj    1 on state    2
C     -1.794893     0.216684     0.067236
H     -0.547542     1.033603    -1.159258
H     -2.327561    -0.554732     0.454714
C     -0.867187     1.334481    -0.085045
H     -1.086370     2.372605     0.058861
H     -0.049746     1.420162     0.854612
6
Family_3 [H][C]C([H])([H])[H] | RMSD: 0.2792 | 21260.00 to state    1 from traj    1 on state    2
C     -1.832548     0.234205     0.085171
H     -0.338590     1.283450    -1.206085
H     -2.147511    -0.791935     0.498878
C     -0.871328     1.327049    -0.083851
H     -0.896387     2.342330    -0.069845
H     -0.130710     1.317576     0.758045
6
Family_3 [H][C]C([H])([H])[H] | RMSD: 0.3486 | 1396.00 to state    1 from traj    1 on state    2
C     -1.821101     0.118521     0.072602
H     -0.318704     0.930635    -0.822579
H     -2.395173    -0.731235     0.491727
C     -0.856141     1.510066    -0.035554
H     -0.988718     2.293069    -0.495768
H     -0.127963     0.856629     0.381887
6
Family_3 [H][C]C([H])([H])[H] | RMSD: 0.3096 | 3040.00 to state    1 from traj    1 on state    2
C     -1.841992     0.114495     0.187110
H     -0.170341     1.324375    -1.256075
H     -2.552895    -0.738698     0.147316
C     -0.820565     1.449115    -0.165465
H     -0.971244     2.376176     0.102310
H     -0.311060     1.161507     0.745255
6
Family_3 [H][C]C([H])([H])[H] | RMSD: 0.4388 | 8688.00 to state    1 from traj    1 on state    2
C     -1.888356     0.183471     0.085428
H     -0.100727     1.600865    -1.335650
H     -2.125459    -0.907773     0.834372
C     -0.840761     1.350212    -0.098672
H     -0.719339     2.660807    -0.122655
H     -0.266917     1.126060     0.778453
6
Family_3 [H][C]C([H])([H])[H] | RMSD: 0.5259 | 13316.00 to state    1 from traj    1 on state    2
C     -1.773039     0.326207     0.082309
H     -0.461603     1.208797    -1.124587
H     -1.726300    -0.556107     0.662186
C     -0.877424     1.286564    -0.128201
H     -1.220958     2.031014     0.327633
H     -0.740784     0.853859     0.678327
6
Family_3 [H][C]C([H])([H])[H] | RMSD: 0.4780 | 13504.00 to state    1 from traj    1 on state    2
C     -1.812739     0.279111     0.149859
H     -0.357805     0.705734    -1.209714
H     -2.012998    -0.747598    -0.486367
C     -0.909172     1.323988    -0.016973
H     -1.158122     2.362082    -0.561792
H      0.230625     1.332593     0.671169
6
Family_3 [H][C]C([H])([H])[H] | RMSD: 0.4052 | 3636.00 to state    1 from traj    1 on state    2
C     -1.843500     0.224732     0.153821
H     -0.524663     0.967020    -1.025125
H     -2.034400    -0.639580    -0.243767
C     -0.880721     1.325614    -0.102316
H     -0.920549     2.479965    -0.161579
H      0.208832     1.473998     0.813468
6
Family_3 [H][C]C([H])([H])[H] | RMSD: 0.5031 | 5808.00 to state    1 from traj    1 on state    2
C     -1.752032     0.218242     0.054282
H     -0.310281     0.874401    -1.022946
H     -2.667322    -0.565243     0.551875
C     -0.887627     1.360642    -0.072638
H     -1.484012     2.608484    -0.067077
H      0.183237     1.023707     0.753596
6
Family_3 [H][C]C([H])([H])[H] | RMSD: 0.5468 | 6276.00 to state    1 from traj    1 on state    2
C     -1.747579     0.198742    -0.041456
H     -0.393922     0.606058    -0.728299
H     -2.421836    -0.421514     0.861767
C     -0.964094     1.384317     0.035531
H     -0.926290     2.486123    -0.321653
H      0.321751     1.220941     0.255508
6
Family_3 [H][C]C([H])([H])[H] | RMSD: 0.4325 | 3664.00 to state    1 from traj    1 on state    2
C     -1.807380     0.262122     0.079760
H     -0.225069     0.852511    -1.343156
H     -2.001566    -0.728303     0.598317
C     -0.879291     1.361654    -0.110284
H     -1.278580     2.323018     0.387434
H     -0.212991     0.959210     0.717838
6
Family_3 [H][C]C([H])([H])[H] | RMSD: 0.3980 | 4536.00 to state    1 from traj    1 on state    2
C     -1.755635     0.195671     0.149430
H     -0.253920     1.353701    -1.198160
H     -2.644756    -0.383280     0.216333
C     -0.864587     1.336530    -0.133879
H     -1.245236     2.312664     0.049771
H     -0.366083     1.214520     0.743466
6
Family_3 [H][C]C([H])([H])[H] | RMSD: 0.7404 | 884.00 to state    1 from traj    1 on state    2
C     -1.653841     0.099020     0.006559
H     -1.280469     0.773810    -0.806258
H     -2.592725     0.372127     0.306489
C     -0.941233     1.418487     0.018138
H     -0.530375     2.132107    -0.722462
H     -0.406076     1.394648     0.924660
6
Family_3 [H][C]C([H])([H])[H] | RMSD: 0.2983 | 3528.00 to state    1 from traj    1 on state    2
C     -1.815660     0.205791     0.096613
H     -0.137724     1.182341    -1.299600
H     -2.307852    -0.680906     0.537519
C     -0.887106     1.355906    -0.100235
H     -0.973263     2.444822     0.107494
H     -0.107587     1.199881     0.694467
6
Family_3 [H][C]C([H])([H])[H] | RMSD: 0.4156 | 5768.00 to state    1 from traj    1 on state    2
C     -1.837196     0.177062     0.143391
H     -0.558242     1.046908    -1.081176
H     -2.305724    -0.639610    -0.054005
C     -0.776378     1.396673    -0.081005
H     -1.426339     2.379588    -0.355801
H     -0.298906     1.215826     0.744336
6
Family_3 [H][C]C([H])([H])[H] | RMSD: 0.5150 | 6420.00 to state    1 from traj    1 on state    2
C     -1.813994     0.235396     0.144860
H     -0.552943     0.640008    -0.730572
H     -2.150682    -1.002955    -0.422353
C     -0.891598     1.394055    -0.026397
H     -0.910416     2.467934    -0.638244
H      0.121288     1.233819     0.376327
6
Family_3 [H][C]C([H])([H])[H] | RMSD: 0.4822 | 7140.00 to state    1 from traj    1 on state    2
C     -1.836934     0.211312     0.083099
H      0.015390     1.127359    -0.817500
H     -1.756599    -0.426952     0.734510
C     -0.931916     1.368993    -0.100434
H     -0.841505     2.501745     0.074814
H     -0.156268     0.722262     0.211448
6
Family_3 [H][C]C([H])([H])[H] | RMSD: 0.3565 | 13216.00 to state    1 from traj    1 on state    2
C     -1.832947     0.227002     0.076442
H     -0.150721     1.254656    -1.053389
H     -2.018685    -0.548262     0.671141
C     -0.889791     1.328470    -0.092712
H     -1.040360     2.523156    -0.029728
H     -0.078686     0.990772     0.602554
6
Family_3 [H][C]C([H])([H])[H] | RMSD: 0.4684 | 3244.00 to state    1 from traj    1 on state    2
C     -1.768712     0.202560     0.057704
H     -0.227432     0.873034    -0.883200
H     -2.496266    -0.411537     0.560597
C     -0.910132     1.368596    -0.078757
H     -1.291861     2.375059     0.121139
H      0.204084     1.196881     0.449035
6
Family_3 [H][C]C([H])([H])[H] | RMSD: 0.4470 | 6108.00 to state    1 from traj    1 on state    2
C     -1.819702     0.250045     0.147821
H     -0.378914     0.866448    -0.866366
H     -1.956561    -0.585518    -0.369053
C     -0.928969     1.316744    -0.038159
H     -0.822621     2.311725    -0.426243
H      0.178657     1.492819     0.351683
6
Family_3 [H][C]C([H])([H])[H] | RMSD: 0.3834 | 6268.00 to state    1 from traj    1 on state    2
C     -1.906575     0.094916     0.112132
H     -0.322772     1.238072    -0.847134
H     -2.362903    -0.817483     0.468951
C     -0.802820     1.459396    -0.130144
H     -0.912200     2.497622    -0.011546
H      0.150439     1.315927     0.601077
6
Family_3 [H][C]C([H])([H])[H] | RMSD: 0.3833 | 7180.00 to state    1 from traj    1 on state    2
C     -1.806608     0.233523     0.088490
H     -0.137319     1.205281    -0.956410
H     -2.044026    -0.550116     0.659248
C     -0.895830     1.344278    -0.105368
H     -1.088054     2.522933     0.005456
H     -0.260927     0.776159     0.489537
6
Family_3 [H][C]C([H])([H])[H] | RMSD: 0.3266 | 3468.00 to state    1 from traj    1 on state    2
C     -1.874616     0.095237     0.124195
H     -0.398266     1.020799    -1.003515
H     -2.068885    -0.921389     0.432365
C     -0.859678     1.516430    -0.121616
H     -0.410454     2.662383    -0.155869
H     -0.273141     0.788927     0.693006
6
Family_3 [H][C]C([H])([H])[H] | RMSD: 0.3703 | 1396.00 to state    1 from traj    1 on state    2
C     -1.822591     0.220810     0.154162
H     -0.003217     1.149399    -1.118652
H     -2.292420    -0.677588    -0.159589
C     -0.909406     1.334631    -0.029612
H     -0.945339     2.314973    -0.490753
H      0.062854     1.433907     0.281606
6
Family_3 [H][C]C([H])([H])[H] | RMSD: 0.3743 | 3520.00 to state    1 from traj    1 on state    2
C     -1.815008     0.217667     0.119144
H     -0.373652     1.152590    -0.907157
H     -2.399997    -0.834768     0.030351
C     -0.904108     1.330230    -0.060377
H     -0.719003     2.378121    -0.310755
H      0.161061     1.614634     0.484026
6
Family_3 [H][C]C([H])([H])[H] | RMSD: 0.4508 | 2680.00 to state    1 from traj    1 on state    2
C     -1.647689     0.249269     0.226727
H     -0.141736     1.338469    -0.989005
H     -2.741595    -0.284778    -0.179210
C     -0.974732     1.311546    -0.187784
H     -1.042204     2.397052     0.035892
H     -0.558255     0.705914     0.665009
6
Family_3 [H][C]C([H])([H])[H] | RMSD: 0.4312 | 2704.00 to state    2 from traj    2 on state    1
C     -1.654228     0.245683     0.212235
H     -0.090363     1.335098    -0.957578
H     -2.745723    -0.245015    -0.123283
C     -0.981921     1.305737    -0.171398
H     -1.031217     2.378225     0.016686
H     -0.452908     0.800291     0.574292
6
Family_3 [H][C]C([H])([H])[H] | RMSD: 0.3773 | 6740.00 to state    1 from traj    4 on state    2
C     -1.761859     0.274857     0.150031
H     -0.468787     0.789920    -0.911015
H     -2.054351    -0.558927    -0.272491
C     -0.910776     1.337998    -0.066940
H     -1.183024     2.276524    -0.330000
H     -0.179292     1.029042     0.520142
6
Family_3 [H][C]C([H])([H])[H] | RMSD: 0.4276 | 8104.00 to state    1 from traj    4 on state    2
C     -1.791911     0.261992     0.049052
H     -0.254235     1.124402    -0.950198
H     -2.047692    -0.422940     0.719719
C     -0.907547     1.278469    -0.068576
H     -1.132207     2.706986    -0.053887
H     -0.131710     0.990735     0.513723
6
Family_3 [H][C]C([H])([H])[H] | RMSD: 0.2971 | 9284.00 to state    1 from traj    4 on state    2
C     -1.788987     0.253702     0.107409
H     -0.374014     1.405270    -0.932915
H     -2.011960    -0.627867     0.439450
C     -0.937062     1.296279    -0.108022
H     -0.574637     2.554449    -0.220948
H     -0.288380     0.953893     0.718439
6
Family_3 [H][C]C([H])([H])[H] | RMSD: 0.3859 | 4548.00 to state    1 from traj    1 on state    2
C     -1.732770     0.218295     0.171442
H     -0.315091     1.499466    -0.989725
H     -2.694286    -0.531949     0.082726
C     -0.905555     1.312455    -0.148863
H     -1.007552     2.591579    -0.256673
H     -0.277353     0.955807     0.891345
6
Family_3 [H][C]C([H])([H])[H] | RMSD: 0.3090 | 6140.00 to state    1 from traj    1 on state    2
C     -1.771610     0.234991     0.123816
H     -0.642012     0.852387    -0.954329
H     -2.242182    -0.847030    -0.019017
C     -0.904038     1.389407    -0.089996
H     -0.901656     2.429627    -0.327503
H     -0.063701     0.964044     0.894582
6
Family_3 [H][C]C([H])([H])[H] | RMSD: 0.4752 | 6920.00 to state    1 from traj    1 on state    2
C     -1.771735     0.179565     0.080709
H     -0.304892     1.101549    -1.205087
H     -2.825512    -0.690731     0.535091
C     -0.884123     1.381565    -0.116932
H     -1.117673     2.291603     0.247783
H      0.162714     1.450487     0.850559
6
Family_3 [H][C]C([H])([H])[H] | RMSD: 0.4693 | 17072.00 to state    1 from traj    1 on state    2
C     -1.797375     0.346421     0.049615
H     -0.187374     1.145918    -1.350834
H     -1.860576    -0.866446     0.850147
C     -0.927027     1.249990    -0.107295
H     -1.022517     2.358456     0.438608
H     -0.198147     1.094577     0.746098
6
Family_3 [H][C]C([H])([H])[H] | RMSD: 0.4467 | 5308.00 to state    1 from traj    1 on state    2
C     -1.807294     0.250511     0.129994
H     -0.116362     1.143088    -1.331977
H     -2.398974    -0.724820     0.255469
C     -0.837295     1.336354    -0.110014
H     -1.572904     2.195423     0.149455
H     -0.131395     1.232567     0.685700
6
Family_3 [H][C]C([H])([H])[H] | RMSD: 0.3473 | 7380.00 to state    1 from traj    1 on state    2
C     -1.742862     0.226194     0.177299
H     -0.363246     1.236801    -1.171794
H     -2.558473    -0.581594     0.021814
C     -0.879455     1.332686    -0.157794
H     -1.089219     2.361210     0.151497
H     -0.474090     1.163291     0.762785
6
Family_3 [H][C]C([H])([H])[H] | RMSD: 0.3577 | 8484.00 to state    1 from traj    1 on state    2
C     -1.781991     0.170112     0.172740
H     -0.124369     1.447320    -0.895004
H     -2.569128    -0.435251     0.183711
C     -0.895732     1.359175    -0.162457
H     -0.947253     2.364415     0.065976
H     -0.184073     1.155852     0.519508
6
Family_3 [H][C]C([H])([H])[H] | RMSD: 0.4234 | 12500.00 to state    1 from traj    1 on state    2
C     -1.661453     0.245433     0.151645
H     -0.632704     0.768927    -1.151055
H     -2.558572    -0.464883    -0.043622
C     -0.922612     1.363053    -0.129603
H     -1.064317     2.346844     0.150159
H     -0.685233     0.937738     0.778583
6
Family_3 [H][C]C([H])([H])[H] | RMSD: 0.3866 | 19828.00 to state    1 from traj    1 on state    2
C     -1.802942     0.230453     0.162496
H     -0.650633     0.940793    -0.858478
H     -2.227255    -0.907478    -0.200336
C     -0.888859     1.343572    -0.125828
H     -0.675080     2.566374    -0.038868
H     -0.104116     1.399565     0.657466
6
Family_3 [H][C]C([H])([H])[H] | RMSD: 0.7186 | 1200.00 to state    1 from traj    1 on state    2
C     -1.882174     0.272066     0.126450
H     -0.836467     1.470684    -1.222692
H     -1.175870    -0.663998     0.492945
C     -0.795028     1.292100    -0.163341
H     -0.660373     2.328335     0.204001
H     -1.158328     0.981702     0.962043
6
Family_3 [H][C]C([H])([H])[H] | RMSD: 0.3367 | 1412.00 to state    1 from traj    1 on state    2
C     -1.831843     0.144407     0.074956
H     -0.601517     1.053544    -1.074566
H     -2.258216    -0.712727     0.469034
C     -0.869855     1.399843    -0.073287
H     -0.502177     2.661469    -0.172462
H     -0.177238     1.351752     0.754826
6
Family_3 [H][C]C([H])([H])[H] | RMSD: 0.4246 | 4788.00 to state    1 from traj    1 on state    2
C     -1.848066     0.218156     0.142406
H     -0.411347     1.060563    -0.916706
H     -1.909754    -0.858341    -0.248484
C     -0.911654     1.370400    -0.015072
H     -0.544034     2.426793    -0.870155
H      0.017360     1.197093     0.514801
6
Family_3 [H][C]C([H])([H])[H] | RMSD: 0.4828 | 8728.00 to state    1 from traj    1 on state    2
C     -1.715665     0.262023     0.173081
H     -0.609555     0.860393    -1.117452
H     -2.349240    -0.402283    -0.167144
C     -0.886242     1.335782    -0.168996
H     -1.404768     2.285797     0.251650
H     -0.364662     0.971993     0.980985
6
Family_3 [H][C]C([H])([H])[H] | RMSD: 0.3944 | 12324.00 to state    1 from traj    1 on state    2
C     -1.876945     0.144173     0.159763
H     -0.261060     1.370141    -1.324507
H     -2.520033    -0.951818     0.113022
C     -0.799215     1.380904    -0.105865
H     -0.920307     2.729573    -0.250744
H     -0.142052     1.434595     0.816711
6
Family_3 [H][C]C([H])([H])[H] | RMSD: 0.2856 | 16864.00 to state    1 from traj    1 on state    2
C     -1.770115     0.237931     0.126013
H     -0.445766     1.340231    -0.999976
H     -2.361712    -0.634887     0.155370
C     -0.881399     1.327096    -0.083691
H     -1.030442     2.327904    -0.432556
H     -0.299199     1.073221     0.769584
6
Family_3 [H][C]C([H])([H])[H] | RMSD: 0.4737 | 20700.00 to state    1 from traj    1 on state    2
C     -1.720242     0.225554     0.162240
H     -0.284660     0.964352    -0.791548
H     -2.625752    -0.429962    -0.064352
C     -0.983450     1.313153    -0.160710
H     -0.765695     2.417831     0.389045
H      0.160709     1.467868     0.445344
6
Family_3 [H][C]C([H])([H])[H] | RMSD: 0.4729 | 27300.00 to state    1 from traj    1 on state    2
C     -1.704211     0.224833    -0.027402
H     -0.681791     0.727554    -1.241126
H     -2.483904    -0.213376     0.669121
C     -0.945593     1.326223     0.031712
H     -0.960987     2.235258    -0.262512
H     -0.030824     1.523507     0.779876
6
Family_3 [H][C]C([H])([H])[H] | RMSD: 0.5313 | 3052.00 to state    1 from traj    1 on state    2
C     -1.824786     0.261425     0.135184
H     -0.134039     1.228900    -1.184683
H     -1.571448    -0.724903     0.636075
C     -0.955401     1.353895    -0.202518
H     -0.449868     2.227960     0.684314
H     -0.448546     0.775237     0.663337
6
Family_3 [H][C]C([H])([H])[H] | RMSD: 0.3119 | 4576.00 to state    1 from traj    1 on state    2
C     -1.781993     0.214268     0.123360
H     -0.658338     0.940857    -1.231838
H     -2.318984    -0.708215     0.020659
C     -0.875855     1.365957    -0.094674
H     -0.908849     2.398899    -0.135728
H     -0.175480     1.293820     1.001811
6
Family_3 [H][C]C([H])([H])[H] | RMSD: 0.3783 | 5556.00 to state    1 from traj    1 on state    2
C     -1.781164     0.223602     0.124278
H     -0.237430     1.041557    -0.919287
H     -2.291937    -0.541952    -0.027206
C     -0.896786     1.367452    -0.023576
H     -1.218827     2.329357    -0.700743
H     -0.073930     0.967372     0.444020
6
Family_3 [H][C]C([H])([H])[H] | RMSD: 0.3145 | 3048.00 to state    2 from traj    3 on state    1
C     -1.746375     0.298676     0.148836
H     -0.181613     1.175811    -1.108092
H     -2.436389    -0.686148     0.017146
C     -0.953565     1.251360    -0.118993
H     -1.026600     2.537714     0.012458
H      0.084501     1.257717     0.719604
6
Family_3 [H][C]C([H])([H])[H] | RMSD: 0.4181 | 10264.00 to state    1 from traj    4 on state    2
C     -1.812455     0.174250     0.038610
H     -0.410461     0.921852    -0.906762
H     -2.500913    -0.714391     0.591264
C     -0.854740     1.390751    -0.030444
H     -1.100257     2.564863    -0.236683
H      0.061352     1.334451     0.451602
6
Family_3 [H][C]C([H])([H])[H] | RMSD: 0.3995 | 1440.00 to state    1 from traj    1 on state    2
C     -1.779126     0.227743     0.080844
H     -0.461930     0.855801    -0.808209
H     -2.105115    -0.725059     0.593928
C     -0.922150     1.382486    -0.137444
H     -0.790976     2.541132     0.329619
H     -0.186156     0.895988     0.555807
6
Family_3 [H][C]C([H])([H])[H] | RMSD: 0.3922 | 2220.00 to state    1 from traj    1 on state    2
C     -1.752928     0.223653     0.149613
H     -0.276505     1.156736    -0.963434
H     -2.729644    -0.776823     0.086019
C     -0.881196     1.331006    -0.109860
H     -1.135773     2.710688    -0.156791
H     -0.202424     1.139407     0.557247
6
Family_3 [H][C]C([H])([H])[H] | RMSD: 0.4187 | 5688.00 to state    1 from traj    1 on state    2
C     -1.801428     0.253440     0.165834
H     -0.592952     0.753784    -1.096565
H     -2.175372    -0.829818    -0.386606
C     -0.873675     1.342302    -0.094665
H     -1.055743     2.408847    -0.111216
H     -0.031985     1.407660     0.743077
6
Family_3 [H][C]C([H])([H])[H] | RMSD: 0.4061 | 6660.00 to state    1 from traj    1 on state    2
C     -1.841586     0.235447     0.076451
H     -0.335202     1.226528    -1.040860
H     -1.741490    -0.700566     0.757291
C     -0.882347     1.356644    -0.114984
H     -0.819542     2.499250     0.040525
H     -0.377971     0.758777     0.698908
6
Family_3 [H][C]C([H])([H])[H] | RMSD: 0.3990 | 6904.00 to state    1 from traj    1 on state    2
C     -1.881986     0.152241     0.106524
H     -0.290865     1.434101    -0.830406
H     -2.356089    -0.849250     0.547869
C     -0.808875     1.394667    -0.123530
H     -0.981929     2.406496    -0.034906
H     -0.039398     1.331019     0.516803
6
Family_3 [H][C]C([H])([H])[H] | RMSD: 0.4039 | 3788.00 to state    1 from traj    1 on state    2
C     -1.750310     0.238222     0.008744
H     -0.262022     0.798024    -1.057195
H     -2.320103    -0.367572     0.665480
C     -0.948462     1.320111     0.009898
H     -1.045504     2.472574    -0.196093
H      0.053608     1.283203     0.362390
6
Family_3 [H][C]C([H])([H])[H] | RMSD: 0.3053 | 3976.00 to state    2 from traj    3 on state    1
C     -1.777395     0.281759     0.097530
H     -0.354122     1.276471    -0.955810
H     -2.256957    -0.786097     0.436725
C     -0.908777     1.270655    -0.101408
H     -0.865706     2.501096     0.024647
H     -0.247370     1.265292     0.537358
6
Family_3 [H][C]C([H])([H])[H] | RMSD: 0.3861 | 7552.00 to state    1 from traj    1 on state    2
C     -1.721470     0.311016     0.056577
H     -0.427963     0.976164    -0.999465
H     -2.242687    -0.526632     0.585708
C     -0.935999     1.254473    -0.085272
H     -1.143176     2.629677     0.115180
H     -0.252351     1.021752     0.637217
6
Family_3 [H][C]C([H])([H])[H] | RMSD: 0.4634 | 13664.00 to state    1 from traj    7 on state    2
C     -1.879382     0.174066     0.071279
H     -0.375209     1.288388    -0.941391
H     -1.873071    -0.757526     0.816868
C     -0.793645     1.444449    -0.099470
H     -1.166851     2.263945    -0.178924
H     -0.465661     0.674313     0.636073
6
Family_3 [H][C]C([H])([H])[H] | RMSD: 0.3896 | 2444.00 to state    1 from traj    1 on state    2
C     -1.791549     0.174243     0.033860
H     -0.574663     0.926750    -0.979228
H     -2.397958    -0.519818     0.489715
C     -0.902757     1.396445    -0.035463
H     -0.943295     2.388478    -0.388916
H      0.288688     1.243604     0.894250
6
Family_3 [H][C]C([H])([H])[H] | RMSD: 0.4299 | 3196.00 to state    1 from traj    1 on state    2
C     -1.858154     0.224023     0.104580
H     -0.423975     1.392480    -0.995994
H     -1.565233    -0.685672     0.613284
C     -0.903217     1.357491    -0.139786
H     -0.432107     2.369959     0.009379
H     -0.406788     0.833247     0.789542
6
Family_3 [H][C]C([H])([H])[H] | RMSD: 0.4037 | 6644.00 to state    1 from traj    1 on state    2
C     -1.822398     0.131017     0.044665
H     -0.557013     0.966502    -1.170990
H     -2.498287    -0.536823     0.452057
C     -0.811462     1.432377    -0.005491
H     -1.207780     2.333563    -0.503440
H     -0.084407     1.362689     0.752305
6
Family_3 [H][C]C([H])([H])[H] | RMSD: 0.3732 | 7896.00 to state    1 from traj    1 on state    2
C     -1.754250     0.176432     0.046798
H     -0.458223     0.831336    -0.892004
H     -2.492153    -0.419900     0.412667
C     -0.918770     1.413218    -0.024453
H     -1.073319     2.337236    -0.436834
H      0.142828     1.064403     0.646633
6
Family_3 [H][C]C([H])([H])[H] | RMSD: 0.4314 | 4056.00 to state    1 from traj    1 on state    2
C     -1.785851     0.153144     0.010375
H     -0.652537     0.835237    -1.070143
H     -2.481508    -0.479877     0.546501
C     -0.877549     1.385827     0.019200
H     -0.851788     2.618108    -0.513108
H     -0.009662     1.443466     0.681064
6
Family_3 [H][C]C([H])([H])[H] | RMSD: 0.4318 | 4848.00 to state    1 from traj    1 on state    2
C     -1.839088     0.248378     0.087033
H     -0.313290     1.338508    -1.289099
H     -1.623641    -0.565913     0.710381
C     -0.912108     1.308296    -0.121714
H     -0.565501     2.461326     0.163733
H     -0.446919     0.972079     0.824950
6
Family_3 [H][C]C([H])([H])[H] | RMSD: 0.3854 | 5608.00 to state    1 from traj    1 on state    2
C     -1.775702     0.183488     0.145841
H     -0.157732     0.960467    -1.095892
H     -2.518051    -0.534393     0.081386
C     -0.861370     1.417743    -0.089736
H     -1.438724     2.368415    -0.210037
H     -0.194707     0.880582     0.552732
6
Family_3 [H][C]C([H])([H])[H] | RMSD: 0.2884 | 3456.00 to state    1 from traj    1 on state    2
C     -1.785336     0.241601     0.153593
H     -0.473640     0.823249    -1.171293
H     -2.172658    -0.916807    -0.093628
C     -0.908939     1.361124    -0.102046
H     -0.671669     2.483453     0.036001
H     -0.309628     1.267378     0.611417
6
Family_3 [H][C]C([H])([H])[H] | RMSD: 0.3981 | 5068.00 to state    1 from traj    1 on state    2
C     -1.854154     0.162681     0.169416
H     -0.353523     0.923175    -0.834056
H     -2.252188    -0.768739    -0.219671
C     -0.834162     1.418738    -0.084404
H     -1.092424     2.602960    -0.400415
H     -0.000471     1.153746     0.437889
6
Family_3 [H][C]C([H])([H])[H] | RMSD: 0.4860 | 12656.00 to state    1 from traj    1 on state    2
C     -1.836033     0.097029     0.180650
H      0.079089     1.124629    -1.283783
H     -2.624753    -0.559571     0.311488
C     -0.856375     1.442982    -0.194633
H     -0.979055     2.598872     0.603381
H     -0.125129     1.240626     0.532249
6
Family_3 [H][C]C([H])([H])[H] | RMSD: 0.3822 | 13168.00 to state    1 from traj    4 on state    2
C     -1.790112     0.228857     0.100677
H     -0.224931     1.265489    -1.135394
H     -2.543500    -0.705926     0.208109
C     -0.867932     1.331269    -0.028232
H     -1.276627     2.391196    -0.607650
H     -0.014250     1.214102     0.668426
6
Family_3 [H][C]C([H])([H])[H] | RMSD: 0.3993 | 15604.00 to state    1 from traj    4 on state    2
C     -1.781823     0.245655     0.062992
H     -0.148619     1.054975    -1.170809
H     -2.315109    -0.417398     0.539724
C     -0.921671     1.282003    -0.059349
H     -1.093807     2.474965     0.114001
H      0.039778     1.439201     0.470399
6
Family_3 [H][C]C([H])([H])[H] | RMSD: 0.4218 | 16152.00 to state    1 from traj    1 on state    2
C     -1.767253     0.336684     0.105889
H     -0.525655     1.090744    -0.975999
H     -2.115189    -0.694388    -0.149371
C     -0.924298     1.247747    -0.029882
H     -1.197476     2.122264    -0.578357
H      0.178257     1.356639     0.794768
6
Family_3 [H][C]C([H])([H])[H] | RMSD: 0.4718 | 7716.00 to state    1 from traj    1 on state    2
C     -1.684907     0.244051     0.191901
H     -0.308939     1.493776    -1.191429
H     -2.729630    -0.187754    -0.019064
C     -0.932649     1.253030    -0.182284
H     -1.061917     2.412398     0.164066
H     -0.441270     1.197662     0.928560
6
Family_3 [H][C]C([H])([H])[H] | RMSD: 0.4060 | 7904.00 to state    1 from traj    1 on state    2
C     -1.779510     0.229436     0.088960
H     -0.178273     0.886486    -0.946285
H     -2.210205    -0.680197     0.439953
C     -0.978316     1.358127    -0.101114
H     -0.550392     2.222224     0.387845
H      0.068522     1.409421     0.260027
6
Family_3 [H][C]C([H])([H])[H] | RMSD: 0.4859 | 8960.00 to state    2 from traj    3 on state    1
C     -1.803681     0.285976     0.168503
H     -0.420286     0.836108    -0.861977
H     -2.108850    -0.790336    -0.380217
C     -0.933693     1.274906    -0.107777
H     -0.835208     2.500536     0.052709
H      0.250288     1.609550     0.462606
6
Family_3 [H][C]C([H])([H])[H] | RMSD: 0.3853 | 9204.00 to state    1 from traj    1 on state    2
C     -1.769321     0.272432     0.135869
H     -0.218103     1.247968    -0.928328
H     -2.374405    -0.523826     0.153512
C     -0.943385     1.242020    -0.134391
H     -0.970156     2.614444     0.130538
H      0.154679     1.370516     0.623386
6
Family_3 [H][C]C([H])([H])[H] | RMSD: 0.4745 | 10256.00 to state    1 from traj    1 on state    2
C     -1.841008     0.295537     0.150453
H     -0.441740     1.783813    -0.888019
H     -2.170544    -0.822839     0.104612
C     -0.845940     1.196009    -0.127198
H     -0.954068     2.430208    -0.233414
H     -0.148548     1.590857     0.736445
6
Family_3 [H][C]C([H])([H])[H] | RMSD: 0.4194 | 10480.00 to state    1 from traj    4 on state    2
C     -1.819720     0.140109     0.188492
H     -0.046959     1.190496    -1.027449
H     -2.537911    -0.541520     0.134552
C     -0.880743     1.427300    -0.208383
H     -1.120404     2.352077     0.400529
H      0.151405     1.077034     0.726094
6
Family_3 [H][C]C([H])([H])[H] | RMSD: 0.3665 | 11468.00 to state    1 from traj    1 on state    2
C     -1.857792     0.184234     0.108463
H     -0.295590     1.287571    -1.142562
H     -2.358594    -0.751822     0.323586
C     -0.827865     1.332236    -0.073236
H     -0.955915     2.561968    -0.138026
H     -0.120188     1.587336     0.533966
6
Family_3 [H][C]C([H])([H])[H] | RMSD: 0.4650 | 11692.00 to state    1 from traj    4 on state    2
C     -1.771933     0.277280     0.089933
H     -0.587242     1.502693    -1.210120
H     -2.429715    -0.743072     0.338042
C     -0.826775     1.278639    -0.059482
H     -1.337510     2.275963    -0.541991
H     -0.411870     1.179408     1.047948
