12
-230.26494 frame 0   xyz file generated by terachem
   C       0.4784661660   -1.0871478632   -0.2548920589
   C       1.6347400792   -0.8758665446    0.5510472436
   C       2.4362320768    0.2041756315    0.0083563985
   C       1.7781803559    1.4722785107    0.0266957508
   C       0.4113335661    1.4064818848    0.1401197274
   C      -0.2064636696    0.1390015135   -0.0570224659
   H      -0.0518958554   -2.0092368041   -0.3812669723
   H       1.7277349848   -1.2251305996    1.5690651574
   H       2.8636124768   -0.0255500102   -0.9636027961
   H       2.2736948205    2.3861786481   -0.2478629004
   H      -0.2080827373    2.2827385167    0.1861610885
   H      -1.2831416758    0.0920167354   -0.0052082858
