12
-230.26519 frame 0   xyz file generated by terachem
   C       0.4351645562   -0.8850210881   -0.1234410606
   C       1.8232766716   -0.8820645786    0.1934452940
   C       2.4918134630    0.3152725893    0.1144533529
   C       1.6475726902    1.4607038776    0.0016653293
   C       0.2844626904    1.2223870894    0.4359866961
   C      -0.3449584233    0.2645961341   -0.4114314194
   H      -0.0828310716   -1.8311907195   -0.0992985389
   H       2.3311557796   -1.8225847237    0.2998672804
   H       3.5494923114    0.3537859146   -0.0751107342
   H       1.7156249324    1.9398405929   -0.9703193738
   H      -0.0696145264    1.4679857821    1.4267637725
   H      -1.3937464965    0.1874521309   -0.6153148734
