12
-230.26577 frame 0   xyz file generated by terachem
   C       0.2904832190   -0.8512774765    0.0231926506
   C       1.6895793361   -0.9602677321    0.2489199238
   C       2.4644213841    0.1346541591   -0.0452623441
   C       1.7381324494    1.3510347114   -0.2690492987
   C       0.3949397675    1.3333159756    0.2727641328
   C      -0.3922830535    0.3301295921   -0.3566929983
   H      -0.3149243099   -1.7270504623    0.1983901878
   H       2.1079165731   -1.9272563253    0.4565037659
   H       3.5038701797    0.0316429523   -0.3014824385
   H       1.7333775605    1.5817651500   -1.3343324082
   H       0.1296408514    1.8035527451    1.2085648956
   H      -1.4552732614    0.3414858765   -0.4913478076
