12
-230.29924 frame 0   xyz file generated by terachem
   C       0.2760477829   -1.0818786446   -0.1388539148
   C       1.6364134623   -1.0008250037    0.0466562382
   C       2.1794707871    0.3352327702    0.2901167172
   C       1.7259367830    1.4738545017   -0.4956340471
   C       0.5256464009    1.2757142859    0.3037345287
   C      -0.3481932307    0.1281474835    0.0590047138
   H      -0.2414561889   -1.9901380183   -0.3711634007
   H       2.2926603765   -1.8515849793    0.0406802906
   H       2.9934442155    0.4673768945    0.9801235769
   H       2.2558374670    2.4017899685   -0.4944534773
   H       0.2317668702    2.0367472869    1.0041318025
   H      -1.4149429198    0.2559585408    0.0734167721
