12
-230.29889 frame 0   xyz file generated by terachem
   C       0.3901433675   -0.7242131022   -0.4029737047
   C       1.7995668332   -0.9189515147   -0.0633127170
   C       2.5108748259    0.2125882657    0.2616487085
   C       1.7719575344    1.3593588218    0.0841317290
   C       0.3675140677    1.1760028228   -0.2812721982
   C      -0.4441083668    0.1693713323    0.3871429861
   H      -0.0634225335   -1.3143891021   -1.1788867490
   H       2.2261719448   -1.9045102653   -0.0971568659
   H       3.5360618590    0.2050380662    0.5710233288
   H       2.1750542794    2.3510215469    0.1770391805
   H      -0.1014646411    1.8505665141   -0.9748862130
   H      -1.5098484895    0.1612547724    0.3093604810
