12
-230.29171 frame 0   xyz file generated by terachem
   C       0.3884614813   -0.9456309339    0.0613711863
   C       1.7820307382   -0.9523149087   -0.1261964708
   C       2.4377548326    0.2596256749   -0.2562397543
   C       1.7045818422    1.4592262701    0.1515877835
   C       0.2574973525    1.4461642243   -0.0714569667
   C      -0.3867432411    0.2279808288    0.0553606277
   H      -0.1230251345   -1.8918778281    0.1017477697
   H       2.2795070998   -1.8882473897   -0.3157829492
   H       3.4624934936    0.2898005387   -0.5880122101
   H       1.5428167849    1.0057263679    1.1647184014
   H      -0.3090397070    2.3418275587   -0.2644088747
   H      -1.4586375083    0.1455248280   -0.0031673508
