12
-230.29173 frame 0   xyz file generated by terachem
   C       0.3353315515   -1.0188214449    0.1273136626
   C       1.7709260963   -1.0049267862   -0.1529235326
   C       2.4425349735    0.1871884732    0.0629618418
   C       1.6891900869    1.3663774148    0.1937012497
   C       0.2893981111    1.4087445957    0.0544308064
   C      -0.3935931066    0.2231599429   -0.1445178525
   H       0.5399975976   -0.6556527964    1.1688698144
   H       2.3121853927   -1.8844234857   -0.4599140017
   H       3.5126539164    0.2586264453   -0.0302388548
   H       2.2177398605    2.2988648934    0.2902930932
   H      -0.1964667979    2.3643572298   -0.0417327532
   H      -1.4344983580    0.2358545921   -0.4216743833
