12
-230.26499 frame 0   xyz file generated by terachem
   C       0.4714003288   -0.9027427218   -0.4539846155
   C       1.7056779952   -1.0719296607    0.2369501207
   C       2.3561430705    0.1486883572   -0.0761329456
   C       1.7104834542    1.4031245342   -0.2623518130
   C       0.3605603785    1.4657011086   -0.0175266152
   C      -0.2809409911    0.1953168149    0.1208537084
   H       0.2741673441   -1.3023212114   -1.4380806416
   H       2.2549019914   -1.9848606555    0.3492651828
   H       3.4237616650    0.1068560845   -0.2263141552
   H       2.3130763241    2.2793651460   -0.4124776355
   H      -0.1133092214    2.3869795525    0.2705718230
   H      -0.5899161943    0.0070106075    1.1457915337
