12
-230.26506 frame 0   xyz file generated by terachem
   C       0.2842498840   -0.7481369930    0.0100616064
   C       1.6756205257   -0.9419847803    0.2283008470
   C       2.5137679389    0.1093692925   -0.0525656501
   C       1.8566984520    1.3648381130   -0.2619606935
   C       0.5158442789    1.4195019246    0.2849146440
   C      -0.3274905880    0.4743322907   -0.3640239866
   H      -0.3720554759   -1.5869356765    0.1834274250
   H       2.0365495016   -1.9317714819    0.4363476896
   H       3.5433747685   -0.0525159050   -0.3174641571
   H       1.8813217676    1.6393807162   -1.3150675720
   H       0.2838943037    1.8765387559    1.2359683375
   H      -1.3867163590    0.5510124069   -0.5054498293
