12
-230.26538 frame 0   xyz file generated by terachem
   C       0.2815881613   -1.0269143190   -0.0191102117
   C       1.7016173397   -0.9272462817    0.1395570389
   C       2.2622531127    0.2951757446   -0.3998561669
   C       1.7574682181    1.4287198140    0.2963144135
   C       0.3786446795    1.3602818216   -0.0252655295
   C      -0.3601794339    0.1659156677   -0.2468108581
   H      -0.2660198907   -1.9151912952    0.2409930698
   H       1.9818391352   -1.0834144076    1.1797809284
   H       2.7389304300    0.3488816967   -1.3679530294
   H       2.2536724826    2.3678476609    0.4365217807
   H      -0.1367303767    2.2996767895   -0.1528041008
   H      -1.4200590648    0.2332630824   -0.4059609388
