12
-230.29172 frame 0   xyz file generated by terachem
   C       0.3842589911   -0.9757762463    0.0767682812
   C       1.7777874493   -1.0095485056   -0.1083917860
   C       2.4552797127    0.1881578401   -0.2572275936
   C       1.7428100798    1.4065761025    0.1307935751
   C       0.2956983645    1.4160329235   -0.0926451246
   C      -0.3697704671    0.2115806076    0.0513310156
   H      -0.1444997283   -1.9119879696    0.1231751538
   H       2.2587747210   -1.9572936171   -0.2800155367
   H       3.4804894255    0.1943012517   -0.5881683510
   H       1.5721017170    0.9719118693    1.1509815299
   H      -0.2550444741    2.3188145590   -0.2980938517
   H      -1.4427749805    0.1479778710   -0.0085543680
