12
-230.29906 frame 0   xyz file generated by terachem
   C       0.5507512438   -0.8294044539    0.1001934208
   C       1.7349143316   -0.9813198597   -0.7327463571
   C       2.2083677378    0.1059981913    0.1111701996
   C       1.6645184500    1.4556933680   -0.0423722670
   C       0.3013698871    1.5503508732   -0.1994672198
   C      -0.3231680235    0.3328845340   -0.0579172798
   H       0.2667945558   -1.6310231416    0.7583120834
   H       2.2593032902   -1.9094408075   -0.8049079572
   H       3.0332078119   -0.0693545129    0.7782892938
   H       2.3226515788    2.3045057996   -0.0089257278
   H      -0.2170229157    2.4717891036   -0.3693155905
   H      -1.3900591689    0.2058601969   -0.0371094092
