12
-230.26457 frame 0   xyz file generated by terachem
   C       0.2927001196   -0.8817927945   -0.2067711087
   C       1.7039273113   -0.8527964551   -0.0190846781
   C       2.4648776882    0.2969865059    0.3213849121
   C       1.7279019438    1.3006901287   -0.3741294787
   C       0.4012618489    1.4347564489    0.1989826325
   C      -0.4086262693    0.2716627730    0.0466605596
   H      -0.1891047400   -1.8297904155   -0.3582693596
   H       2.2532468639   -1.7643833613   -0.1956824662
   H       3.5305148149    0.2464690032    0.4173615086
   H       1.9730027980    1.6390889913   -1.3704485719
   H       0.3904694298    1.8426169589    1.2039561237
   H      -1.4473635633    0.2461674366    0.3228871827
