12
-230.26409 frame 0   xyz file generated by terachem
   C       0.3262054160   -0.9384612611    0.1239369863
   C       1.7473196900   -1.0170917197    0.0487762578
   C       2.3717169937    0.1872978663   -0.1642804166
   C       1.5960987263    1.3714452141   -0.0062101474
   C       0.2024890170    1.4104033786    0.2623203452
   C      -0.2277111337    0.2642747740   -0.4707595889
   H      -0.0744947902   -1.1767392445    1.1032527018
   H       2.2991068062   -1.8890783277    0.3503447096
   H       3.4378166049    0.2762746973   -0.2614828802
   H       2.0903061106    2.3192121253   -0.1526617097
   H      -0.3237380480    2.3371979872    0.3678139651
   H      -0.5929382377    0.3043957853   -1.4864339881
