12
-230.29894 frame 0   xyz file generated by terachem
   C       0.2800483272   -0.8985781713    0.0011405074
   C       1.6904486192   -0.7273821848   -0.3473795204
   C       2.5228897727    0.2166305633    0.3840001563
   C       1.7137239867    1.1767277534   -0.3524081755
   C       0.3077011374    1.3843052622   -0.0063052250
   C      -0.4319976021    0.2525972864    0.2462089351
   H      -0.1462353328   -1.8842110356    0.0352324190
   H       2.1466693507   -1.3699319111   -1.0788657939
   H       3.5887493551    0.2035246977    0.3081061398
   H       2.1856492667    1.8034689768   -1.0878095009
   H      -0.0939161315    2.3805220668    0.0232790590
   H      -1.4591605033    0.2661297791    0.5487523720
