12
-230.26471 frame 0   xyz file generated by terachem
   C       0.4243163047   -0.8972926110   -0.3482043930
   C       1.6716698158   -1.0523428408    0.3234832503
   C       2.3257072867    0.1472613081   -0.0587815359
   C       1.6871997491    1.4001513531   -0.2799303643
   C       0.3446231576    1.4874328827   -0.0051225444
   C      -0.3042732637    0.2313160461    0.1988622041
   H       0.2074229366   -1.3258943222   -1.3157636464
   H       2.2145083616   -1.9652846581    0.4621156641
   H       3.3869067268    0.0851997490   -0.2434707004
   H       2.2959496456    2.2646245071   -0.4694614249
   H      -0.1138935594    2.4250467075    0.2533444197
   H      -0.6120209573    0.0868578194    1.2303520622
