12
-230.29169 frame 0   xyz file generated by terachem
   C       0.3351825609   -1.0106499996   -0.2291027067
   C       1.7370937197   -0.9676938406   -0.1152444806
   C       2.4693654821    0.2302107538   -0.0444322533
   C       1.7771191187    1.4290037934   -0.0191304635
   C       0.3471752967    1.3629384147    0.2848134935
   C      -0.3696148741    0.1788836923   -0.1955254928
   H      -0.1420817879   -1.9414173775   -0.4833590384
   H       2.2809558640   -1.8920721024   -0.2025515269
   H       3.5388377508    0.1957261037   -0.1607865478
   H       2.2982167589    2.3606747925   -0.1639907265
   H       0.5822961661    0.8190295391    1.2374051072
   H      -1.4153882860    0.1984431465   -0.4537248892
