12
-230.29894 frame 0   xyz file generated by terachem
   C       0.2762520316   -0.9803477739   -0.0135148398
   C       1.7207999119   -0.7721961080    0.0878093578
   C       2.3762865947    0.2563970930   -0.7070440338
   C       1.6869722283    1.1262888896    0.2346123479
   C       0.2359018356    1.2959348575    0.1620629887
   C      -0.5030571226    0.1528604681   -0.0349718173
   H      -0.1192478522   -1.9786019498   -0.0495920078
   H       2.3229595799   -1.4438390595    0.6730267865
   H       3.4380411857    0.2833858478   -0.8240930296
   H       2.2660373392    1.7243548018    0.9150732162
   H      -0.1941090093    2.2736598169    0.2792825551
   H      -1.5685257177    0.1418892995   -0.1428822438
