12
-230.29170 frame 0   xyz file generated by terachem
   C       0.3689751650   -0.9516835891   -0.0934186648
   C       1.7678429870   -1.0093556526    0.0455891571
   C       2.4708483322    0.1762476301    0.1642129851
   C       1.7657677546    1.4074093580   -0.1996481652
   C       0.3289703737    1.4408288342    0.0765074579
   C      -0.3627570814    0.2480662032   -0.0483362249
   H      -0.1774180058   -1.8786809124   -0.1223479988
   H       2.2372406637   -1.9649268345    0.2065470637
   H       3.5089460447    0.1638182909    0.4516369762
   H       1.5540882142    0.9742757623   -1.2128769302
   H      -0.1974330360    2.3511116585    0.3104432165
   H      -1.4343905048    0.2026364704    0.0445539554
