12
-230.26496 frame 0   xyz file generated by terachem
   C       0.4705554494   -0.8510683177    0.5732214719
   C       1.6145185571   -1.0869620675   -0.2429393363
   C       2.3137097051    0.1357997325   -0.0731435499
   C       1.7107543539    1.4117877521    0.1112734966
   C       0.3430386295    1.4888318361    0.0119417806
   C      -0.3272720633    0.2275367623    0.0221680368
   H       0.3886831608   -1.1784325273    1.5995729702
   H       2.1351778191   -2.0160398536   -0.3581632099
   H       3.3904771734    0.0791761534   -0.0352367013
   H       2.3389815507    2.2825057105    0.1372412383
   H      -0.1475243456    2.4022296576   -0.2730897758
   H      -0.7702978631   -0.0133779154   -0.9399351173
