12
-230.29906 frame 0   xyz file generated by terachem
   C       0.4076674376   -0.7667413784    0.4474391765
   C       1.7780521638   -0.9687344992   -0.0229264885
   C       2.4547014497    0.1569263383   -0.4318395879
   C       1.7349794906    1.3068185918   -0.2040902105
   C       0.3714433243    1.1304325931    0.2955053627
   C      -0.4996224162    0.1130932816   -0.2749043833
   H       0.0301795757   -1.3451412088    1.2714779732
   H       2.2071551228   -1.9537830190   -0.0124078501
   H       3.4465459501    0.1436970484   -0.8353572010
   H       2.1254474010    2.2966360263   -0.3535235973
   H      -0.0303843916    1.8180791835    1.0178013739
   H      -1.5523036540    0.1075234635   -0.0910962517
