12
-230.29903 frame 0   xyz file generated by terachem
   C       0.3396546628   -0.8955538806   -0.7471999096
   C       1.5507945372   -0.8165439332    0.0566620704
   C       2.4348696456    0.3445014364   -0.0457007055
   C       1.8225037665    1.5758635379   -0.0817902467
   C       0.4634660407    1.4856425425    0.1105700369
   C      -0.0928259240    0.1348224283    0.1857899678
   H      -0.2001509623   -1.8104371329   -0.8635018386
   H       1.8422109723   -1.6651622635    0.6491424438
   H       3.5003217446    0.2061545336   -0.0638081185
   H       2.3488908316    2.5011073399   -0.1980407647
   H      -0.1821345405    2.3367684818    0.2264456143
   H      -0.8985255684   -0.0789939641    0.8649625095
