12
-230.29173 frame 0   xyz file generated by terachem
   C       0.3654087321   -1.0237058973   -0.0992305870
   C       1.8108079485   -1.0080894188    0.1367154579
   C       2.4642302695    0.1974601969   -0.0467981211
   C       1.6975217813    1.3744333042   -0.1232993232
   C       0.3021951440    1.3997418422    0.0487037017
   C      -0.3631211091    0.2006353651    0.2372226529
   H       0.5400796851   -0.6257875972   -1.1336802419
   H       2.3692482891   -1.8961636724    0.3818492577
   H       3.5357422129    0.2758600583    0.0215990500
   H       2.2166436308    2.3139761991   -0.2007827271
   H      -0.1906115452    2.3476684233    0.1813290587
   H      -1.3908665760    0.1951215756    0.5604751626
