12
-230.27376 frame 0   xyz file generated by terachem
   C       0.3171088802   -1.0164271114   -0.3374619151
   C       1.6930128053   -1.0125627093   -0.0614836916
   C       2.3417832275    0.2071142862    0.2138201325
   C       1.6693928749    1.4020367878   -0.1095450421
   C       0.2936962293    1.3683779141   -0.3848518527
   C      -0.1847415098    0.1841218343    0.2905957687
   H      -0.2542580138   -1.7791917792   -0.8229077092
   H       2.2566831969   -1.9281577678   -0.0853728403
   H       3.3875988955    0.2221737449    0.4480301825
   H       2.2150758307    2.3268189784   -0.1696057401
   H      -0.2920034844    2.0992813361   -0.9012543034
   H      -0.5309130272    0.2012704421    1.3217630968
