12
-230.26501 frame 0   xyz file generated by terachem
   C       0.3515541330   -1.0036592688   -0.1236143530
   C       1.7622566385   -1.0865266456    0.0571962043
   C       2.3798573708    0.1230616210    0.2652714775
   C       1.6285026640    1.3043832439    0.0005861947
   C       0.2576502563    1.3409740315   -0.3655580751
   C      -0.2278396620    0.2266793301    0.3820159738
   H       0.0176323937   -1.2818442532   -1.1170409598
   H       2.3275414119   -1.9704836952   -0.1771313763
   H       3.4357902113    0.2105048008    0.4413833348
   H       2.1229628374    2.2539865857    0.1336321923
   H      -0.2523013790    2.2695588459   -0.5233187946
   H      -0.6573583699    0.3104657979    1.3699012275
