12
-230.26458 frame 0   xyz file generated by terachem
   C       0.3696154256   -1.0345030836   -0.0804986904
   C       1.7917665490   -1.0764645252    0.0262143725
   C       2.3869459900    0.1504751013    0.1917088543
   C       1.5908872093    1.3072723509   -0.0444149170
   C       0.2012579127    1.3031920705   -0.3324298456
   C      -0.2193658944    0.1835195602    0.4434882447
   H       0.0060057847   -1.3091953233   -1.0655014995
   H       2.3672347631   -1.9487380681   -0.2268452603
   H       3.4475863796    0.2678295623    0.3138374876
   H       2.0649171003    2.2715280671    0.0534452655
   H      -0.3412798428    2.2129357952   -0.4913712823
   H      -0.6149803141    0.2627987788    1.4457799364
