12
-230.29168 frame 0   xyz file generated by terachem
   C       0.3542034312   -1.0108278525   -0.0457586650
   C       1.7180705351   -1.0105009426    0.2036388584
   C       2.4482382567    0.2183712276   -0.1004327011
   C       1.7267128661    1.4762903514    0.1197252257
   C       0.3624405158    1.4641644056   -0.0978187250
   C      -0.2929611682    0.2232375189   -0.2191317672
   H      -0.2401067663   -1.9031058896    0.0529057126
   H       2.2036233660   -1.9057926864    0.5557308463
   H       2.0519854205    0.1921559415   -1.1494575595
   H       2.2284515612    2.3955801711    0.3720711277
   H      -0.2274126003    2.3623980212   -0.0348551726
   H      -1.3627517537    0.2241756798   -0.3366350093
