12
-230.29897 frame 0   xyz file generated by terachem
   C       0.3152087534   -1.0631458167   -0.6581114374
   C       1.5704269705   -0.9028203740    0.0614533235
   C       2.4372545661    0.2451061672   -0.2035271984
   C       1.8138985107    1.4658209423   -0.3216653422
   C       0.4686719249    1.3908440050   -0.0449430653
   C      -0.0714386969    0.0523551715    0.1932234056
   H      -0.2214555565   -1.9872912173   -0.6523943829
   H       1.9015266198   -1.6885089105    0.7164480134
   H       3.5004694324    0.1067261944   -0.2734762280
   H       2.3249876381    2.3771351024   -0.5564392198
   H      -0.1761207910    2.2475199901    0.0251602675
   H      -0.8331304646   -0.0967225744    0.9373630390
