12
-230.29172 frame 0   xyz file generated by terachem
   C       0.3633190508   -1.0439393168    0.0112829178
   C       1.7360706873   -1.0384562666    0.1856768229
   C       2.4360859028    0.2180715921   -0.0886853161
   C       1.7091573350    1.4503074549    0.2218512523
   C       0.3364347418    1.4314156134    0.0463258236
   C      -0.3071212959    0.1883952883   -0.0894775135
   H      -0.2151445941   -1.9471428479    0.1040134836
   H       2.2529306173   -1.9454741161    0.4518073635
   H       1.9948979130    0.2277759060   -1.1201757441
   H       2.2060152615    2.3596987478    0.5164940222
   H      -0.2613957362    2.3189061287    0.1642101279
   H      -1.3809627573    0.1776477261   -0.1603008291
