12
-230.29173 frame 0   xyz file generated by terachem
   C       0.3089262428   -1.0733707958   -0.1695469295
   C       1.6808865244   -1.0711081556    0.0107585273
   C       2.3370253458    0.1630732302    0.1677557574
   C       1.6801544728    1.4036322030    0.0825176006
   C       0.3080159899    1.4148708923   -0.0981655253
   C      -0.4062113983    0.1624360621    0.1556007172
   H      -0.1969241776   -1.9737473926   -0.4761810858
   H       2.2698503363   -1.9630203478   -0.1179412930
   H       3.4106152411    0.1611425192    0.2435125085
   H       2.2683823718    2.3019447396    0.0053360372
   H      -0.1978545407    2.3306128480   -0.3555231718
   H       0.0308304847    0.1326067484    1.1884537711
