12
-230.29892 frame 0   xyz file generated by terachem
   C       0.3447175739   -0.7219491929   -0.1934146095
   C       1.7750942782   -0.9143925984    0.0458436118
   C       2.5228564116    0.2256099526    0.2254940824
   C       1.7838968213    1.3687837115    0.0259856914
   C       0.3525016612    1.1825041147   -0.2119218594
   C      -0.4139154643    0.2411553401    0.5914755412
   H      -0.1765454578   -1.3616488777   -0.8825242996
   H       2.1861883237   -1.9072303307    0.0553386689
   H       3.5715299148    0.2235209055    0.4430488784
   H       2.2033189096    2.3578617123    0.0139092151
   H      -0.1629057734    1.8114887897   -0.9154814683
   H      -1.4826995159    0.2456206934    0.5932002016
