12
-230.29896 frame 0   xyz file generated by terachem
   C       0.1984336974   -0.8779008643    0.0521847007
   C       1.6442337062   -0.7755191912    0.2508690472
   C       2.4367873345    0.1411986478   -0.5556803980
   C       1.7565608542    1.1252379293    0.2735511892
   C       0.3327191376    1.4011056217    0.0815300531
   C      -0.4815056491    0.3080593652   -0.1017814146
   H      -0.2742649263   -1.8427697428    0.0513203081
   H       2.1452691104   -1.4513210217    0.9202815018
   H       3.5027818590    0.0795002376   -0.5945971874
   H       2.3326341919    1.7196165492    0.9596470357
   H      -0.0229036950    2.4147095955    0.1053996233
   H      -1.5334007058    0.3728950607   -0.2922416011
