12
-230.26484 frame 0   xyz file generated by terachem
   C       0.3240879746   -0.9416471577   -0.4976721285
   C       1.6874218003   -0.8927899433   -0.1088824168
   C       2.4003597714    0.2843859995    0.2528949905
   C       1.7534400350    1.4877829521    0.1120769998
   C       0.3452401108    1.3849667393   -0.1096473378
   C      -0.2170009886    0.1110446366    0.2952106835
   H      -0.1544764475   -1.8673601397   -0.7458834324
   H       2.2061674777   -1.8360718945   -0.0357747687
   H       3.4542923052    0.2128134839    0.4469759971
   H       2.2986006903    2.4010115688   -0.0461343785
   H       0.0668514983    1.6722265296   -1.1198454589
   H      -0.7024061854   -0.0439661515    1.2478466428
