12
-230.29163 frame 0   xyz file generated by terachem
   C       0.2972656862   -0.9761851522    0.0265757658
   C       1.6987844327   -0.9386231450    0.0934257737
   C       2.4499449798    0.2441730083   -0.0572629200
   C       1.7800720375    1.4443564145   -0.1871142013
   C       0.3489341725    1.4489032994    0.1383212868
   C      -0.3854046670    0.2190967446   -0.1464345699
   H      -0.1966587687   -1.9293337648   -0.0574194749
   H       2.2298070266   -1.8730554347    0.1482002816
   H       3.5140719706    0.1728660661   -0.2033069687
   H       2.3180653014    2.3418500920   -0.4426075700
   H       0.6006813001    1.0653297497    1.1623500450
   H      -1.4231715897    0.2132770792   -0.4361634052
