12
-230.29168 frame 0   xyz file generated by terachem
   C       0.3848661388   -1.0353989638   -0.1769148149
   C       1.8148938479   -0.9711114573    0.1374324355
   C       2.4931833425    0.2884417178   -0.1663515290
   C       1.7556574729    1.4513514278   -0.0149154597
   C       0.3569555619    1.3511879625    0.0750923294
   C      -0.3402954624    0.1340676283   -0.0426093077
   H      -0.1119988431   -1.9562552382   -0.4329488647
   H       1.5602454754   -0.5811253685    1.1580578879
   H       3.5332358286    0.3380873500   -0.4431444578
   H       2.2042508203    2.4242439176   -0.1200318502
   H      -0.2155429864    2.2613716118    0.1213225541
   H      -1.4091540584    0.1544673052   -0.1696997969
