12
-230.29901 frame 0   xyz file generated by terachem
   C       0.2995531311   -1.0862252811    0.2164797213
   C       1.6698529254   -0.9600772837    0.1947427055
   C       2.1934108242    0.3912940664   -0.0047985297
   C       1.6075552231    1.5217478061    0.7012325312
   C       0.5217381036    1.2719378465   -0.2350016020
   C      -0.3351089850    0.0963689403   -0.0821782403
   H      -0.2122084836   -2.0100163856    0.3928560151
   H       2.3485401736   -1.7870479570    0.2935413839
   H       3.0781792726    0.5452641172   -0.5958513154
   H       2.0994056958    2.4690434256    0.7534387916
   H       0.2923077568    2.0130221619   -0.9798957869
   H      -1.3957159775    0.1849354592   -0.2301144033
