12
-230.26465 frame 0   xyz file generated by terachem
   C       0.5328783505   -0.9353235811   -0.0053467036
   C       1.9183696729   -0.9041650852   -0.3122025317
   C       2.3141842544    0.2423991113    0.4392857799
   C       1.6928528198    1.4350130959   -0.1064198542
   C       0.2726732283    1.4455425132    0.0101236929
   C      -0.2903407057    0.2082197591    0.2063432531
   H       0.0845388347   -1.9080476249    0.1242871509
   H       2.4818465268   -1.8056251938   -0.4427876662
   H       2.7071458676    0.1920361460    1.4443666513
   H       2.0540000955    1.7175256678   -1.0891358918
   H      -0.3261376849    2.2981658736   -0.2552413452
   H      -1.3478257769    0.0679362802    0.3319511636
