12
-230.29173 frame 0   xyz file generated by terachem
   C       0.3428847069   -0.9626714740    0.1482377815
   C       1.7387754065   -1.0469449069   -0.0038924657
   C       2.4559827114    0.1208394786   -0.1942964147
   C       1.7719786632    1.3789562605    0.1126331642
   C       0.3319191212    1.4176471661   -0.1481781363
   C      -0.3737675950    0.2429027940    0.0469072858
   H      -0.2147021503   -1.8794152750    0.2313208327
   H       2.1938086266   -2.0155105836   -0.1208343533
   H       3.4895638513    0.0800736136   -0.4955590687
   H       1.5661692592    1.0026811152    1.1491614644
   H      -0.1856340917    2.3230156319   -0.4185485612
   H      -1.4469138933    0.2076725126   -0.0311444677
