12
-230.29171 frame 0   xyz file generated by terachem
   C       0.3421670377   -1.0205951746    0.0001281405
   C       1.7103694295   -1.0080098357   -0.2098092285
   C       2.4185162134    0.2347485737    0.1009303545
   C       1.6865256102    1.4802537076   -0.1390804907
   C       0.3183463940    1.4542499986    0.0652033813
   C      -0.3235615253    0.2067713871    0.1669055482
   H      -0.2398904804   -1.9189322505   -0.1142136015
   H       2.2188588863   -1.9018917574   -0.5307366758
   H       2.0018593541    0.2038019443    1.1421775243
   H       2.1776999135    2.4026195006   -0.4010334908
   H      -0.2807516456    2.3461632803   -0.0021421609
   H      -1.3951888905    0.1920092230    0.2654822392
