12
-230.26495 frame 0   xyz file generated by terachem
   C       0.3470882901   -0.9755182901   -0.1296949401
   C       1.7053523455   -1.1299871178    0.0014350111
   C       2.4390015384    0.0933311027    0.0875886578
   C       1.7146059184    1.2431767652   -0.4185652355
   C       0.5580970038    1.4895897651    0.3766241784
   C      -0.1961513116    0.3174442475    0.1142571156
   H      -0.3232277785   -1.8092141643   -0.2255781165
   H       2.1394155769   -2.0831304566    0.2447292828
   H       2.8578034831    0.2526038185    1.0773253659
   H       1.8486482062    1.6312397579   -1.4179037444
   H       0.0823206225    2.4360162705    0.5361554076
   H      -1.2669706109    0.4319754404    0.0483465162
