12
-230.26487 frame 0   xyz file generated by terachem
   C       0.3724402149   -1.0025684593    0.2770428654
   C       1.7294190284   -1.1035950740    0.0856530150
   C       2.3898285869    0.1422407915   -0.1211049770
   C       1.6324533863    1.2878600663    0.3471119927
   C       0.4337536886    1.4269269689   -0.4135048476
   C      -0.2470854687    0.2439814052   -0.0237648110
   H      -0.2505718491   -1.8580724292    0.4600990131
   H       2.1968380156   -2.0501897953   -0.1187430835
   H       2.8018497442    0.2569661974   -1.1179054513
   H       1.7772319310    1.7278383490    1.3233183396
   H      -0.0949305947    2.3392694254   -0.6019569644
   H      -1.3166371133    0.3149833331    0.0973076510
