12
-230.29891 frame 0   xyz file generated by terachem
   C       0.6515160844   -0.9083641088    0.1997087903
   C       1.7828880355   -0.9108714125   -0.7168283183
   C       2.2291942728    0.1568273010    0.1658250775
   C       1.5749725435    1.4648436536    0.1397181683
   C       0.2010372779    1.4582628545    0.0776318321
   C      -0.3170753235    0.1874975937    0.1787689349
   H       0.4797429830   -1.7676960082    0.8229307877
   H       2.3709552449   -1.7872717372   -0.8846120669
   H       3.1086587438    0.0062535710    0.7655512447
   H       2.1679828936    2.3596707454    0.1913036931
   H      -0.3978309214    2.3433345514    0.0081701755
   H      -1.3670942604   -0.0251908608    0.2620281232
