12
-230.29171 frame 0   xyz file generated by terachem
   C       0.4130317139   -1.0031975861    0.1587635344
   C       1.8180957905   -1.0044728840    0.0999241140
   C       2.4735777279    0.2006753676   -0.0839969512
   C       1.6970022990    1.4210710396    0.1428004633
   C       0.2769607101    1.3636145018   -0.2082734884
   C      -0.3671190984    0.1521663420   -0.0278714009
   H      -0.0925798017   -1.9502765652    0.2342874440
   H       2.3378165406   -1.9456303935    0.0442689150
   H       3.5249545186    0.2153495849   -0.3186370539
   H       1.4487000472    1.0591518070    1.1753313027
   H      -0.2753293964    2.2277245432   -0.5385322302
   H      -1.4284477833    0.0483029867   -0.1750041167
