12
-230.26491 frame 0   xyz file generated by terachem
   C       0.2672941162   -0.9666925853    0.2196621989
   C       1.6764151799   -0.9779430253    0.0169299515
   C       2.4718491418    0.1548093065   -0.2927462041
   C       1.7728416103    1.1708314148    0.4213091009
   C       0.4473057100    1.3580923382   -0.1361787250
   C      -0.3978410128    0.2137511441   -0.0038342130
   H      -0.2429073148   -1.9013290248    0.3600722419
   H       2.1956326693   -1.9130726522    0.1586460021
   H       3.5328850484    0.0756488652   -0.4167313212
   H       2.0476626574    1.5047037819    1.4113494754
   H       0.4578324564    1.7465431731   -1.1506976034
   H      -1.4376485271    0.2268375458   -0.2773705150
