12
-230.32885 frame 0   xyz file generated by terachem
   C       0.3356586088   -1.0681081026    0.0883567054
   C       1.7410445170   -1.0418251408   -0.0620472390
   C       2.3914997839    0.1941111800   -0.1108754040
   C       1.7235686847    1.4092562338    0.0646431731
   C       0.3179902975    1.4000249893    0.2177782805
   C      -0.3876828236    0.1806339778   -0.2299939158
   H      -0.1664920405   -1.9804986595    0.3551106059
   H       2.3265498968   -1.9426890425   -0.0350372591
   H       3.4654872972    0.2039703764   -0.1594985880
   H       2.2964988761    2.3109695080    0.1808379476
   H      -0.1979173547    2.2755214698    0.5681704659
   H      -0.4597623370    0.2379931074   -1.3195550765
