12
-230.29172 frame 0   xyz file generated by terachem
   C       0.2679933695   -0.9678643067   -0.2515080553
   C       1.6865607462   -1.0597501788    0.1000817357
   C       2.4299986375    0.1044992452    0.0216206170
   C       1.7506553371    1.3331894265   -0.0617405148
   C       0.3502750954    1.4465313394   -0.0003944543
   C      -0.4051315601    0.2893987487    0.0795286406
   H       0.5518539264   -0.5420061246   -1.2500543393
   H       2.1640688620   -1.9923214285    0.3508332470
   H       3.4957130532    0.1060003530    0.1745022989
   H       2.3341951499    2.2374016086   -0.0556395518
   H      -0.0890239884    2.4196789670    0.1378357395
   H      -1.4545621528    0.3413481371    0.3183086978
