12
-230.29173 frame 0   xyz file generated by terachem
   C       0.2881727285   -0.9609206894   -0.1091464302
   C       1.7242307245   -1.0196831116    0.1699116922
   C       2.4538867418    0.1365137376   -0.0441191567
   C       1.7612747404    1.3518956236   -0.1898831495
   C       0.3654499610    1.4659468554   -0.0608648367
   C      -0.3756498104    0.3171710402    0.1543977102
   H       0.5141557024   -0.6179026063   -1.1532171763
   H       2.2209370646   -1.9270211041    0.4710838780
   H       3.5260831879    0.1545373326    0.0505539124
   H       2.3370556685    2.2555308397   -0.2910566466
   H      -0.0728954953    2.4458334937    0.0204873027
   H      -1.4111638569    0.3856863075    0.4435285656
