12
-230.29899 frame 0   xyz file generated by terachem
   C       0.5609423462   -1.0614576736    0.2335861253
   C       1.9301517874   -0.9609472735    0.3235082238
   C       2.3884967996    0.2679998378   -0.0904431589
   C       1.3684293801    1.2641929235   -0.4176311700
   C       0.2034978789    1.4384498055    0.4372705278
   C      -0.1553695959    0.1552432131   -0.1488369676
   H       0.0158348877   -1.9712799471    0.4053981209
   H       2.5686188818   -1.7629027636    0.6332462883
   H       3.4291346681    0.5126843525   -0.1990312458
   H       1.5234810500    1.9436808319   -1.2363564200
   H      -0.4322878101    2.2935232719    0.3570974838
   H      -1.0170319417    0.0942312207   -0.7890472607
