12
-230.29895 frame 0   xyz file generated by terachem
   C       0.6621420412   -0.8397697905    0.3292006004
   C       1.6627472658   -0.9027713578   -0.7266614426
   C       2.2028488034    0.2320688070    0.0080789618
   C       1.5273126609    1.5292365412   -0.0265430398
   C       0.1576202821    1.5072062835    0.0955316931
   C      -0.3205732772    0.2435456016    0.3554812023
   H       0.5871231141   -1.6527573820    1.0291445709
   H       2.2403793056   -1.7847706925   -0.9025446474
   H       3.1571370852    0.1349339551    0.4939688225
   H       2.1043713412    2.4302364761   -0.1261840863
   H      -0.4602312970    2.3803529141    0.0432080261
   H      -1.3469655194    0.0288046483    0.5899652899
