12
-230.26506 frame 0   xyz file generated by terachem
   C       0.4279435027   -0.9139849656   -0.0151988178
   C       1.7945600026   -1.0161504825   -0.3804658537
   C       2.3473050671    0.0782908197    0.3445109136
   C       1.8166635242    1.3328997001   -0.1521914197
   C       0.4076511467    1.4770322221    0.0420929868
   C      -0.2654864803    0.2990644996    0.2552818747
   H      -0.1125553750   -1.8392568334    0.1107616760
   H       2.2565882968   -1.9671810777   -0.5526657628
   H       2.8210738339   -0.0204313356    1.3103155968
   H       2.1080423295    1.5398065572   -1.1786737707
   H      -0.1166470316    2.3887917350   -0.1816075673
   H      -1.3224128176    0.2609340000    0.4421096099
