12
-230.29175 frame 0   xyz file generated by terachem
   C       0.3530305722   -1.0019030785   -0.0211536520
   C       1.7304065500   -0.9871557158   -0.1669883043
   C       2.4195461881    0.2610753658    0.1584706563
   C       1.6978364535    1.5008973570   -0.1407186016
   C       0.3217290027    1.4735616407   -0.0099637135
   C      -0.3224506020    0.2256936801    0.0844297497
   H      -0.2202604333   -1.9040920518   -0.1486700163
   H       2.2552924521   -1.8823775191   -0.4562922276
   H       1.9508925598    0.2510253570    1.1775125382
   H       2.2017147720    2.4219637793   -0.3830419961
   H      -0.2752660217    2.3609487961   -0.1332103457
   H      -1.3977972204    0.2118801512    0.1276670499
