12
-230.29172 frame 0   xyz file generated by terachem
   C       0.4145244568   -0.9384833719    0.1156705283
   C       1.8034610764   -1.0111106736   -0.0927844717
   C       2.5067122333    0.1649591990   -0.2857410016
   C       1.8297354761    1.4109269816    0.0786495387
   C       0.3797920887    1.4490133039   -0.1198390912
   C      -0.3114639328    0.2652905573    0.0695863166
   H      -0.1351773550   -1.8598186294    0.2002819594
   H       2.2578176096   -1.9742960578   -0.2490981261
   H       3.5269561342    0.1371654423   -0.6312035916
   H       1.6686448985    1.0089021535    1.1134269192
   H      -0.1516168591    2.3579584045   -0.3480376559
   H      -1.3867434596    0.2258645395    0.0329884388
