12
-230.26504 frame 0   xyz file generated by terachem
   C       0.4562233210   -0.9042649380    0.1530657679
   C       1.8416165888   -0.9569267796    0.4598995155
   C       2.3058499776    0.1332111552   -0.3372254042
   C       1.7726016478    1.3830150790    0.1732836356
   C       0.3586042358    1.4880865042    0.0610200816
   C      -0.2873686760    0.2857644550   -0.0978790065
   H      -0.0575523378   -1.8479623054    0.0552819213
   H       2.3416015535   -1.8929914900    0.6040559593
   H       2.6683153047    0.0209555570   -1.3487923815
   H       2.1756941326    1.6946948079    1.1291861193
   H      -0.1804733477    2.3857526445    0.3045945530
   H      -1.3526851871    0.2138468833   -0.2148837723
