12
-230.26500 frame 0   xyz file generated by terachem
   C       0.2447802325   -0.8303643915   -0.4044186228
   C       1.6450397169   -1.0329516181   -0.0863117714
   C       2.4481839087    0.1353365205   -0.2643752602
   C       1.7462353734    1.3156487866   -0.2830427704
   C       0.3899118075    1.2828718539    0.1474768413
   C      -0.3350456311    0.1133178847    0.4919975229
   H      -0.1868630622   -1.0936303418   -1.3591577475
   H       1.8014062179   -1.4962263395    0.8838428870
   H       3.5187201215    0.1227589428   -0.1645901646
   H       2.2198064175    2.2682261256   -0.4309504342
   H      -0.1519087316    2.2155976596    0.1705292858
   H      -1.3628312611    0.1619046872    0.7901285652
