12
-230.29173 frame 0   xyz file generated by terachem
   C       0.3743357130   -0.9270512648   -0.1118077369
   C       1.7772434233   -0.9896327761   -0.0345906624
   C       2.4830109615    0.1861351080    0.1517865900
   C       1.7631884726    1.4384697176   -0.0867348248
   C       0.3374572063    1.4448025476    0.2467626210
   C      -0.3566339148    0.2622838702    0.0597101906
   H      -0.1713939281   -1.8511501513   -0.1926376212
   H       2.2544192987   -1.9523900195    0.0313957528
   H       3.5305314782    0.1563066754    0.4019185579
   H       1.5100739706    1.0857500181   -1.1212211033
   H      -0.1811053018    2.3340126176    0.5646933422
   H      -1.4230967984    0.2047860525    0.1951165970
