12
-230.29171 frame 0   xyz file generated by terachem
   C       0.3679167953   -1.0340841374   -0.1440494754
   C       1.7960680694   -1.0203220408    0.1783341229
   C       2.4702838601    0.1740741121   -0.0067012391
   C       1.7195936094    1.3528124554   -0.1644233864
   C       0.3165087038    1.3930113953   -0.0752538007
   C      -0.3695408403    0.2053236568    0.1081383544
   H       0.6072905139   -0.6706573427   -1.1781798654
   H       2.3306637282   -1.9031694839    0.4871633252
   H       3.5372352070    0.2467923497    0.1168631152
   H       2.2502836101    2.2858282065   -0.2429731954
   H      -0.1748979323    2.3478965784   -0.0002516038
   H      -1.4154429244    0.2168869929    0.3662997375
