12
Family_1 [H]c1c([H])c([H])c([H])c([H])c1[H] | RMSD: 0.3801 | 20435.00 to state    1 from traj    2 on state    2
C       0.53319629     -1.14226637     -0.16535918
C       1.79906638     -0.98259920      0.58801791
C       2.22352019      0.01394398     -0.49231522
C       1.68128096      1.35860954     -0.28626396
C       0.32602337      1.41685490      0.02608259
C      -0.37708267      0.01683138     -0.01213826
H       0.22974965     -1.84539953     -0.86972809
H       2.46585566     -1.75475326      0.84605055
H       3.10368086     -0.28092173     -1.03886887
H       2.21954644      2.21113068     -0.24864272
H      -0.18279552      2.22212940      0.42312967
H      -1.40488080     -0.28892458      0.29913972
