12
Family_1 [H]c1c([H])c([H])c([H])c([H])c1[H] | RMSD: 0.3321 | 13290.00 to state    1 from traj    8 on state    2
C       0.35938913     -1.22230839     -0.06110745
C       1.90794909     -1.15769540      0.17127828
C       2.46744958      0.15923535     -0.06076652
C       1.62276977      1.20177589     -0.48062550
C       0.13956296      1.38791600     -0.08013010
C      -0.33124125      0.14827585      0.20283626
H       0.46405725     -0.73387605     -1.15946666
H       2.22823194     -2.08624107      0.65949123
H       3.55443033      0.40060326     -0.11278284
H       1.98857292      2.03978873     -0.87029678
H      -0.18083823      2.37696347      0.02400279
H      -1.38349210      0.22227788      0.47142101
