12
Family_1 [H]c1c([H])c([H])c([H])c([H])c1[H] | RMSD: 0.2599 | 13320.00 to state    1 from traj    9 on state    2
C       0.31270932     -1.25879019     -0.04129665
C       1.80594425     -1.06749352      0.17452925
C       2.44566164      0.16759637     -0.14735836
C       1.67474383      1.28562657     -0.38850659
C       0.23488031      1.27747663     -0.13512148
C      -0.32980907      0.12044513      0.19618211
H       0.41941629     -0.86043233     -1.16422137
H       2.45259414     -1.64701709      0.82037657
H       3.54605195      0.23838004     -0.19671207
H       2.22129583      2.11921047     -0.78261590
H      -0.23668288      2.16882068      0.24687681
H      -1.47255926      0.10926013      0.48255742
