12
Family_1 [H]c1c([H])c([H])c([H])c([H])c1[H] | RMSD: 0.2977 | 10985.00 to state    1 from traj    2 on state    2
C       0.35299736     -1.15655257      0.08523419
C       1.90765635     -1.09070417      0.13119296
C       2.37209188      0.09422859     -0.19171521
C       1.61022367      1.30603591     -0.33717837
C       0.31842964      1.29752445     -0.17500210
C      -0.41092320      0.08330713      0.11088923
H       0.35783054     -0.84666852     -1.06987335
H       2.51540118     -1.86629672      0.65993960
H       3.43681525      0.24697416      0.04105493
H       2.19962657      2.15845377     -0.51469233
H      -0.34704285      2.04784979      0.16874285
H      -1.30812449      0.28092650      0.53822876
