12
Family_1 [H]c1c([H])c([H])c([H])c([H])c1[H] | RMSD: 0.3985 | 14125.00 to state    1 from traj    2 on state    2
C       0.50108692     -1.11865075     -0.05864807
C       1.83754864     -1.03919863      0.40339532
C       2.44600388      0.01752139     -0.42279073
C       1.59723969      1.29062786     -0.20120278
C       0.23285224      1.35424004      0.01811096
C      -0.42538159      0.10732609      0.06621136
H       0.32444316     -1.25158096     -1.20079808
H       2.32097481     -1.51228872      1.16851511
H       3.19891971     -0.23047674     -1.16964302
H       1.99935958      1.92622051     -0.86074857
H      -0.11112800      2.35573048      0.06337405
H      -1.34127393     -0.19610610     -0.34184519
