12
Family_1 [H]c1c([H])c([H])c([H])c([H])c1[H] | RMSD: 0.3405 | 19405.00 to state    1 from traj    2 on state    2
C       0.40793595     -1.06608611     -0.31382361
C       1.90695119     -0.99227999      0.48338825
C       2.39993782      0.09039371     -0.34287274
C       1.59297503      1.19457035     -0.32126888
C       0.37311390      1.34923963     -0.03022842
C      -0.45013918      0.00487654      0.22737928
H       0.42281219     -1.43839417     -1.31002052
H       1.92982950     -1.35926067      1.42128408
H       3.12890374     -0.07880249     -1.06579720
H       2.07378953      2.08247508     -0.66681938
H      -0.20173943      2.26723828      0.18700775
H      -1.45590617     -0.01056184      0.31458212
