12
Family_1 [H]c1c([H])c([H])c([H])c([H])c1[H] | RMSD: 0.3983 | 3835.00 to state    1 from traj    3 on state    2
C       0.53445520     -1.05284603     -0.42788664
C       1.73325680     -1.06079381      0.47245831
C       2.28898032      0.00121766     -0.24574957
C       1.51170928      1.31700219     -0.37737978
C       0.28145045      1.38108213     -0.05919122
C      -0.13997267      0.09812285      0.22862575
H      -0.12228053     -1.91308188     -0.76861586
H       2.10166009     -1.92370049      1.14853590
H       3.25253323      0.25667433     -0.36607263
H       2.17255485      2.03902740     -0.69107865
H      -0.35261841      2.25541395     -0.14496686
H      -0.90517784     -0.47979791      1.03338055
