12
Family_1 [H]c1c([H])c([H])c([H])c([H])c1[H] | RMSD: 0.3926 | 7080.00 to state    1 from traj    2 on state    2
C       0.34395661     -1.10853449     -0.38956524
C       1.63430482     -0.90486160      0.27796683
C       2.47717656      0.17089636     -0.11754318
C       1.73127748      1.33247687     -0.51809176
C       0.34649778      1.14764661     -0.04200495
C      -0.31816551     -0.02012638      0.42523433
H       0.10626024     -1.60702476     -1.29953400
H       1.79891272     -1.53281860      1.15706352
H       3.55060848      0.12848987      0.19956073
H       2.11583742      2.23775556     -1.14443765
H      -0.20957110      1.94019887     -0.14074103
H      -1.27696107     -0.14220405      0.90164534
