12
Family_1 [H]c1c([H])c([H])c([H])c([H])c1[H] | RMSD: 0.3506 | 6570.00 to state    1 from traj    3 on state    2
C       0.52444971     -1.04728525     -0.29034394
C       1.73776587     -1.11398134      0.44048413
C       2.32460409      0.06646499     -0.16071202
C       1.53565589      1.27949222     -0.48666504
C       0.22760821      1.39639616     -0.03752432
C      -0.25615479      0.04441257      0.17298045
H       0.43951462     -1.55192246     -1.28669983
H       2.31518941     -1.95982368      0.78229004
H       3.57830592      0.10382888     -0.41670275
H       2.18724173      1.95140950     -0.83512153
H      -0.12277756      2.45662734      0.33171775
H      -0.86917551     -0.07107171      1.07158199
