12
Family_1 [H]c1c([H])c([H])c([H])c([H])c1[H] | RMSD: 0.3559 | 18805.00 to state    1 from traj    6 on state    2
C       0.52741377     -1.13946552     -0.29831406
C       1.78140110     -1.22218993      0.49826469
C       2.32506961      0.10078527     -0.14259865
C       1.59804278      1.37190585     -0.50767827
C       0.18539651      1.38816235     -0.10980033
C      -0.29271434      0.08520756      0.24566349
H       0.50904842     -1.12302360     -1.58592076
H       2.47585558     -1.99997578      0.71072414
H       3.33871415     -0.10174169     -0.72507178
H       2.21770125      2.19951240     -0.70948887
H      -0.16695442      2.18588663      0.42219885
H      -1.21164491      0.25805017      0.97080276
