12
Family_1 [H]c1c([H])c([H])c([H])c([H])c1[H] | RMSD: 0.3070 | 11270.00 to state    1 from traj    2 on state    2
C       0.42479748     -0.95951231     -0.33371189
C       1.79438087     -1.01807007      0.24393907
C       2.40304765      0.11511834     -0.17805702
C       1.69263544      1.22349678     -0.38260205
C       0.23103016      1.20069528     -0.15806473
C      -0.31750605      0.02321284      0.45302740
H       0.01946267     -1.59560013     -1.11972538
H       1.77471850     -1.44035223      1.17610952
H       3.72044951      0.20198392     -0.05261791
H       2.09640320      2.12814327     -0.60777515
H      -0.20868074      2.15517390     -0.47640716
H      -1.47619538     -0.03701892      0.65227580
