12
Family_1 [H]c1c([H])c([H])c([H])c([H])c1[H] | RMSD: 0.3784 | 3100.00 to state    1 from traj    7 on state    2
C       0.54542995     -1.06946120     -0.32667259
C       1.83688204     -1.11556500      0.59084707
C       2.11400380      0.01328526     -0.23539088
C       1.53332890      1.39082823     -0.43813351
C       0.31730130      1.40037296      0.01631082
C      -0.17731477      0.08286083      0.12722339
H       0.23199272     -1.90471300     -0.97395223
H       2.48574454     -1.91212040      0.45807755
H       3.06280193     -0.20444712     -0.84443363
H       2.35509814      2.03716449     -0.78474934
H      -0.19659668      2.22251855      0.38545582
H      -1.31278536     -0.22473730      0.26317927
