12
Family_1 [H]c1c([H])c([H])c([H])c([H])c1[H] | RMSD: 0.2618 | 5550.00 to state    1 from traj    2 on state    2
C       0.38912359     -1.06580864      0.05165924
C       1.79188814     -1.04655883      0.26999938
C       2.44845206      0.11575567     -0.36564591
C       1.69699127      1.29693846     -0.26325779
C       0.27785688      1.21307076     -0.11107311
C      -0.44399982      0.00951589      0.12833517
H       0.56975285     -0.97994770     -0.89624082
H       2.27834886     -1.85626678      0.78391886
H       3.49603299      0.16235067     -0.64383835
H       2.06398975      2.30941311     -0.44773654
H      -0.21072127      2.27682128      0.04928144
H      -1.46010444      0.23905929     -0.05383718
