12
Family_1 [H]c1c([H])c([H])c([H])c([H])c1[H] | RMSD: 0.3829 | 3865.00 to state    1 from traj    2 on state    2
C       0.41063340     -1.03548556     -0.24661295
C       1.76674677     -0.99512975      0.07631861
C       2.48426934      0.18958417     -0.04411556
C       1.66842464      1.16773493     -0.51247948
C       0.34039937      1.16645434     -0.04350219
C      -0.43173462      0.05109953      0.42719256
H       0.10655147     -1.41882790     -1.25977139
H       1.80636636     -1.24998200      1.27385760
H       3.53821183      0.31903663      0.24308188
H       2.14498753      2.08041512     -0.88896273
H      -0.36080028      1.97034560     -0.43688606
H      -1.43252619      0.19611002      0.49433251
