12
Family_1 [H]c1c([H])c([H])c([H])c([H])c1[H] | RMSD: 0.3379 | 3195.00 to state    1 from traj    2 on state    2
C       0.30686572     -1.16842781     -0.33151230
C       1.60244745     -0.90973984      0.22224503
C       2.42707083      0.14376112     -0.13337887
C       1.81256426      1.34841291     -0.43365965
C       0.27569994      1.24877594     -0.17317689
C      -0.24899504     -0.05249465      0.43301205
H       0.15835527     -1.83137366     -1.04704683
H       2.14089108     -1.37543078      1.25796437
H       3.47705880      0.15029761     -0.11140414
H       2.35053177      2.37705826     -0.62467587
H      -0.46111969      2.03014508     -0.01980372
H      -1.11121746     -0.24039107      0.84369884
