12
Family_1 [H]c1c([H])c([H])c([H])c([H])c1[H] | RMSD: 0.4051 | 5840.00 to state    1 from traj    7 on state    2
C       0.49884717     -1.07419418     -0.02804101
C       1.88206682     -1.24380941      0.50090177
C       2.29584875      0.04826202     -0.38428301
C       1.59418880      1.37164676     -0.19981767
C       0.19666599      1.44229114     -0.10782436
C      -0.26521477      0.08042571     -0.00582582
H       0.36527275     -1.57533247     -1.04074428
H       2.61926615     -2.05719148      0.46729421
H       2.75327776     -0.12748677     -1.25829249
H       2.14393993      2.25628211     -0.48215432
H      -0.32519882      2.39048306      0.09521683
H      -1.32079750      0.05274726      0.23460136
