12
Family_1 [H]c1c([H])c([H])c([H])c([H])c1[H] | RMSD: 0.2626 | 7895.00 to state    1 from traj    2 on state    2
C       0.53575517     -1.10058709     -0.28224082
C       1.76317300     -1.06316457      0.50145252
C       2.31422678      0.05560160     -0.19580163
C       1.57233865      1.34484256     -0.51710095
C       0.34338500      1.28605418      0.01104975
C      -0.36429233      0.08615174      0.18995889
H       0.47458808     -1.38111456     -1.21789350
H       2.35673196     -2.00860929      0.71457133
H       3.19271186      0.02188765     -0.91951667
H       2.11047668      2.30264706     -0.53140385
H      -0.00572565      2.21682945      0.28527144
H      -1.44241360     -0.02478106      0.49268177
