12
Family_1 [H]c1c([H])c([H])c([H])c([H])c1[H] | RMSD: 0.2549 | 9900.00 to state    1 from traj    2 on state    2
C       0.57885092     -0.98261977     -0.25641203
C       1.78859674     -1.15468032      0.43636854
C       2.35438046      0.05129847     -0.18518886
C       1.54920157      1.25573162     -0.40917854
C       0.22404651      1.30774968     -0.13654294
C      -0.30209777      0.13292101      0.24512050
H       0.25930068     -1.16176314     -1.32601421
H       2.30035011     -2.13075666      0.60587832
H       3.29877246      0.11890936     -0.55945677
H       2.11153904      2.14433539     -0.70046044
H      -0.42027364      2.25431437      0.12678735
H      -1.20163110     -0.11608057      0.83368024
