12
Family_1 [H]c1c([H])c([H])c([H])c([H])c1[H] | RMSD: 0.2711 | 3430.00 to state    1 from traj    2 on state    2
C       0.29729594     -1.28658832     -0.01693852
C       1.85057106     -1.10306470      0.21239482
C       2.46485332      0.18337475     -0.23848111
C       1.68623000      1.27206882     -0.35796413
C       0.25543373      1.33717697     -0.15035022
C      -0.43308135      0.09663629      0.20702588
H       0.45966425     -1.02701126     -1.35281831
H       2.43986771     -1.74863141      0.78574346
H       3.57832887      0.40423613     -0.16717252
H       2.15206180      2.30892794     -0.26195264
H      -0.11426306      2.32699818     -0.26380459
H      -1.31353735      0.16465873      0.69893381
