12
Family_1 [H]c1c([H])c([H])c([H])c([H])c1[H] | RMSD: 0.4030 | 28415.00 to state    1 from traj    3 on state    2
C       0.61518363     -0.94242520     -0.16057234
C       1.99549702     -1.21147824      0.48179092
C       2.28084306     -0.07667520     -0.28151809
C       1.53397138      1.34333736     -0.30070755
C       0.17527469      1.37317684     -0.09082104
C      -0.39688873      0.20844502      0.09114704
H       0.13463456     -1.69750204     -0.92155375
H       2.55925769     -2.19228523      0.61813493
H       3.02987693     -0.17025525     -1.13731844
H       2.29291112      2.14915879     -0.58533247
H      -0.48119186      2.14310092      0.40030143
H      -1.31734305     -0.12393559      0.06816321
