12
Family_1 [H]c1c([H])c([H])c([H])c([H])c1[H] | RMSD: 0.4046 | 28240.00 to state    1 from traj    3 on state    2
C       0.58383456     -0.98158579     -0.18626534
C       1.96495664     -1.24201115      0.53032671
C       2.30801388     -0.02188823     -0.27984228
C       1.53288951      1.28320782     -0.36266571
C       0.20709350      1.47147227     -0.00268597
C      -0.34263761      0.14226602      0.03545046
H       0.07391287     -1.60400662     -0.80372039
H       2.61694562     -2.01057238      0.60566752
H       2.85180414     -0.17377842     -1.14891281
H       2.00979610      2.26407963     -0.55338370
H      -0.43706918      2.29165639      0.28852004
H      -1.49623823     -0.14768055      0.11381535
