12
Family_1 [H]c1c([H])c([H])c([H])c([H])c1[H] | RMSD: 0.3969 | 14145.00 to state    1 from traj    7 on state    2
C       0.43454897     -0.83288224     -0.30273876
C       1.78198694     -0.99568668      0.30846419
C       2.52493477      0.06197063     -0.16599659
C       1.62854998      1.17613806     -0.45357977
C       0.29791113      1.18183338      0.00388691
C      -0.40084778      0.00946639      0.37423643
H       0.40756938     -1.00151176     -1.39433914
H       1.79477195     -1.79354298      1.10398978
H       3.50271834      0.33829622     -0.21730744
H       1.70788270      1.92365621     -1.31544424
H      -0.30506451      1.99729557     -0.39048746
H      -1.64283837     -0.24130715      0.35864585
