12
Family_1 [H]c1c([H])c([H])c([H])c([H])c1[H] | RMSD: 0.3484 | 13795.00 to state    1 from traj    3 on state    2
C       0.62044135     -1.08368811     -0.15209284
C       1.91358260     -1.20197303      0.45234453
C       2.04776502     -0.00284544     -0.33760785
C       1.61763841      1.42889465     -0.26177261
C       0.31721225      1.46786134     -0.05430123
C      -0.30936885      0.08695246      0.08299331
H       0.30377410     -1.86347079     -0.75706640
H       2.34150863     -2.12037412      0.81271675
H       2.94793405     -0.01870931     -0.93572119
H       2.38302922      2.11088828     -0.66285877
H      -0.41771448      2.21930687     -0.15794456
H      -1.38077709     -0.22914561      0.25951386
