12
Family_1 [H]c1c([H])c([H])c([H])c([H])c1[H] | RMSD: 0.2576 | 26985.00 to state    1 from traj    2 on state    2
C       0.37963330     -1.17884485      0.08851776
C       1.85069582     -1.06743134      0.24518016
C       2.50080483      0.06585478     -0.34085993
C       1.73385089      1.27378608     -0.27284793
C       0.13503749      1.29147640     -0.06948540
C      -0.44480433      0.17672382      0.04705874
H       0.63121912     -1.18133631     -1.11307124
H       2.55170058     -1.64488651      0.70720853
H       3.58423768      0.05337365     -0.71158090
H       2.10167117      2.20867910     -0.24433849
H      -0.48641030      2.20738973      0.03868367
H      -1.58441967      0.04765048      0.26303861
