12
Family_1 [H]c1c([H])c([H])c([H])c([H])c1[H] | RMSD: 0.3578 | 19105.00 to state    1 from traj    3 on state    2
C       0.43959772     -1.14278080     -0.12997611
C       1.76641004     -1.09379094      0.50433718
C       2.44630750      0.07350519     -0.43189881
C       1.59524954      1.27601765     -0.24756928
C       0.24548682      1.38559337     -0.07556024
C      -0.29089916      0.08835097      0.12228847
H       0.47369442     -1.41513300     -1.21840683
H       2.32362463     -1.71065823      1.03446869
H       3.06268995      0.14654028     -1.30175306
H       2.06518802      2.18659172     -0.28803448
H      -0.37851124      2.17032684      0.25932599
H      -1.30794298      0.01137207     -0.07063846
