12
Family_1 [H]c1c([H])c([H])c([H])c([H])c1[H] | RMSD: 0.5273 | 3810.00 to state    1 from traj    3 on state    2
C       0.43699695     -1.12711819     -0.35233606
C       1.67795157     -1.01484056      0.33379804
C       2.33813694      0.14439382     -0.15522595
C       1.56909174      1.25746394     -0.49953790
C       0.39792259      1.37986532      0.03421698
C      -0.23680162     -0.07423138      0.26278991
H       0.50960732     -1.41814785     -1.49470232
H       1.40350994     -1.24810610      1.53837568
H       3.32658130      0.21016895     -0.15571402
H       2.12135615      2.05621467     -1.16190626
H      -0.09853688      2.22842015     -0.11646585
H      -0.79911331     -0.18496168      1.21042527
