12
Family_1 [H]c1c([H])c([H])c([H])c([H])c1[H] | RMSD: 0.3126 | 5360.00 to state    1 from traj    4 on state    2
C       0.57752433     -0.98733123     -0.23995807
C       1.90103763     -1.15272630      0.49037235
C       2.27691172     -0.02033095     -0.36715668
C       1.55213594      1.30817831     -0.27116164
C       0.20980538      1.39371982     -0.12123629
C      -0.33116750      0.15281343      0.16835097
H       0.31970987     -1.86869620     -0.82282843
H       2.42228069     -2.18671574      0.82878538
H       3.36374318     -0.22006730     -0.84217206
H       2.22549994      2.29397922     -0.21208017
H      -0.53530451      2.17985946     -0.04045638
H      -1.36766823     -0.08939256      0.48569077
