12
Family_1 [H]c1c([H])c([H])c([H])c([H])c1[H] | RMSD: 0.3184 | 6025.00 to state    1 from traj    2 on state    2
C       0.60277364     -1.03223408     -0.34411052
C       1.77605231     -1.14864305      0.51444353
C       2.34168983     -0.00154750     -0.19635784
C       1.58256808      1.28441443     -0.51364068
C       0.15642070      1.38702967      0.03395096
C      -0.35205387      0.11225177      0.19808085
H       0.63656319     -1.41087535     -1.27876401
H       2.40305565     -1.98509355      0.67877570
H       3.55039887      0.04680376     -0.49838771
H       2.07220350      2.11579328     -0.96833806
H      -0.16265993      2.53023129      0.19519662
H      -1.13238308     -0.07911728      0.87338461
