12
Family_1 [H]c1c([H])c([H])c([H])c([H])c1[H] | RMSD: 0.2786 | 18365.00 to state    1 from traj    4 on state    2
C       0.37256236     -1.23557775     -0.36245625
C       1.65782835     -1.01527954      0.39850587
C       2.37925006      0.12162386     -0.22096436
C       1.65697203      1.38734035     -0.40348914
C       0.33807480      1.29432197     -0.08461232
C      -0.24019675      0.05047449      0.34547956
H       0.23769455     -1.83225303     -1.34041508
H       2.32153112     -1.66424587      1.13409424
H       3.43787950      0.13694867     -0.44550155
H       2.22522922      2.51615378     -0.61652836
H      -0.35332714      2.05374169     -0.36852203
H      -1.18150102     -0.01205111      0.87589676
