12
Family_1 [H]c1c([H])c([H])c([H])c([H])c1[H] | RMSD: 0.2430 | 6750.00 to state    1 from traj    2 on state    2
C       0.57119446     -1.01733763     -0.25643331
C       1.88452782     -1.21571101      0.39233025
C       2.38434361      0.01336136     -0.20340501
C       1.53430975      1.26255313     -0.32421040
C       0.15391994      1.43152555     -0.17684864
C      -0.38165723      0.15394706      0.25354922
H       0.30622452     -1.45899111     -1.19167848
H       2.54462633     -1.94597701      0.90164912
H       3.43205898      0.01953255     -0.78102073
H       2.27636426      2.02083887     -0.67013661
H      -0.35564851      2.39245717      0.05199769
H      -1.30339480     -0.13264249      0.77904364
