12
Family_1 [H]c1c([H])c([H])c([H])c([H])c1[H] | RMSD: 0.2961 | 3615.00 to state    1 from traj    2 on state    2
C       0.39528985     -1.24901139     -0.09431677
C       1.81311563     -1.06504557      0.24994346
C       2.42678065      0.12106838     -0.19863042
C       1.63760312      1.31526432     -0.39064639
C       0.25706356      1.26893018     -0.08371099
C      -0.36509308      0.12961108      0.24891070
H       0.29268865     -0.65566111     -1.13459070
H       2.42920530     -1.77085629      0.79277036
H       3.44981997      0.19914253     -0.25402449
H       2.26539801      2.10387055     -0.87069004
H      -0.17934076      2.28467935     -0.02173353
H      -1.57346877      0.01523372      0.02324028
