12
Family_1 [H]c1c([H])c([H])c([H])c([H])c1[H] | RMSD: 0.3727 | 9490.00 to state    1 from traj    2 on state    2
C       0.58546476     -1.05460240     -0.23648888
C       1.83855184     -0.95884477      0.53485883
C       2.28889525     -0.03203850     -0.39345931
C       1.52603013      1.23691330     -0.27358226
C       0.26432198      1.35424514      0.01901446
C      -0.31160466      0.12076189      0.01420607
H       0.23738401     -1.92603577     -0.79734016
H       2.21442798     -1.96369583      0.87212444
H       3.01184944     -0.25387504     -1.04716651
H       2.08160908      2.31268648     -0.47256292
H      -0.01744284      2.34211078      0.28501123
H      -1.16405191     -0.06991438      0.49326407
