12
Family_1 [H]c1c([H])c([H])c([H])c([H])c1[H] | RMSD: 0.3046 | 13460.00 to state    1 from traj    2 on state    2
C       0.44457962     -1.10238543      0.07089398
C       1.87488636     -1.14085433      0.28682506
C       2.46485535      0.12059997     -0.27481184
C       1.69393336      1.29892102     -0.34267936
C       0.24021091      1.29984139     -0.06385981
C      -0.55374562      0.07497189      0.06728974
H       0.21481362     -0.78420528     -1.01388578
H       2.49888541     -1.99337621      0.50058202
H       3.49744277      0.19002158     -0.63467838
H       2.19988813      2.21282261     -0.72860255
H      -0.22813663      2.15225604      0.18247575
H      -1.49811720      0.03811318      0.08480375
