12
Family_1 [H]c1c([H])c([H])c([H])c([H])c1[H] | RMSD: 0.3675 | 15690.00 to state    1 from traj    2 on state    2
C       0.37545458     -0.99761176     -0.30407932
C       1.73962731     -0.92619443      0.17121598
C       2.54748029      0.18300399     -0.15805957
C       1.69053477      1.15047539     -0.43586760
C       0.32139248      1.08047667     -0.13852188
C      -0.40678648      0.05073308      0.44621071
H      -0.12264758     -1.58575989     -1.07419610
H       1.95173899     -1.35641620      1.13986740
H       3.46393458      0.26637691      0.29954365
H       2.06498603      2.28205731     -0.41702470
H      -0.38975110      2.09282005     -0.34425867
H      -1.51059639      0.23823140      0.72615166
