12
Family_1 [H]c1c([H])c([H])c([H])c([H])c1[H] | RMSD: 0.2627 | 4820.00 to state    1 from traj    3 on state    2
C       0.40768415     -1.25118756     -0.07706166
C       1.77520602     -1.01351996      0.22709688
C       2.42806150      0.07485406     -0.22576332
C       1.65622891      1.29044270     -0.37662525
C       0.22696989      1.29180709     -0.08015076
C      -0.32574829      0.16750144      0.24007085
H       0.45349838     -0.75820311     -1.22493934
H       2.36977542     -1.82641671      0.75484903
H       3.51309280      0.20280335     -0.08108597
H       2.24209803      2.14604373     -0.68647003
H      -0.45170862      2.07949975     -0.21636218
H      -1.48585588     -0.13299195      0.27475210
