12
Family_1 [H]c1c([H])c([H])c([H])c([H])c1[H] | RMSD: 0.2858 | 7405.00 to state    1 from traj   10 on state    2
C       0.41708737     -1.12043537     -0.22560201
C       1.73946778     -1.04089050      0.17714604
C       2.45927239      0.12465935     -0.18568574
C       1.73078963      1.32781623     -0.27704324
C       0.29862368      1.27908964     -0.22698653
C      -0.42489973      0.00986521      0.44754490
H       0.07769746     -1.46172876     -1.20315374
H       2.11978054     -1.49040695      1.21901978
H       3.44159952      0.27079723     -0.47187451
H       2.15966587      2.22620871     -0.62994815
H      -0.28770064      1.89889551     -0.76626278
H      -1.48903015      0.02619196      0.65143513
