12
Family_1 [H]c1c([H])c([H])c([H])c([H])c1[H] | RMSD: 0.3339 | 4090.00 to state    1 from traj    9 on state    2
C       0.31090079     -1.25390084     -0.10498994
C       1.80955836     -1.03839085      0.25777664
C       2.43243010      0.16091706     -0.16107589
C       1.61067314      1.26963415     -0.48993247
C       0.32811354      1.32771706     -0.07074156
C      -0.37299299      0.08632291      0.19079224
H       0.77713287     -0.94486987     -1.17148983
H       2.27055843     -2.01114599      0.70922494
H       3.51321681      0.39414107      0.02647690
H       2.13151257      2.14092238     -0.73274513
H      -0.09648901      2.18445796      0.34000195
H      -1.36259328      0.03776803      0.67089756
