12
Family_1 [H]c1c([H])c([H])c([H])c([H])c1[H] | RMSD: 0.3066 | 4905.00 to state    1 from traj    2 on state    2
C       0.37373454     -1.13611205      0.08908072
C       1.86491004     -1.05407473      0.31350455
C       2.38193557      0.12826504     -0.49981272
C       1.67779119      1.27157458     -0.16914502
C       0.30412612      1.28732862     -0.03489513
C      -0.49407560      0.06596574     -0.00727680
H       0.72994416     -1.38184950     -0.94786377
H       2.48135531     -1.52595523      0.95826228
H       3.54198232      0.14059537     -0.76382867
H       2.50689069      2.07992649     -0.28078566
H      -0.33751157      2.08110412     -0.08090470
H      -1.56705478      0.28057784      0.12783906
