12
Family_1 [H]c1c([H])c([H])c([H])c([H])c1[H] | RMSD: 0.3716 | 3590.00 to state    1 from traj    2 on state    2
C       0.33947582     -0.99134220     -0.35523739
C       1.79060391     -1.01464459      0.24243744
C       2.51907337      0.17049134     -0.10578175
C       1.70364391      1.19178042     -0.59018918
C       0.29653040      1.20640719      0.03173314
C      -0.42219270     -0.02033976      0.42611875
H       0.07070646     -1.32085940     -1.37240830
H       2.02748080     -1.35897354      1.31955202
H       3.45622168      0.22084692      0.33160407
H       2.13249028      2.23789134     -0.85197872
H      -0.38838964      2.05716615     -0.45589419
H      -1.35744724      0.08372841      0.54676568
