12
Family_1 [H]c1c([H])c([H])c([H])c([H])c1[H] | RMSD: 0.2759 | 24255.00 to state    1 from traj    3 on state    2
C       0.52451774     -1.07572931     -0.21607126
C       1.74596181     -1.16425341      0.34746789
C       2.40928486      0.04946318     -0.12462343
C       1.58215717      1.37101672     -0.42588034
C       0.19330513      1.35345788     -0.15276918
C      -0.21725675      0.06901077      0.28603741
H       0.44704939     -1.24743892     -1.31253500
H       1.98713684     -1.94361790      0.86318322
H       2.99061747     -0.05038833     -0.97310539
H       2.18691759      2.24353632     -0.42687672
H      -0.37189856      2.32010938     -0.16810325
H      -1.42786974     -0.12465059      0.75960471
