12
Family_1 [H]c1c([H])c([H])c([H])c([H])c1[H] | RMSD: 0.3665 | 5760.00 to state    1 from traj    2 on state    2
C       0.43002243     -1.21489723     -0.03530477
C       1.78364105     -0.87983424      0.30878205
C       2.48474304      0.02416279     -0.42425620
C       1.62388072      1.29453955     -0.32968290
C       0.36502680      1.25342868      0.09548689
C      -0.50946145      0.04186946      0.04345395
H       0.26530298     -1.13909900     -1.12652303
H       2.17419726     -1.08273588      1.39179204
H       3.50328161      0.07068951     -0.54970116
H       2.39485426      2.07928500     -0.51196069
H      -0.21332678      2.04288961      0.26303086
H      -1.59601714      0.22382495     -0.06098097
