12
Family_1 [H]c1c([H])c([H])c([H])c([H])c1[H] | RMSD: 0.2902 | 7350.00 to state    1 from traj    2 on state    2
C       0.51553157     -0.98858012     -0.18088191
C       1.80599297     -1.15419680      0.50529050
C       2.37675494      0.06751800     -0.34564656
C       1.63346034      1.30537728     -0.29338558
C       0.17659685      1.31490061     -0.12986980
C      -0.38136505      0.06857000      0.14825465
H       0.65944384     -1.28789865     -1.20010671
H       2.45676773     -2.03522967      0.49337263
H       3.41958054     -0.10590144     -0.84365777
H       2.21789442      2.13906073     -0.54715744
H      -0.32241657      2.20785066      0.08342136
H      -1.29669673      0.15308652      0.88021603
