12
Family_1 [H]c1c([H])c([H])c([H])c([H])c1[H] | RMSD: 0.3759 | 5410.00 to state    1 from traj    5 on state    2
C       0.50997901     -0.99513406     -0.30443258
C       1.76105718     -1.11450717      0.37248290
C       2.35446302      0.06188567     -0.08741739
C       1.55229229      1.21694928     -0.43088088
C       0.19089877      1.37273048     -0.11317188
C      -0.20776745      0.10117810      0.22749620
H       0.30038404     -1.54608707     -1.36233889
H       2.12422235     -1.85703359      0.87665949
H       3.38505046      0.04367433     -0.56945932
H       1.90108895      2.09963764     -1.00856002
H      -0.23842140      2.24918085      0.29595010
H      -0.74230261     -0.27007518      1.10670934
