12
Family_1 [H]c1c([H])c([H])c([H])c([H])c1[H] | RMSD: 0.2693 | 8455.00 to state    1 from traj    4 on state    2
C       0.29790739     -1.11838156     -0.03680773
C       1.79590773     -0.96007407      0.16182715
C       2.53685501      0.12147998     -0.21752195
C       1.68951417      1.25426314     -0.32704258
C       0.27344755      1.19589891     -0.16437333
C      -0.41467599      0.06399908      0.26201421
H       0.61002424     -0.82059010     -1.13841149
H       2.30285133     -1.89421568      0.70264635
H       3.55247977      0.14820644     -0.13174193
H       2.05067286      2.13225962     -0.53339641
H      -0.47521599      2.01459278     -0.27952806
H      -1.52566634      0.16280077      0.55234172
