12
Family_1 [H]c1c([H])c([H])c([H])c([H])c1[H] | RMSD: 0.4603 | 4050.00 to state    1 from traj    2 on state    2
C       0.37157573     -1.01757065     -0.27835021
C       1.75568764     -1.01437985      0.10390646
C       2.52284106      0.17258353     -0.07397837
C       1.69432846      1.19478863     -0.50243595
C       0.30131246      1.11388651     -0.07397781
C      -0.36100647      0.07547324      0.43424351
H      -0.25299433     -1.63968877     -1.25675696
H       1.89630914     -1.24397458      1.29573455
H       3.40013026      0.53485669      0.47352299
H       1.93981639      2.27742321     -0.68651948
H      -0.28322516      2.03606260     -0.50679742
H      -1.44536651      0.16449111      0.67119196
