12
Family_1 [H]c1c([H])c([H])c([H])c([H])c1[H] | RMSD: 0.3630 | 13390.00 to state    1 from traj    3 on state    2
C       0.57715793     -1.05345465     -0.09182040
C       1.90724993     -1.04127707      0.53560508
C       2.21775663      0.02519490     -0.51591561
C       1.64052012      1.24305508     -0.21801103
C       0.32584892      1.41965332     -0.05354440
C      -0.47813606      0.08503187      0.08375032
H       0.44307858     -1.75362347     -0.98316387
H       2.32063518     -1.93683102      0.47587653
H       3.22265789     -0.13210387     -0.92658961
H       2.09908606      2.17463517     -0.08406354
H      -0.19684757      2.21379775      0.04951680
H      -1.50979872     -0.26483148     -0.09805892
