12
Family_1 [H]c1c([H])c([H])c([H])c([H])c1[H] | RMSD: 0.2636 | 6015.00 to state    1 from traj    5 on state    2
C       0.43723263     -1.23357727      0.07448216
C       1.80654013     -1.09306598      0.10038412
C       2.46748495      0.14814184     -0.18330547
C       1.69001823      1.26460030     -0.28005701
C       0.15360070      1.34448935     -0.24262168
C      -0.40771183      0.12689717      0.20814811
H       0.38375286     -0.95394568     -1.09813068
H       2.48708269     -1.92322592      0.51625609
H       3.53291477      0.05812607     -0.29895997
H       2.36632261      2.11993711     -0.37054703
H      -0.39002711      2.19564538     -0.15524186
H      -1.48608801      0.24294302      0.59123022
