12
Family_1 [H]c1c([H])c([H])c([H])c([H])c1[H] | RMSD: 0.3304 | 5410.00 to state    1 from traj    2 on state    2
C       0.41329241     -1.08587650      0.07739507
C       1.86524232     -1.12271099      0.13829659
C       2.39452333      0.08869751     -0.11994024
C       1.58287676      1.22952886     -0.41029330
C       0.26701255      1.32556009     -0.08653730
C      -0.37515274      0.08859716      0.13189109
H       0.59509691     -0.71745507     -1.21767091
H       2.49297353     -1.88913933      0.39413258
H       3.48826705      0.18824549     -0.05602332
H       1.99012463      2.13295671     -0.81042877
H      -0.28366686      2.33929119     -0.05153609
H      -1.39634235      0.08701156      0.28528831
