12
Family_1 [H]c1c([H])c([H])c([H])c([H])c1[H] | RMSD: 0.4428 | 10945.00 to state    1 from traj    7 on state    2
C       0.43157393     -1.21769325     -0.02385966
C       1.79453193     -0.95863734      0.40765370
C       2.39094896      0.04972772     -0.46455122
C       1.66912226      1.34363588     -0.27234208
C       0.36244628      1.26962477      0.03874911
C      -0.47161594      0.08894835      0.01614590
H       0.73085175     -1.54430396     -1.10057062
H       2.47292669     -1.22567783      1.10940969
H       3.11559143     -0.22086697     -1.15884473
H       2.27399614      2.25352786     -0.20579687
H      -0.23540869      2.15308553      0.36871835
H      -1.81959448      0.10779457     -0.12340688
