12
Family_1 [H]c1c([H])c([H])c([H])c([H])c1[H] | RMSD: 0.3576 | 5905.00 to state    1 from traj    6 on state    2
C       0.42850106     -1.20200905     -0.36393744
C       1.73745298     -1.05714430      0.46924004
C       2.32667655      0.06246082     -0.18763639
C       1.59058755      1.33391555     -0.44737945
C       0.27996569      1.35810987     -0.03965222
C      -0.22117921      0.11809145      0.20388778
H       0.17762591     -1.76342305     -1.20411101
H       2.38416636     -1.87179795      1.02301643
H       3.38355779      0.30695756     -0.64870116
H       2.04642566      2.17778497     -0.57034411
H      -0.23607781      2.54262750      0.00596873
H      -0.80025299     -0.31921930      1.08528826
