12
Family_1 [H]c1c([H])c([H])c([H])c([H])c1[H] | RMSD: 0.2194 | 9220.00 to state    1 from traj   10 on state    2
C       0.44451807     -1.16117217      0.05776670
C       1.77181704     -1.03951676      0.20320368
C       2.38206237      0.14775824     -0.28529543
C       1.62142960      1.23934886     -0.31290939
C       0.33036455      1.30191294     -0.09376548
C      -0.37143979      0.05269852      0.12508259
H       0.44372711     -1.02000935     -1.26518643
H       2.35122451     -1.53070430      0.94598981
H       3.26993729     -0.11234765     -0.50559974
H       2.12639656      2.23685913     -0.31634610
H      -0.22614786      2.22557363      0.00851762
H      -1.44756080      0.13619016      0.11404032
