12
Family_1 [H]c1c([H])c([H])c([H])c([H])c1[H] | RMSD: 0.3034 | 6120.00 to state    1 from traj    2 on state    2
C       0.41441102     -1.09033597      0.04893391
C       1.81797092     -1.07727751      0.27016483
C       2.53923376      0.10746554     -0.24438496
C       1.63700544      1.20773881     -0.41573306
C       0.18500976      1.25851246      0.04257352
C      -0.45671896      0.13672156     -0.00202136
H       0.36655165     -0.86341845     -1.08648217
H       2.58543701     -1.85045572      0.77965570
H       3.45379188      0.21384920     -0.57106133
H       2.03459710      2.17824853     -0.73746477
H      -0.03250961      2.27439918      0.39091229
H      -1.39174047     -0.03845270      0.14091282
