12
Family_1 [H]c1c([H])c([H])c([H])c([H])c1[H] | RMSD: 0.3880 | 17280.00 to state    1 from traj    3 on state    2
C       0.55902203     -1.05145078     -0.21148257
C       1.88532631     -1.13205637      0.51960149
C       2.26169847     -0.05247971     -0.25097954
C       1.57398607      1.41471405     -0.34578243
C       0.20398282      1.33591636      0.00007749
C      -0.33060373      0.12263254      0.09555864
H       0.23071178     -1.80189153     -1.15031102
H       2.63779494     -1.73717540      0.33023700
H       3.19651980     -0.49289716     -1.12583578
H       2.23364081      2.40513192     -0.71434851
H      -0.10384057      2.41765988     -0.05563240
H      -1.37530823     -0.00210746      0.35190238
