12
Family_1 [H]c1c([H])c([H])c([H])c([H])c1[H] | RMSD: 0.3417 | 8040.00 to state    1 from traj    2 on state    2
C       0.38609735     -1.05096263     -0.22803372
C       1.77145405     -1.08305020      0.19382276
C       2.41038570      0.17167177     -0.18613237
C       1.69131405      1.28241563     -0.42287233
C       0.31680644      1.23275024     -0.12924055
C      -0.34639108     -0.03762452      0.42045971
H       0.11541670     -1.47733969     -1.26234870
H       1.93408853     -1.17259936      1.27724621
H       3.45688676      0.22593614      0.05276608
H       2.28754332      2.24831562     -0.50569807
H      -0.42672806      1.94627579     -0.36294032
H      -1.45631280      0.47274702      0.33145463
