12
Family_1 [H]c1c([H])c([H])c([H])c([H])c1[H] | RMSD: 0.3376 | 16400.00 to state    1 from traj    2 on state    2
C       0.45397453     -1.02474832     -0.10419754
C       1.75737079     -0.85808092      0.39291550
C       2.52780448     -0.02911783     -0.52418681
C       1.67454404      1.19152961     -0.28288233
C       0.29710689      1.29840519      0.05376260
C      -0.50734731     -0.02694003      0.13677266
H       0.22582415     -1.46711410     -1.34174761
H       2.19388944     -1.12926202      1.32555375
H       3.54506912      0.24498371     -0.38817802
H       2.14914592      2.05078663     -0.32467631
H      -0.28237706      2.25668479      0.03126244
H      -1.60831063     -0.13988948     -0.05986221
