12
Family_1 [H]c1c([H])c([H])c([H])c([H])c1[H] | RMSD: 0.4800 | 3665.00 to state    1 from traj    2 on state    2
C       0.65294477     -0.94446574     -0.20418010
C       1.89166100     -1.16341812      0.53200144
C       2.11272928     -0.04771120     -0.26076527
C       1.60577260      1.34365434     -0.37054012
C       0.26951714      1.38769615      0.04492053
C      -0.32338436      0.08541970      0.05667449
H       0.18020592     -1.66355492     -0.73231824
H       2.74232243     -1.97439857      0.29587318
H       3.02287705     -0.23222922     -0.87834419
H       1.89339257      2.05693170     -1.10987128
H      -0.40391009      2.20390568      0.40681100
H      -1.28060302      0.11329232     -0.24030240
