12
Family_1 [H]c1c([H])c([H])c([H])c([H])c1[H] | RMSD: 0.2846 | 4325.00 to state    1 from traj    3 on state    2
C       0.31567329     -1.29377702     -0.07498556
C       1.83574356     -1.00539985      0.23431948
C       2.46743337      0.12055465     -0.18478183
C       1.73306375      1.30903509     -0.43505490
C       0.26897100      1.30278928     -0.03976734
C      -0.44439441      0.09643522      0.19898961
H       0.35557940     -0.77463507     -1.32896984
H       2.42308005     -1.73047285      0.71230211
H       3.66630047      0.06797589     -0.07242546
H       1.96759785      2.33691313     -0.80182399
H      -0.34210944      2.12667427     -0.10627801
H      -1.52592685      0.04485260      0.52336019
