12
Family_1 [H]c1c([H])c([H])c([H])c([H])c1[H] | RMSD: 0.4099 | 7790.00 to state    1 from traj    6 on state    2
C       0.27234684     -1.13295966     -0.31819577
C       1.68765400     -1.03811772      0.22372938
C       2.39165023      0.22665658     -0.04513135
C       1.68186500      1.33337652     -0.52692857
C       0.34161977      1.16022069     -0.09171905
C      -0.10371693     -0.01278339      0.41022976
H       0.02103619     -1.24659891     -1.28486303
H       1.65416822     -1.59392615      1.12230751
H       3.45471446      0.36118306      0.23271749
H       1.73667579      2.23420925     -1.02987811
H      -0.28532135      2.01296336     -0.25598111
H      -1.16788699      0.22297937      0.69874185
