12
Family_1 [H]c1c([H])c([H])c([H])c([H])c1[H] | RMSD: 0.2582 | 4280.00 to state    1 from traj    2 on state    2
C       0.26125078     -1.20748100     -0.08050289
C       1.75315002     -1.00972129      0.18263334
C       2.46038450      0.13872705     -0.13532487
C       1.63389700      1.26833205     -0.39860716
C       0.29556764      1.29655672     -0.14170260
C      -0.28559155      0.05772509      0.22977765
H       0.65493373     -1.02009782     -1.29913244
H       2.46101649     -1.61058572      0.78133055
H       3.52701473      0.24330229     -0.13515200
H       2.05638719      2.19577061     -0.66668084
H      -0.14946705      2.16647043      0.00182946
H      -1.31625425     -0.07634391      0.74974309
