12
Family_1 [H]c1c([H])c([H])c([H])c([H])c1[H] | RMSD: 0.3892 | 16730.00 to state    1 from traj    2 on state    2
C       0.42647696     -1.12243221     -0.18101957
C       1.84190597     -0.91386664      0.50166587
C       2.51135112     -0.02362774     -0.42325550
C       1.60513092      1.26441180     -0.42731156
C       0.22618801      1.29999919      0.16319475
C      -0.43466789      0.04625016      0.04544498
H       0.39272644     -1.21936042     -1.30548200
H       1.98724624     -1.47036944      1.42611355
H       3.47784940      0.02166957     -0.87301726
H       2.13361826      2.15429513     -0.56297997
H       0.06655857      2.25756985      0.54540118
H      -1.51222068      0.07611598     -0.06555134
