12
Family_1 [H]c1c([H])c([H])c([H])c([H])c1[H] | RMSD: 0.3269 | 7670.00 to state    1 from traj    3 on state    2
C       0.36286658     -1.18417289     -0.34178528
C       1.71198233     -0.93804309      0.33907564
C       2.41309012      0.10002121     -0.19860531
C       1.65481446      1.27282857     -0.34693321
C       0.34398129      1.32569680     -0.07673968
C      -0.27700902      0.01910976      0.32628303
H       0.19583397     -1.42226119     -1.39497201
H       1.99704676     -1.38809706      1.27731719
H       3.55118398      0.17752310     -0.47214246
H       1.99588035      2.04719520     -1.11391795
H      -0.38635017      2.17231263     -0.23989959
H      -1.20509318     -0.29945157      0.83908829
