12
Family_1 [H]c1c([H])c([H])c([H])c([H])c1[H] | RMSD: 0.3691 | 11470.00 to state    1 from traj    2 on state    2
C       0.46503379     -1.22580705     -0.17173025
C       1.81832867     -1.06336965      0.38343483
C       2.42269277      0.11327911     -0.35315375
C       1.61157843      1.32983974     -0.21233156
C       0.33165568      1.34432618     -0.10801080
C      -0.41145183      0.07482501      0.18700010
H       0.36258700     -1.72500816     -1.12686939
H       2.04690670     -1.53865801      1.27969997
H       2.90602997     -0.01281311     -1.33509303
H       2.23686224      2.22707672     -0.41242388
H      -0.20200038      2.41716385     -0.16206767
H      -1.53685423      0.18573950      0.36728328
