12
Family_1 [H]c1c([H])c([H])c([H])c([H])c1[H] | RMSD: 0.3345 | 33605.00 to state    1 from traj    9 on state    2
C       0.42593714     -1.03839149     -0.24989441
C       1.83743466     -1.04581908      0.43444742
C       2.33753102      0.06904610     -0.31169188
C       1.61065397      1.26956351     -0.35304762
C       0.31488855      1.38468232      0.00349194
C      -0.34610502     -0.00922267      0.12544368
H       0.36158190     -1.77167283     -1.20392428
H       2.16916547     -1.32322448      1.37652119
H       3.15202188     -0.16416038     -0.91739451
H       2.20073203      2.13388558     -0.45034515
H      -0.09392531      2.32558295     -0.04155527
H      -1.29092679     -0.32330733      0.75829317
