12
Family_1 [H]c1c([H])c([H])c([H])c([H])c1[H] | RMSD: 0.3083 | 11360.00 to state    1 from traj    2 on state    2
C       0.35223077     -1.13674890      0.04785938
C       1.82428523     -1.07673846      0.28021072
C       2.40039536      0.13005127     -0.31986531
C       1.70576839      1.32032671     -0.34248184
C       0.29450865      1.22414479      0.01096525
C      -0.44799323      0.06050219      0.07225153
H       0.52441016     -0.95688515     -0.98047985
H       2.46761525     -1.75314888      0.89111813
H       3.48121427      0.38013737     -0.70365656
H       2.21046982      2.24624207     -0.68378416
H      -0.05076667      2.19483020      0.03796437
H      -1.52486476      0.05664668     -0.23340524
