12
Family_1 [H]c1c([H])c([H])c([H])c([H])c1[H] | RMSD: 0.2806 | 3270.00 to state    1 from traj    8 on state    2
C       0.37035355     -1.21941676     -0.04246108
C       1.79756496     -1.10567056      0.18980862
C       2.42122050      0.13973624     -0.13729262
C       1.66512423      1.26857403     -0.38021261
C       0.22549305      1.34234910     -0.15219549
C      -0.28245520      0.09426456      0.22070067
H       0.10571836     -0.71173132     -1.45556170
H       2.38877493     -1.76501707      0.91269704
H       3.62564086      0.26545315     -0.27930143
H       1.95820507      2.14832270     -0.72419756
H      -0.44630396      2.22551989     -0.03855341
H      -1.33548529      0.02554337      0.51551432
