12
Family_1 [H]c1c([H])c([H])c([H])c([H])c1[H] | RMSD: 0.2646 | 1400.00 to state    1 from traj    2 on state    2
C       0.32532039     -1.14542585      0.00660590
C       1.78381184     -1.04610376      0.12954015
C       2.40959387      0.12298893     -0.15419979
C       1.64930680      1.28487151     -0.35032762
C       0.26453004      1.21812968     -0.14964194
C      -0.28194486      0.07974683      0.21322953
H       0.45507932     -0.77321330     -1.19094167
H       2.45436427     -1.57579139      0.65401250
H       3.53565150      0.17245143     -0.09544460
H       2.04553501      2.14560654     -0.58590488
H      -0.24959792      2.11888065     -0.26730731
H      -1.38822248      0.16723339      0.45361346
