12
Family_1 [H]c1c([H])c([H])c([H])c([H])c1[H] | RMSD: 0.4209 | 2565.00 to state    1 from traj    4 on state    2
C       0.54216856     -0.94046240     -0.09933811
C       1.83185130     -0.90030413      0.48206430
C       2.33065260      0.04268031     -0.46236782
C       1.61011776      1.15795154     -0.23416007
C       0.29465026      1.22976230      0.12147261
C      -0.41129002      0.05669286     -0.03241003
H       0.33480347     -1.34506267     -1.05582171
H       2.40676343     -1.61283141      1.10394709
H       2.99476029     -0.47458814     -1.27079590
H       2.15584172      1.99012064     -0.69064785
H      -0.11109834      2.15267877      0.13383783
H      -1.49464142     -0.02936723     -0.20639708
