12
Family_1 [H]c1c([H])c([H])c([H])c([H])c1[H] | RMSD: 0.2836 | 9890.00 to state    1 from traj    5 on state    2
C       0.55171975     -1.03941982     -0.18716609
C       1.85257166     -1.10181000      0.53862021
C       2.27595605     -0.04990366     -0.44186250
C       1.63766574      1.39056444     -0.23486229
C       0.25938705      1.33986095     -0.06066593
C      -0.36842926      0.09942628      0.07979308
H       0.22641109     -1.82094324     -0.99377197
H       2.46474740     -1.87772864      0.84460483
H       3.21680130     -0.13285952     -0.90914586
H       1.89625488      2.40308526     -0.48536426
H      -0.32155666      2.20561597      0.15634868
H      -1.32397102     -0.00563330      0.37143914
