12
Family_1 [H]c1c([H])c([H])c([H])c([H])c1[H] | RMSD: 0.3263 | 6640.00 to state    1 from traj    2 on state    2
C       0.46897631     -1.14216828     -0.30755381
C       1.67103195     -1.04590916      0.47277576
C       2.31733722      0.08567374     -0.22027832
C       1.55568444      1.28878977     -0.43889335
C       0.28726025      1.36615246     -0.08127028
C      -0.15895521      0.06270085      0.20056629
H       0.25811712     -1.54044996     -1.30794984
H       2.21841833     -1.80508137      0.74750270
H       3.41995826      0.21908846     -0.32664738
H       2.08621393      2.09906882     -0.65923664
H      -0.22760767      2.26828847      0.34199374
H      -0.79167587     -0.18961195      1.00479322
