12
Family_1 [H]c1c([H])c([H])c([H])c([H])c1[H] | RMSD: 0.2976 | 10965.00 to state    1 from traj    3 on state    2
C       0.44670683     -1.12448612     -0.29870565
C       1.78715875     -0.99091440      0.55795654
C       2.26157143      0.00745497     -0.40145628
C       1.65379119      1.41485208     -0.30190359
C       0.33505399      1.31838827      0.06070895
C      -0.28066176      0.03117278      0.09359248
H       0.32704086     -1.93022677     -1.01321815
H       2.19899748     -1.68364461      1.07684068
H       3.17451878     -0.21097192     -0.91107616
H       2.09084924      2.33257400     -0.81087097
H      -0.30985836      2.16553145     -0.07549839
H      -1.26029708     -0.11322158      0.52327956
