12
Family_1 [H]c1c([H])c([H])c([H])c([H])c1[H] | RMSD: 0.4594 | 18595.00 to state    1 from traj    4 on state    2
C       0.38329935     -1.21143459     -0.21323703
C       1.69460560     -1.13554535      0.28407082
C       2.42466437      0.17897255     -0.12018999
C       1.68064427      1.32592153     -0.36188785
C       0.24224660      1.38329394     -0.17552010
C      -0.24658806      0.05250871      0.20355751
H       0.20489437     -1.52325808     -1.29726241
H       2.04080910     -1.74984160      1.20496599
H       3.30854454      0.20843177     -0.64988210
H       1.77594139      2.24617048     -0.87786651
H      -0.39207659      2.15052630      0.17367205
H      -0.42196918     -0.02427026      1.34874264
