12
Family_1 [H]c1c([H])c([H])c([H])c([H])c1[H] | RMSD: 0.3780 | 8220.00 to state    1 from traj    4 on state    2
C       0.51503030     -1.11575216     -0.21517694
C       1.82457210     -1.12836655      0.50019194
C       2.26334047      0.04697239     -0.27402146
C       1.59945175      1.40147863     -0.35118009
C       0.33950566      1.38649698     -0.12932905
C      -0.37873761      0.07325859      0.13960413
H       0.35495459     -1.88490856     -0.99763847
H       2.57651981     -2.03988081      0.27261973
H       3.16214049     -0.22495907     -0.75483186
H       2.11853810      2.31924712     -0.26101557
H      -0.42675430      2.28099053      0.07864897
H      -1.08206616      0.01875029      0.92953896
