12
Family_1 [H]c1c([H])c([H])c([H])c([H])c1[H] | RMSD: 0.2935 | 2705.00 to state    1 from traj    2 on state    2
C       0.42712377     -1.14075181      0.07310210
C       1.80293308     -1.03102583      0.09053096
C       2.35636969      0.11892447     -0.13469480
C       1.65810697      1.22314996     -0.37464790
C       0.25335405      1.28563037     -0.18736076
C      -0.32692963      0.06466435      0.18451689
H       0.36063335     -0.79274904     -1.16381464
H       2.32287078     -1.87754790      0.54940130
H       3.40317460      0.28734095      0.04232659
H       2.08809685      2.08347697     -0.48948945
H      -0.21272876      2.34907302      0.10376800
H      -1.35160019      0.12950165      0.44726241
