12
Family_1 [H]c1c([H])c([H])c([H])c([H])c1[H] | RMSD: 0.4226 | 14105.00 to state    1 from traj    3 on state    2
C       0.59494277     -0.92613636     -0.12477402
C       1.90242358     -1.15896272      0.51718734
C       2.15059563     -0.00155749     -0.33103540
C       1.60736839      1.32430527     -0.28868578
C       0.24321322      1.36355692     -0.00469096
C      -0.30017566      0.08833969      0.03247295
H       0.34338109     -1.79420345     -0.73060598
H       2.49175726     -1.94849415      0.03223654
H       2.98675958     -0.35784195     -0.95506849
H       2.12231070      2.17795167     -0.61739475
H      -0.29206243      2.23969823     -0.10357510
H      -1.36830827     -0.15121302      0.08809718
