12
Family_1 [H]c1c([H])c([H])c([H])c([H])c1[H] | RMSD: 0.3882 | 27140.00 to state    1 from traj    2 on state    2
C       0.58905396     -1.00060303     -0.23564428
C       1.88696267     -1.03858882      0.57408691
C       2.30289231      0.02032265     -0.42208420
C       1.54795610      1.20083763     -0.26174001
C       0.24724173      1.37321899      0.01550898
C      -0.34791349      0.10227505      0.01394690
H       0.07116546     -1.75773951     -0.67068571
H       2.35948970     -1.91174851      0.81399480
H       2.91281464     -0.12300560     -1.14830618
H       2.26930574      2.01735959     -0.48171460
H      -0.25984611      2.20771691      0.35275247
H      -1.40064940      0.11560300      0.23463117
