12
Family_1 [H]c1c([H])c([H])c([H])c([H])c1[H] | RMSD: 0.4146 | 4160.00 to state    1 from traj    8 on state    2
C       0.30748836     -1.06123936     -0.29077050
C       1.81928456     -1.04458300      0.17769340
C       2.54439328      0.12622146     -0.11025053
C       1.64762289      1.23719557     -0.48538233
C       0.32500098      1.24974161     -0.05927124
C      -0.42062744      0.02104179      0.44948228
H       0.32059940     -1.09721483     -1.38695776
H       1.82535008     -1.05151321      1.26805804
H       3.56985354      0.32642244      0.17314000
H       2.09069529      2.05998394     -0.90343454
H      -0.39238452      1.89747195     -0.54708570
H      -1.42572141     -0.04883674      0.52761354
