12
Family_1 [H]c1c([H])c([H])c([H])c([H])c1[H] | RMSD: 0.3451 | 3970.00 to state    1 from traj    2 on state    2
C       0.44904101     -1.15174362     -0.26285474
C       1.72946573     -1.11491484      0.35273054
C       2.24641830      0.08563812     -0.21057736
C       1.63630090      1.42554557     -0.42951050
C       0.35170973      1.30201562     -0.05025778
C      -0.20927160      0.03651066      0.19086265
H       0.33088048     -1.61690118     -1.20221842
H       1.82161763     -1.56174807      1.41451760
H       3.31801187      0.15404382     -0.36531675
H       2.07509551      2.39488925     -0.75958107
H      -0.36571228      2.13556253      0.06878135
H      -0.95916220     -0.07100363      1.06076727
