12
Family_1 [H]c1c([H])c([H])c([H])c([H])c1[H] | RMSD: 0.3781 | 26985.00 to state    1 from traj    2 on state    2
C       0.51097103     -1.09897476     -0.16961642
C       1.80705958     -1.05692180      0.56553073
C       2.18022105     -0.03239186     -0.45127962
C       1.62805345      1.34530634     -0.30303285
C       0.25323877      1.39373464      0.00871018
C      -0.20133818      0.10910862     -0.00334294
H       0.28434561     -1.96791865     -0.91302714
H       2.54005788     -1.88107327      0.91316141
H       3.23177315      0.05817226     -0.98809044
H       2.24615830      2.29731129     -0.06663638
H      -0.55911865      2.12615479      0.34220448
H      -1.21913176     -0.11304284      0.25519385
