12
Family_1 [H]c1c([H])c([H])c([H])c([H])c1[H] | RMSD: 0.3317 | 5120.00 to state    1 from traj    2 on state    2
C       0.55112311     -0.91341659     -0.26851357
C       1.73979764     -1.11863504      0.38512400
C       2.40149733      0.10565781     -0.13487405
C       1.60353110      1.22556033     -0.48609220
C       0.26017865      1.30497937     -0.08907504
C      -0.40563135      0.03818183      0.23137203
H       0.36786029     -1.27807618     -1.30935872
H       2.30582272     -1.90171187      0.85930793
H       3.45618218     -0.17479029     -0.44878945
H       1.91118143      2.19295183     -0.88970238
H      -0.14934211      2.17045711      0.40393134
H      -1.03744583     -0.28030382      1.03499067
