12
Family_1 [H]c1c([H])c([H])c([H])c([H])c1[H] | RMSD: 0.3932 | 19775.00 to state    1 from traj    2 on state    2
C       0.56519281     -1.09712398     -0.10222962
C       1.82269750     -1.16411813      0.46089047
C       2.11380725      0.07672563     -0.36210819
C       1.63537241      1.42462314     -0.32287153
C       0.32796545      1.36221216      0.04299031
C      -0.24357184      0.03479264     -0.01940505
H       0.26070215     -1.74442574     -0.87873371
H       2.24257125     -1.88044480      1.24980777
H       2.89106955     -0.11212176     -1.19951923
H       2.29018776      2.20524998     -0.55051315
H      -0.33906205      2.06289381      0.26066102
H      -1.33683101      0.25953014      0.06177656
