12
Family_1 [H]c1c([H])c([H])c([H])c([H])c1[H] | RMSD: 0.4100 | 16085.00 to state    1 from traj    2 on state    2
C       0.35196188     -1.20731384     -0.34148658
C       1.68189914     -0.93663674      0.29703329
C       2.46460388      0.16712564     -0.16243158
C       1.62567357      1.25186943     -0.42843496
C       0.31672948      1.30038422     -0.02046847
C      -0.22546442      0.00203115      0.32781564
H       0.24042302     -1.38022268     -1.46075538
H       1.79368606     -1.45095114      1.19110384
H       3.48791893      0.05930991      0.09430931
H       1.88243527      2.02505568     -1.27472338
H      -0.13185895      2.23602079     -0.28251501
H      -1.19175709      0.01225812      0.97680021
