12
Family_1 [H]c1c([H])c([H])c([H])c([H])c1[H] | RMSD: 0.3829 | 6920.00 to state    1 from traj    4 on state    2
C       0.31250583     -1.05447372     -0.23632152
C       1.70064918     -0.93203281      0.12019425
C       2.54638861      0.18685268     -0.05784549
C       1.73602074      1.20209329     -0.51403323
C       0.32562577      1.15022723     -0.12810507
C      -0.35931133     -0.03106090      0.47603454
H      -0.11968184     -1.31006413     -1.48477252
H       1.86799203     -1.34107186      1.07820646
H       3.54136153      0.47158217      0.26510877
H       2.15723873      2.23796021     -0.70779408
H      -0.50172662      2.01418491     -0.25103347
H      -1.41812078      0.09441869      0.48873001
