12
Family_1 [H]c1c([H])c([H])c([H])c([H])c1[H] | RMSD: 0.3120 | 1880.00 to state    1 from traj    2 on state    2
C       0.35727517     -1.18529524     -0.03313981
C       1.79291889     -1.09660150      0.18042176
C       2.46179381      0.12922501     -0.07393842
C       1.62266457      1.31335189     -0.46702012
C       0.21740495      1.29074110     -0.04509598
C      -0.31143993      0.09129162      0.17624461
H       0.51316277     -0.70851186     -1.09831812
H       2.35450725     -1.97919925      0.48375115
H       3.60168226      0.09187974     -0.20954469
H       2.10236615      2.14078917     -0.99631443
H      -0.28335233      2.30915158     -0.13754914
H      -1.31639229      0.06139522      0.42237701
