12
Family_1 [H]c1c([H])c([H])c([H])c([H])c1[H] | RMSD: 0.3435 | 2080.00 to state    1 from traj    2 on state    2
C       0.32842627     -1.21455138     -0.05157445
C       1.85702087     -1.10786951      0.19609320
C       2.48655605      0.14984311     -0.08688108
C       1.60843107      1.27810810     -0.44634645
C       0.21281686      1.31468202     -0.07459106
C      -0.34684432      0.13682552      0.18782694
H       0.67009421     -0.76039423     -1.32736356
H       2.42336479     -1.93294470      0.52378475
H       3.49554613     -0.00806392     -0.12453508
H       2.03424742      2.03057863     -1.05656947
H      -0.31146102      2.18594497      0.07529823
H      -1.40880171      0.22969209      0.52803464
