12
Family_1 [H]c1c([H])c([H])c([H])c([H])c1[H] | RMSD: 0.3665 | 13880.00 to state    1 from traj    4 on state    2
C       0.42264600     -1.11029684      0.03587900
C       1.77973876     -0.96309369      0.32478115
C       2.48231473      0.08823506     -0.43441545
C       1.58948148      1.16166982     -0.28956019
C       0.30868237      1.23819900      0.12219406
C      -0.40640146      0.11624661     -0.02182846
H       0.41704388     -1.28740826     -1.15971793
H       2.26442451     -1.26453508      1.19937086
H       3.40726873      0.16458643     -0.83524304
H       1.90291035      2.16813857     -0.46610862
H       0.04184955      2.27850522      0.09338781
H      -1.48863372     -0.00373833     -0.36225955
