12
Family_1 [H]c1c([H])c([H])c([H])c([H])c1[H] | RMSD: 0.2840 | 6200.00 to state    1 from traj    3 on state    2
C       0.44044829     -1.03677159     -0.01402061
C       1.81671920     -1.01486607      0.30165016
C       2.43799252      0.06494137     -0.25443106
C       1.64723427      1.28043236     -0.45379461
C       0.28804225      1.23520553      0.05488019
C      -0.44016950      0.02984896      0.06070127
H       0.35190526     -0.74101831     -1.08233110
H       2.14854130     -1.81899639      0.99373807
H       3.50903080      0.03999286     -0.64364830
H       2.20007782      2.16176674     -0.66255421
H      -0.33635321      2.18023343      0.30921987
H      -1.49283640     -0.09805003      0.05623514
