12
Family_1 [H]c1c([H])c([H])c([H])c([H])c1[H] | RMSD: 0.4171 | 10410.00 to state    1 from traj    2 on state    2
C       0.46046188     -1.12651845     -0.05180740
C       1.85361587     -0.97822237      0.43291386
C       2.43151994     -0.02581810     -0.50856395
C       1.56137742      1.21592578     -0.27599192
C       0.28556513      1.30967183      0.12497257
C      -0.45949758      0.12304219     -0.03625034
H       0.65972054     -1.46122095     -1.10962728
H       2.30162138     -1.12850977      1.36443893
H       3.45246912      0.22102223     -1.03018962
H       2.20736163      2.09363330     -0.24593465
H      -0.09025904      2.35054774      0.26189746
H      -1.46868105      0.13353895     -0.15419411
