12
Family_1 [H]c1c([H])c([H])c([H])c([H])c1[H] | RMSD: 0.3069 | 8300.00 to state    1 from traj    2 on state    2
C       0.49256178     -1.00894644     -0.24813195
C       1.87892406     -1.15105999      0.50594852
C       2.30977058      0.03310050     -0.22348637
C       1.64521514      1.33700706     -0.37936564
C       0.24180373      1.29627954     -0.09098022
C      -0.36782910      0.09373634      0.23829520
H       0.34843342     -1.21940599     -1.31344767
H       2.55333461     -2.12731574      0.23313514
H       3.21449982      0.10977981     -0.82426241
H       2.05197764      2.18787943     -0.66484333
H      -0.35404218      2.27414541     -0.34643748
H      -1.55512922      0.00641281      0.60803256
