12
Family_1 [H]c1c([H])c([H])c([H])c([H])c1[H] | RMSD: 0.4810 | Generated by script
C       0.34008022     -1.02326652     -0.11765628
C       1.78227310     -1.11840736      0.02018163
C       2.56347465      0.28002711     -0.12465485
C       1.76950949      1.42900356      0.04222643
C       0.29106937      1.43524390      0.06011581
C      -0.34818445      0.22946300      0.07313455
H      -0.37704235     -1.80318123     -0.49241418
H       1.65318276     -0.76191091      1.05937345
H       3.56652013      0.26196715     -0.39108182
H       2.45739341      2.21127612      0.30621929
H      -0.08947403      2.25725909     -0.50691184
H      -1.54211013      0.23004395     -0.19352376
