12
Family_1 [H]c1c([H])c([H])c([H])c([H])c1[H] | RMSD: 0.2762 | Generated by script
C       0.43808718     -0.86454160     -0.23475506
C       1.70823425     -0.86491832      0.42708784
C       2.48961527      0.09228040     -0.43313143
C       1.70586452      1.30243110      0.07337394
C       0.30473472      1.36281466      0.27052010
C      -0.31587144      0.19865516     -0.04969598
H       0.31859134     -1.51953957     -1.01054353
H       1.84096716     -1.23299341      1.38274694
H       3.37301789      0.45526451     -0.88728900
H       2.25337250      2.21910670     -0.04410143
H       0.06007695      2.31922752     -0.22078100
H      -1.37255817      0.21804543     -0.63055937
