12
Family_1 [H]c1c([H])c([H])c([H])c([H])c1[H] | RMSD: 0.4753 | Generated by script
C       0.37768591     -1.08223574     -0.09352919
C       1.74459403     -1.01198290      0.13132265
C       2.44147704      0.29073746     -0.29089180
C       1.80180198      1.48323860      0.02105645
C       0.44615228      1.36752061      0.18220699
C      -0.40723795      0.18545077     -0.10857838
H      -0.07671057     -2.06410235     -0.44864458
H       1.31831756     -0.48238192      1.28870254
H       3.39635677     -0.01994531     -0.06412401
H       2.47220737      2.29991848      0.23455501
H      -0.09240404      2.17706573      0.39808582
H      -1.42378096      0.47697433     -0.29521097
