12
Family_1 [H]c1c([H])c([H])c([H])c([H])c1[H] | RMSD: 0.3489 | Generated by script
C       0.43852457     -0.94388832     -0.38067491
C       1.72825220     -0.99313690      0.47708160
C       2.33354301      0.16828691     -0.22868798
C       1.72827788      1.40983540     -0.10290273
C       0.39903160      1.39465243      0.17781753
C      -0.23761494      0.17849957      0.03734790
H       0.49004303     -1.30880017     -1.45315335
H       1.72382289     -0.95055940      1.55819510
H       2.86505060     -0.05735518     -1.07472588
H       2.22898188      2.36779926      0.01171671
H      -0.20698226      2.28153446      0.47634702
H      -1.33464159      0.27510807     -0.05408195
