12
Family_1 [H]c1c([H])c([H])c([H])c([H])c1[H] | RMSD: 0.3819 | Generated by script
C       0.34656827     -1.00453739     -0.17702122
C       1.82176772     -1.10981712      0.17741998
C       2.43654147      0.26221992     -0.15587229
C       1.80839848      1.42324950      0.00162291
C       0.35281360      1.39821556      0.13624594
C      -0.35805613      0.22993870     -0.04334159
H      -0.22406444     -1.67524897     -0.80602574
H       1.60786065     -0.60014292      1.23832114
H       3.59910757      0.26841690     -0.34670089
H       2.28105374      2.28820432     -0.43568582
H      -0.25197576      2.24524974      0.39250027
H      -1.46041688      0.25974399     -0.09043050
