12
Family_1 [H]c1c([H])c([H])c([H])c([H])c1[H] | RMSD: 0.4802 | Generated by script
C       0.64242677     -0.81821207     -0.17792132
C       1.89650881     -1.13494212      0.40460717
C       2.31603756      0.04894006     -0.22194026
C       1.65835531      1.36274526      0.01534961
C       0.22786459      1.51782023     -0.00868374
C      -0.43696665      0.31901901      0.01808549
H       0.53417089     -1.13513326     -1.07522993
H       2.44499869     -2.09260266      0.42110927
H       3.22693255     -0.04437252     -0.83080668
H       2.36392892      2.26893395      0.18228985
H      -0.25491858      2.55647916      0.38995967
H      -1.52661715      0.08780770     -0.21303563
