12
Family_1 [H]c1c([H])c([H])c([H])c([H])c1[H] | RMSD: 0.3129 | Generated by script
C       0.41911174     -0.89199482     -0.44725299
C       1.84098807     -0.96836116      0.48036584
C       2.44150659      0.17626172     -0.17319468
C       1.67169937      1.30435683     -0.09796175
C       0.43600303      1.47738732      0.10154594
C      -0.44989704      0.14865206      0.13415248
H       0.51261214     -1.15385925     -1.47386273
H       1.76669475     -1.43596344      1.36956516
H       3.22741548      0.05642458     -0.84448054
H       2.21013886      2.20368518     -0.29859572
H      -0.12653372      2.38953797      0.36969332
H      -1.45940302      0.16597047      0.13138718
