12
Family_1 [H]c1c([H])c([H])c([H])c([H])c1[H] | RMSD: 0.3364 | Generated by script
C       0.27968630     -1.11101483     -0.14402729
C       1.66780886     -0.91257616      0.44816047
C       2.42582178      0.21430665     -0.32037718
C       1.83976459      1.48640813      0.01319396
C       0.36749532      1.36129840      0.14475498
C      -0.29065810      0.19879977     -0.11935846
H       0.53913266     -0.89291540     -1.32537653
H       2.19910872     -1.62446495      0.88880222
H       3.40300106      0.15442873     -0.93543131
H       2.42666228      2.35461822     -0.07689780
H      -0.33599000      2.16373276      0.57058963
H      -1.27293391      0.17859058     -0.16219703
