12
Family_1 [H]c1c([H])c([H])c([H])c([H])c1[H] | RMSD: 0.2235 | Generated by script
C       0.52273469     -0.84591420     -0.29002212
C       1.76065839     -0.92730194      0.49292180
C       2.44810753      0.10412387     -0.37339842
C       1.70651589      1.28196173     -0.07924983
C       0.28179820      1.45208971      0.26668607
C      -0.38723641      0.22570323     -0.07160782
H       0.45284711     -1.56319029     -1.11152530
H       1.94076367     -1.32384953      1.46418250
H       3.44633451     -0.02212773     -0.75909621
H       2.22420984      2.10374669     -0.01790673
H      -0.18449037      2.39661187      0.76686393
H      -1.42900145      0.10601990     -0.46532193
