12
Family_1 [H]c1c([H])c([H])c([H])c([H])c1[H] | RMSD: 0.3023 | Generated by script
C       0.51884850     -0.92979589     -0.33221788
C       1.83738297     -1.03893806      0.39487668
C       2.31266592      0.12692173     -0.31072728
C       1.68953626      1.39088759      0.06930688
C       0.30933868      1.44319680      0.02682138
C      -0.30777679      0.29651619      0.03630487
H       0.03167671     -1.68085137     -0.75122756
H       2.09269154     -1.48913661      1.45574180
H       3.21888576      0.11801840     -0.67452919
H       2.45135845      2.27436999      0.32707046
H      -0.13646420      2.38093080      0.21488751
H      -1.53417975      0.11621035      0.03169272
