12
Family_1 [H]c1c([H])c([H])c([H])c([H])c1[H] | RMSD: 0.3767 | Generated by script
C       0.59306710     -0.83466541     -0.26437385
C       1.77143182     -1.00858230      0.51536832
C       2.28808538      0.07800103     -0.34951708
C       1.71930864      1.45994388      0.02506570
C       0.29214896      1.40514316      0.16148747
C      -0.35253053      0.22811639     -0.01666702
H       0.37803383     -1.44881431     -1.29392066
H       2.14523836     -2.03473393      0.93525912
H       3.31449281     -0.21082471     -0.83308752
H       2.44831592      2.32310960     -0.18991005
H      -0.25110897      2.45786860      0.13591752
H      -1.33328174      0.16621850     -0.37884049
