12
Family_1 [H]c1c([H])c([H])c([H])c([H])c1[H] | RMSD: 0.2344 | Generated by script
C       0.46735872     -0.93046728     -0.27845917
C       1.79972958     -0.85826232      0.41346516
C       2.53245133      0.01131830     -0.33774837
C       1.72615982      1.33965223     -0.10807649
C       0.23992667      1.40802155      0.20945187
C      -0.45503283      0.23384437      0.03686370
H       0.40805411     -0.92000763     -1.50715988
H       2.02129313     -1.45557271      1.34445347
H       3.68999725      0.15092106     -0.13033476
H       2.30880286      2.21453528      0.14041504
H      -0.27043531      2.43563551      0.26647476
H      -1.44508238      0.30306736     -0.11948560
