12
Family_1 [H]c1c([H])c([H])c([H])c([H])c1[H] | RMSD: 0.3834 | Generated by script
C       0.48779534     -0.92520873     -0.39591025
C       1.77266453     -1.10508231      0.51335858
C       2.37373407      0.11197344     -0.18765965
C       1.62204094      1.43586617     -0.09125078
C       0.31983479      1.48353158      0.10140121
C      -0.24170493      0.26482424      0.05599528
H       0.26551060     -1.55278406     -1.18509601
H       2.36883430     -1.76408727      0.90600259
H       3.10434836      0.14813094     -0.94482599
H       2.18750875      2.48572106      0.05201309
H      -0.02563414      2.47640700      0.32316387
H      -1.47119112      0.19883175      0.12294950
