12
Family_1 [H]c1c([H])c([H])c([H])c([H])c1[H] | RMSD: 0.3169 | Generated by script
C       0.41660457     -1.09877630     -0.34634329
C       1.63728376     -0.83753596      0.46961609
C       2.37507350      0.17798341     -0.24504877
C       1.77033621      1.44876064     -0.08062153
C       0.49334871      1.38165314      0.17460257
C      -0.36295835      0.17931297     -0.06447696
H       0.32923275     -1.49339651     -1.32199683
H       2.08281277     -1.24078100      1.32009951
H       3.17053561      0.07363848     -0.89921060
H       2.20524309      2.37868253      0.18382200
H       0.07316537      2.28656642      0.67239879
H      -1.37589121      0.16036410      0.37013153
