12
Family_1 [H]c1c([H])c([H])c([H])c([H])c1[H] | RMSD: 0.1979 | Generated by script
C       0.40780885     -0.97995824     -0.18791751
C       1.74446348     -0.83058103      0.39156902
C       2.51552423      0.10474386     -0.37589608
C       1.75558264      1.37428310     -0.07860929
C       0.40347096      1.34095112      0.26462385
C      -0.54838307      0.22737075     -0.11836342
H       0.66068804     -1.18654788     -1.29074395
H       2.21614478     -1.17357838      1.35227921
H       3.64832435      0.03828665     -0.23716910
H       2.29041500      2.20545902      0.34999870
H      -0.10611008      2.24978474      0.34392489
H      -1.61402725      0.20549976     -0.04622594
