12
Family_1 [H]c1c([H])c([H])c([H])c([H])c1[H] | RMSD: 0.2206 | Generated by script
C       0.35528182     -0.97927783     -0.34032581
C       1.82854040     -0.80574379      0.51756102
C       2.48261720      0.09847171     -0.36164908
C       1.72493173      1.31106090     -0.09011085
C       0.36029562      1.36236964      0.26820774
C      -0.41563478      0.23485367     -0.07587507
H       0.40864522     -1.49805257     -1.38441575
H       1.85208606     -1.03606321      1.56930039
H       3.55372180      0.17294573     -0.61816857
H       2.29673032      2.28043931      0.01073389
H      -0.16675756      2.13688453      0.80182603
H      -1.53491554      0.46238201     -0.17413970
