12
Family_1 [H]c1c([H])c([H])c([H])c([H])c1[H] | RMSD: 0.3577 | Generated by script
C       0.34722658     -1.06912339     -0.16272127
C       1.76858698     -0.94756941      0.28130085
C       2.38395341      0.20056235     -0.19316858
C       1.80616829      1.39433511     -0.10021442
C       0.36233312      1.39238770      0.05693293
C      -0.36902539      0.23846146      0.05196128
H       0.54973106     -0.65235850     -1.16772812
H       2.27364484     -1.67618212      0.83875749
H       3.42731877      0.28487059     -0.00536380
H       2.32788589      2.24139890      0.17988010
H      -0.22877370      2.24482164      0.36439564
H      -1.50193081      0.22708177     -0.19882601
