12
Family_1 [H]c1c([H])c([H])c([H])c([H])c1[H] | RMSD: 0.2618 | Generated by script
C       0.46227619     -1.00184231     -0.20785769
C       1.75062231     -0.84814995      0.44968509
C       2.53838790      0.15406995     -0.40898517
C       1.71512155      1.25536401      0.01462064
C       0.30963119      1.41162982      0.25988465
C      -0.43667508      0.27106411     -0.19506505
H       0.18523738     -1.61840149     -0.92274813
H       2.00226534     -1.16442423      1.52043094
H       3.35738531      0.25964014     -1.05474642
H       2.36490939      2.07893154      0.28871395
H      -0.08892474      2.26866290      0.56012787
H      -1.45106643      0.45103130     -0.12080206
