12
Family_1 [H]c1c([H])c([H])c([H])c([H])c1[H] | RMSD: 0.2374 | Generated by script
C       0.46506853     -0.93568386     -0.14914255
C       1.81317360     -0.96243291      0.34154960
C       2.35162367      0.19525603     -0.40157741
C       1.67799993      1.22316544      0.14049887
C       0.32577657      1.46069915      0.08683901
C      -0.31561438      0.26337337     -0.09104779
H       0.35258424     -1.55322507     -0.91397869
H       2.00486683     -1.34162400      1.29742965
H       3.43941209      0.22136676     -0.68248135
H       2.28332239      2.20611308      0.41916923
H      -0.07064724      2.35603392     -0.05009469
H      -1.38549734      0.36006534      0.02413594
