12
Family_1 [H]c1c([H])c([H])c([H])c([H])c1[H] | RMSD: 0.3490 | Generated by script
C       0.47228634     -0.97176870     -0.31031360
C       1.75762294     -1.10785373      0.39815477
C       2.37943708      0.08647096     -0.17740231
C       1.70297337      1.55987287     -0.05322216
C       0.33523348      1.46218879      0.07126986
C      -0.30392147      0.22656431      0.04692389
H       0.14360860     -1.30792659     -1.31993304
H       2.08400489     -1.68145926      1.18227522
H       3.27105301      0.07122814     -0.91924868
H       2.21751085      2.58380342      0.10575609
H      -0.11625834      2.44480509      0.23347536
H      -1.28096489      0.00604789      0.23643870
