12
Family_1 [H]c1c([H])c([H])c([H])c([H])c1[H] | RMSD: 0.1624 | Generated by script
C       0.36509973     -0.99689723     -0.18533365
C       1.66515682     -0.78918319      0.35478605
C       2.53907647      0.13732306     -0.35544517
C       1.75035497      1.36374182     -0.09664804
C       0.37728771      1.30997539      0.26146284
C      -0.39227389      0.21851021     -0.06949717
H       0.40616312     -1.21118170     -1.17174399
H       1.85130324     -1.16856513      1.34235303
H       3.86098411      0.08834226     -0.27094857
H       2.20999978      2.24812943      0.18902736
H      -0.14682776      2.17230915      0.53616651
H      -1.39879196      0.13050562     -0.31863636
