12
Family_1 [H]c1c([H])c([H])c([H])c([H])c1[H] | RMSD: 0.4531 | Generated by script
C       0.31291064     -0.98931630     -0.18039098
C       1.80572824     -1.02672485      0.11058003
C       2.53717044      0.25113796     -0.19448276
C       1.76515117      1.41207008      0.04427321
C       0.37082468      1.36018025      0.06559208
C      -0.40225760      0.20609370      0.02546965
H      -0.17537644     -1.87504079     -0.31099737
H       1.60792235     -0.55553322      0.99610856
H       3.61491435     -0.00301130     -0.10760476
H       2.26884188      2.41939400      0.10852977
H      -0.11209193      2.32147743      0.20302517
H      -1.43213608      0.31007180     -0.12666806
