12
Family_1 [H]c1c([H])c([H])c([H])c([H])c1[H] | RMSD: 0.3591 | Generated by script
C       0.30918375     -1.04764696     -0.12218701
C       1.70770795     -0.97366260      0.23480189
C       2.52812726      0.26124234     -0.19257395
C       1.73380851      1.42107021     -0.14232460
C       0.39097673      1.34129457      0.11173075
C      -0.38262135      0.20597897      0.07724516
H       0.63643130     -0.70677134     -1.23616358
H       1.99350561     -1.71020675      0.90389608
H       3.59090489      0.05423677      0.03229682
H       2.37138175      2.37932954      0.10753841
H      -0.22845670      2.21873090      0.10816906
H      -1.37218605      0.44357504     -0.29308962
