12
Family_1 [H]c1c([H])c([H])c([H])c([H])c1[H] | RMSD: 0.4900 | Generated by script
C       0.27756465     -1.09654311     -0.31543853
C       1.76570533     -1.01729528      0.03403231
C       2.55894110      0.26676421      0.03350204
C       1.81399646      1.40958988     -0.12074082
C       0.41376655      1.50782179      0.10211422
C      -0.41120380      0.11848539      0.15445035
H      -0.24843844     -2.00902322     -0.59485541
H       1.55564685     -0.58048232      1.11811101
H       3.56298315      0.25895562     -0.13787876
H       2.11459449      2.48844712     -0.03032010
H      -0.00964716      2.61879235      0.08909138
H      -1.55151144      0.13400796      0.11712833
