12
Family_1 [H]c1c([H])c([H])c([H])c([H])c1[H] | RMSD: 0.3889 | Generated by script
C       0.25122278     -0.99360808     -0.13848196
C       1.87662161     -1.13631494      0.18483618
C       2.57295584      0.28392160     -0.17638581
C       1.75458679      1.46222298      0.06047506
C       0.35150073      1.41800213      0.08225615
C      -0.40418576      0.22996121     -0.02966370
H       0.03674683     -1.91357165     -0.87684826
H       1.35457412     -0.80752380      1.06654512
H       3.52118016      0.17856605     -0.77721980
H       2.50137702      2.18077620     -0.14769674
H      -0.27040848      2.23853344      0.16185106
H      -1.52837735      0.13592827      0.00126959
