12
Family_1 [H]c1c([H])c([H])c([H])c([H])c1[H] | RMSD: 0.3968 | Generated by script
C       0.46347674     -0.99124695     -0.32067536
C       1.69006924     -0.82655951      0.39526643
C       2.37131853      0.14863502     -0.43705834
C       1.75080855      1.37621244      0.09516172
C       0.35097386      1.33950654      0.14981768
C      -0.26995850      0.21230890     -0.02869334
H       0.12251149     -2.00901413     -0.54589879
H       1.57696050     -0.56188881      1.46487267
H       3.43296864     -0.06244220     -0.68567058
H       2.52069312      2.02514420      0.48325335
H      -0.12977088      2.40746950      0.45267614
H      -1.35998776      0.27693183     -0.20162251
