12
Family_1 [H]c1c([H])c([H])c([H])c([H])c1[H] | RMSD: 0.4978 | Generated by script
C       0.54323268     -0.91535783     -0.25054627
C       1.90607670     -1.15863843      0.50354552
C       2.26218101      0.09939727     -0.21849052
C       1.65721549      1.43684114     -0.01895541
C       0.28950274      1.51050095      0.16596582
C      -0.33065995      0.32261323     -0.08688378
H       0.35132854     -1.43757587     -1.16976426
H       2.56273265     -2.03783718      0.78973205
H       2.82459399      0.15494235     -1.03058195
H       2.21886663      2.20602313     -0.46155955
H      -0.11169095      2.46001218      0.42906599
H      -1.33523613      0.29571491     -0.45877393
