12
Family_1 [H]c1c([H])c([H])c([H])c([H])c1[H] | RMSD: 0.2749 | Generated by script
C       0.40145657     -1.05772223     -0.27731248
C       1.72396715     -0.80519777      0.51901992
C       2.40837488      0.16419198     -0.42646409
C       1.69756668      1.36581008     -0.04517611
C       0.41321446      1.31465913      0.35527755
C      -0.30248614      0.25399416     -0.16470202
H       0.30037851     -1.72127202     -1.13619748
H       1.68261843     -1.05411408      1.59797477
H       3.29519029      0.22984564     -0.91442912
H       2.22755215      2.16150689      0.13084173
H       0.23553991      2.28256499      0.47196843
H      -1.40399726      0.45317258     -0.45542784
