12
Family_1 [H]c1c([H])c([H])c([H])c([H])c1[H] | RMSD: 0.1365 | Generated by script
C       0.36374811     -1.03145423     -0.25205043
C       1.75329962     -0.88790952      0.34986271
C       2.54100334      0.07164304     -0.31027892
C       1.72659623      1.38054778     -0.01977437
C       0.30715285      1.46512015      0.16015236
C      -0.40127329      0.20846998      0.01382422
H       0.56746471     -1.36911855     -1.35884636
H       2.03128857     -1.08381865      1.42487894
H       3.60166384      0.28235090     -0.57109276
H       2.42700541      2.22663468      0.11964668
H      -0.21285567      2.40415319      0.49607037
H      -1.46283235      0.24084773     -0.19063423
