12
Family_1 [H]c1c([H])c([H])c([H])c([H])c1[H] | RMSD: 0.4966 | Generated by script
C       0.54067463     -0.94738242     -0.25692601
C       1.90088257     -1.14584797      0.47868919
C       2.30432331      0.11567151     -0.24786338
C       1.73273014      1.40822488      0.01882573
C       0.21657686      1.58018956      0.09251056
C      -0.37510358      0.29129564      0.03104603
H       0.31620024     -1.52490684     -1.12329732
H       2.43956012     -1.96029544      0.54028183
H       2.90483667      0.08558161     -1.13693169
H       2.32677029      2.22882098      0.20229160
H      -0.13391474      2.50722408     -0.04271371
H      -1.25391028      0.22388977     -0.59944789
