12
Family_1 [H]c1c([H])c([H])c([H])c([H])c1[H] | RMSD: 0.5181 | Generated by script
C       0.41443278     -1.07172805     -0.20369938
C       1.74756296     -0.99477254      0.27627967
C       2.47415520      0.21813324     -0.01736377
C       1.74257918      1.42650999     -0.23955552
C       0.40863909      1.38996112      0.19307117
C      -0.46033661      0.25346057      0.04141058
H       0.48441234     -0.45634125     -1.01716818
H       2.26350101     -1.93531128      0.45275191
H       3.50490703     -0.06721345     -0.29187318
H       2.08873504      2.42970948     -0.44285930
H      -0.24701858      2.15807218      0.19365631
H      -1.57779270      0.39164544     -0.26622966
