12
Family_1 [H]c1c([H])c([H])c([H])c([H])c1[H] | RMSD: 0.4014 | Generated by script
C       0.30303768     -0.99722094     -0.21314439
C       1.73307594     -1.00699312      0.05349840
C       2.54616448      0.26407693     -0.10591773
C       1.79670521      1.41442766     -0.01011614
C       0.41578706      1.37263963      0.01626759
C      -0.40202648      0.14658890      0.14824280
H      -0.06464892     -1.77270107     -0.76920447
H       1.47400160     -0.65235462      1.21800559
H       3.59507905      0.29672763      0.01951226
H       2.40124054      2.45744764     -0.09360553
H      -0.21083229      2.21714268      0.17783166
H      -1.46109038      0.30847715     -0.00211765
