12
Family_1 [H]c1c([H])c([H])c([H])c([H])c1[H] | RMSD: 0.2577 | Generated by script
C       0.35754880     -1.03649123     -0.12522262
C       1.76053796     -0.83653951      0.32127469
C       2.50733828      0.21179675     -0.45358059
C       1.73913214      1.27135155      0.16454063
C       0.34766939      1.35969619      0.10614226
C      -0.42499895      0.25525515     -0.10294180
H       0.38018683     -1.84862813     -0.99844013
H       2.03061781     -1.17148914      1.25155002
H       3.69914394      0.24079827     -0.47051592
H       2.23345085      2.22847699      0.42028925
H       0.09723241      2.46010521      0.08558160
H      -1.44958450      0.56953864      0.00717558
