12
Family_1 [H]c1c([H])c([H])c([H])c([H])c1[H] | RMSD: 0.4301 | Generated by script
C       0.37604747     -1.00442923     -0.23376523
C       1.77164819     -1.05767446      0.19774968
C       2.48428853      0.19138394     -0.09346273
C       1.79830910      1.43861626     -0.14150642
C       0.37680221      1.37500694      0.20902165
C      -0.41071165      0.23381780     -0.03969106
H      -0.03493667     -1.79550660     -0.93900519
H       1.60141719     -0.57640363      1.12988994
H       3.58244799      0.32479788     -0.14025115
H       2.04418874      2.59611710     -0.44091679
H      -0.04737887      2.19464210      0.70448642
H      -1.45536124      0.31124988      0.12283658
