12
Family_1 [H]c1c([H])c([H])c([H])c([H])c1[H] | RMSD: 0.4022 | Generated by script
C       0.43406156     -0.93425154     -0.24562154
C       1.69875695     -1.13493788      0.32081845
C       2.45634022      0.23793165     -0.17854184
C       1.75542197      1.42291546     -0.13534484
C       0.33441464      1.34237885      0.26572491
C      -0.30234330      0.26230109     -0.06297735
H      -0.12698270     -1.65618929     -0.84055503
H       1.83603890     -0.39703804      1.19552241
H       3.56531960      0.13458249     -0.56664732
H       2.16804846      2.32614791     -0.44301024
H      -0.24584412      2.11095334      0.72142147
H      -1.27108520      0.30269780     -0.41269290
