12
Family_1 [H]c1c([H])c([H])c([H])c([H])c1[H] | RMSD: 0.1946 | Generated by script
C       0.38169858     -1.02045933     -0.21070853
C       1.72755568     -0.88560582      0.39721824
C       2.34379402      0.10459710     -0.34521154
C       1.77953277      1.45825385     -0.05487675
C       0.39356731      1.36482137      0.25045963
C      -0.29719200      0.24426680     -0.06537272
H       0.54842513     -1.26007757     -1.32204262
H       1.73973399     -1.30036716      1.39387224
H       3.43771810      0.23528744     -0.53661449
H       2.32176038      2.30814277      0.08278470
H      -0.26514029      2.08848108      0.33492760
H      -1.28867621     -0.07888482     -0.38766748
