12
Family_1 [H]c1c([H])c([H])c([H])c([H])c1[H] | RMSD: 0.1806 | Generated by script
C       0.37125883     -0.93329735     -0.22978796
C       1.78744458     -0.79169724      0.35334721
C       2.63592015      0.09125250     -0.37116792
C       1.78125017      1.32638091     -0.05549988
C       0.27401402      1.33164001      0.24511535
C      -0.51309930      0.18488819     -0.03967669
H       0.20091942     -1.42775948     -1.20380684
H       1.71213284     -1.04151476      1.51614239
H       3.68609458      0.15579320     -0.21783983
H       2.26663892      2.19567118      0.06713695
H      -0.05277046      2.29425563      0.48499726
H      -1.41251879      0.49183760     -0.25706474
