12
Family_1 [H]c1c([H])c([H])c([H])c([H])c1[H] | RMSD: 0.3508 | Generated by script
C       0.40168127     -0.97118246     -0.14054149
C       1.73334994     -0.92221166      0.25864892
C       2.62509996      0.10486376     -0.18133754
C       1.76213985      1.32352963     -0.02656427
C       0.19758585      1.46883303      0.09065749
C      -0.39529115      0.23374415      0.02104374
H       0.48558095     -0.79781741     -1.19878064
H       1.99304089     -1.68110928      0.86333931
H       3.50368025      0.16385368     -0.73605608
H       2.29794486      2.28918161     -0.35641273
H      -0.27713964      2.38604024      0.58813196
H      -1.45696869     -0.03038303     -0.19549413
