12
Family_1 [H]c1c([H])c([H])c([H])c([H])c1[H] | RMSD: 0.4683 | Generated by script
C       0.26872519     -0.99087016     -0.25045576
C       1.76613755     -0.94942219      0.05700092
C       2.51488604      0.23091380     -0.11364513
C       1.84889874      1.44900907      0.11267429
C       0.43656234      1.35510694     -0.06373200
C      -0.43367895      0.13303246      0.13079750
H      -0.27562067     -1.81919119     -0.56929246
H       1.74978161     -0.53508391      1.25384128
H       3.59702564      0.10139183     -0.40460079
H       2.33958189      2.41319040      0.26771963
H      -0.24736255      2.28120949     -0.12100308
H      -1.53435943      0.00510075      0.31668040
