12
Family_1 [H]c1c([H])c([H])c([H])c([H])c1[H] | RMSD: 0.4130 | Generated by script
C       0.44331738     -0.89116010     -0.28464958
C       1.77133097     -0.81799236      0.30169396
C       2.53633580      0.10759979     -0.31099301
C       1.83772769      1.35567450     -0.01060684
C       0.26226681      1.38617924      0.18533236
C      -0.44788470      0.17765307     -0.01204376
H      -0.00996547     -2.06282624     -0.67076828
H       1.80239485     -0.86146985      1.41293787
H       3.35576451     -0.15302808     -0.74933808
H       2.17697582      1.88026040      0.81253343
H      -0.14926847      2.35656887      0.05880450
H      -1.56547950      0.21250643     -0.07427362
