12
Family_1 [H]c1c([H])c([H])c([H])c([H])c1[H] | RMSD: 0.4648 | Generated by script
C       0.50988921     -0.99184319     -0.26571396
C       1.82641769     -1.11098360      0.53562282
C       2.22757699      0.10109629     -0.22593597
C       1.69553364      1.48484426     -0.09135833
C       0.34145074      1.55015116      0.15576538
C      -0.30588722      0.27754193     -0.10034215
H       0.64971912     -1.33757142     -1.30978479
H       2.30146646     -2.05646492      0.66302144
H       3.27832297      0.04990920     -0.81421359
H       2.15869026      2.39070056     -0.28274526
H      -0.16584718      2.27965547      0.86071466
H      -1.32369175      0.13094729      0.01299460
