12
Family_1 [H]c1c([H])c([H])c([H])c([H])c1[H] | RMSD: 0.1862 | Generated by script
C       0.41825535     -0.85814757     -0.18201175
C       1.74136031     -0.76527563      0.37848807
C       2.55450022      0.11326628     -0.39111129
C       1.76395714      1.31453037      0.01465070
C       0.35417494      1.22178689      0.22823840
C      -0.50824599      0.20334555     -0.12624048
H       0.29249799     -1.58242463     -1.04562137
H       1.87563358     -0.93703954      1.36927688
H       3.59866754      0.04542143     -0.63879506
H       2.41362400      2.29317272      0.20176856
H       0.02961607      2.23681108      0.50306095
H      -1.65718297      0.36999104     -0.23466733
