12
Family_1 [H]c1c([H])c([H])c([H])c([H])c1[H] | RMSD: 0.3257 | Generated by script
C       0.50838357     -0.91437411     -0.16323673
C       1.81521867     -1.06242874      0.38188638
C       2.43180825      0.11914494     -0.29492407
C       1.67612456      1.32227262      0.00720758
C       0.21150587      1.52121895      0.19951307
C      -0.32752269      0.27852572     -0.05263052
H       0.29065077     -1.13690134     -1.34306033
H       2.37168431     -1.65675854      1.17118693
H       3.28335712     -0.00476634     -0.90840979
H       2.31316594      2.17730371     -0.04578935
H      -0.35520275      2.33651143     -0.12944732
H      -1.24970979      0.29524039     -0.44594432
