12
Family_1 [H]c1c([H])c([H])c([H])c([H])c1[H] | RMSD: 0.2811 | Generated by script
C       0.40922289     -0.89374795     -0.21173418
C       1.91815503     -1.00212060      0.33838262
C       2.49234124      0.07418686     -0.22416067
C       1.68935717      1.33821177     -0.01643117
C       0.22924226      1.48710019      0.18971081
C      -0.39829127      0.24405563     -0.04042266
H       0.58634730     -1.19931129     -1.27594948
H       2.02767945     -1.35036290      1.28496928
H       3.16483113      0.02104925     -1.03293114
H       2.36615278      2.07462457      0.00558200
H      -0.20869304      2.41324705     -0.00806102
H      -1.57441441      0.25005817     -0.16900367
