12
Family_1 [H]c1c([H])c([H])c([H])c([H])c1[H] | RMSD: 0.3852 | Generated by script
C       0.31679233     -0.98630991     -0.18864656
C       1.81484715     -1.07630747      0.10962143
C       2.46072237      0.23539026     -0.15697255
C       1.81406045      1.44683347      0.02619746
C       0.38349179      1.47539119      0.12226536
C      -0.37071975      0.13368255      0.01968709
H      -0.12684153     -1.77137790     -0.77402089
H       1.55913302     -0.64068880      1.31811855
H       3.43223560      0.08774809     -0.28468885
H       2.34081605      2.33586724     -0.08534854
H      -0.37293493      2.29416053     -0.10043553
H      -1.41383354      0.13006286     -0.03941014
