12
Family_1 [H]c1c([H])c([H])c([H])c([H])c1[H] | RMSD: 0.4172 | Generated by script
C       0.34542807     -1.01829438     -0.21153665
C       1.75213072     -1.08557986      0.12215770
C       2.47656849      0.29375719     -0.14985207
C       1.83938568      1.39197925      0.00409858
C       0.35389846      1.43600810      0.14644950
C      -0.35106313      0.19746181      0.04190256
H      -0.21223189     -1.78699407     -0.66457825
H       1.57689367     -0.57812860      1.31894843
H       3.53241775      0.28035834     -0.29860762
H       2.16790463      2.29075388     -0.29306296
H      -0.24306294      2.14288753     -0.10674084
H      -1.36943386      0.24594510     -0.17277631
