12
Family_1 [H]c1c([H])c([H])c([H])c([H])c1[H] | RMSD: 0.3644 | Generated by script
C       0.34808148     -0.97077886     -0.21386740
C       1.77741683     -1.15466714      0.16897600
C       2.47668800      0.27343354     -0.10647211
C       1.83720951      1.44876350     -0.09262149
C       0.34355387      1.35872375      0.15823981
C      -0.37641636      0.24009786      0.02342310
H      -0.13763460     -1.76122497     -0.69248393
H       1.70541169     -0.63910123      1.22863136
H       3.54282251      0.31538455     -0.36196516
H       2.25428993      2.40809904     -0.21815495
H      -0.34564161      2.25111622      0.25634522
H      -1.44980863      0.25599592     -0.24400025
