12
Family_1 [H]c1c([H])c([H])c([H])c([H])c1[H] | RMSD: 0.4206 | Generated by script
C       0.35709400     -1.00334930     -0.13265875
C       1.71463284     -1.01744895      0.07538034
C       2.48598581      0.23512104     -0.17828872
C       1.83180815      1.42994761      0.02730689
C       0.34873168      1.37269336      0.10228708
C      -0.34398889      0.18503711     -0.00859384
H      -0.04232633     -1.95943689     -0.41601894
H       1.57446722     -0.57792433      1.05437208
H       3.59348616      0.20361327     -0.28766359
H       2.31625038      2.40335385      0.14842117
H      -0.24267379      2.38424143      0.18457894
H      -1.48356208      0.29982565     -0.09278399
