12
Family_1 [H]c1c([H])c([H])c([H])c([H])c1[H] | RMSD: 0.3696 | Generated by script
C       0.33654314     -0.98137194     -0.08997831
C       1.81378929     -1.03380795      0.24107838
C       2.51994142      0.20429585     -0.14298096
C       1.72385006      1.33029148     -0.05888236
C       0.27485082      1.41154966      0.07943122
C      -0.40178259      0.26380510     -0.02595828
H       0.55911993     -0.71737269     -1.11163295
H       2.32951536     -1.81104441      0.82327785
H       3.54078252      0.29251059     -0.53505895
H       2.24137819      2.36824270     -0.16954562
H      -0.01127503      2.49129130      0.31572006
H      -1.42973745      0.21629907     -0.12928551
