12
Family_1 [H]c1c([H])c([H])c([H])c([H])c1[H] | RMSD: 0.4326 | Generated by script
C       0.32552807     -0.98648721     -0.13551675
C       1.76505253     -0.99444085      0.04360164
C       2.51215629      0.24662781     -0.14684299
C       1.78505683      1.44004780      0.04133920
C       0.42443723      1.39339969      0.09647338
C      -0.41367383      0.13270246     -0.01568763
H      -0.12861732     -1.88745865     -0.48070108
H       1.38467671     -0.65664202      1.20345595
H       3.52581277      0.13108534     -0.25139917
H       2.36338387      2.35181589     -0.03529541
H      -0.06375241      2.26001866      0.11718212
H      -1.41702249      0.19918474      0.06228284
