12
Family_1 [H]c1c([H])c([H])c([H])c([H])c1[H] | RMSD: 0.2829 | Generated by script
C       0.45923014     -0.96502573     -0.27736692
C       1.61585708     -0.65388812      0.40517586
C       2.37660053      0.10960276     -0.42767289
C       1.80694731      1.38657452      0.04408589
C       0.43416835      1.25960293      0.26911541
C      -0.33740314      0.13592727     -0.09436350
H       0.07453070     -1.84850206     -0.91703995
H       1.73562308     -0.89058364      1.40703777
H       3.45216621     -0.09095581     -0.39257105
H       2.51185274      2.27802452     -0.07411262
H      -0.15843353      2.12406642      0.56418592
H      -1.43701507      0.33807993     -0.39625639
