12
Family_1 [H]c1c([H])c([H])c([H])c([H])c1[H] | RMSD: 0.4334 | Generated by script
C       0.31330989     -1.01000992     -0.13249494
C       1.78819909     -1.04230069      0.14871131
C       2.45854551      0.26342863     -0.14995128
C       1.80946096      1.46499210     -0.04411743
C       0.39351422      1.34210779      0.13798974
C      -0.38792491      0.18865804     -0.07195523
H      -0.09383752     -1.97447143     -0.48083782
H       1.41412301     -0.67605542      1.00033498
H       3.46544897      0.48057337     -0.46421395
H       2.47936759      2.29793251      0.20580293
H       0.11017047      2.24866114      0.42225590
H      -1.43134053      0.31894293     -0.12519445
