12
Family_1 [H]c1c([H])c([H])c([H])c([H])c1[H] | RMSD: 0.4793 | Generated by script
C       0.54603945     -1.09140406     -0.27771137
C       1.88149695     -1.14893188      0.48405558
C       2.18542259      0.13734399     -0.22091649
C       1.65978533      1.46433600     -0.01666019
C       0.32656239      1.55234353      0.11667595
C      -0.25696736      0.36003125     -0.03862901
H       0.15545500     -1.37999139     -1.21336687
H       2.49379722     -2.14326699      0.72292157
H       3.08136454      0.13132412     -0.83340351
H       2.17277742      2.35711036      0.07622840
H      -0.22577576      2.51344322     -0.07648247
H      -1.34326450      0.42048574     -0.00796046
