12
Family_1 [H]c1c([H])c([H])c([H])c([H])c1[H] | RMSD: 0.3547 | Generated by script
C       0.43651577     -1.00614287     -0.07738102
C       1.76358925     -1.17842538      0.16230397
C       2.47027245      0.11135003     -0.12587922
C       1.65751320      1.48008818     -0.02923441
C       0.27797495      1.51516725      0.03163054
C      -0.28865953      0.27351069      0.04205825
H       0.45483179     -0.69332738     -1.23447664
H       2.18392800     -1.67912868      1.16365905
H       3.44767614      0.21479999     -0.58749048
H       2.18483325      2.46727230     -0.26095632
H      -0.38498482      2.35426597      0.38692909
H      -1.25245089      0.16668226     -0.28358435
