12
Family_1 [H]c1c([H])c([H])c([H])c([H])c1[H] | RMSD: 0.3862 | Generated by script
C       0.44702645     -1.02666746     -0.41515170
C       1.79366363     -1.02883210      0.49169941
C       2.36021852      0.12302367     -0.16147223
C       1.63884271      1.41131587     -0.14000412
C       0.38277406      1.56750974      0.28205431
C      -0.24852766      0.25050123     -0.00902883
H       0.20971194     -1.43418594     -1.42568209
H       2.06489156     -1.72012674      1.32948393
H       3.14985351      0.12925224     -0.98600109
H       2.15843737      2.32387590     -0.39689367
H      -0.30629973      2.29418551      0.02678613
H      -1.31947158      0.03046923      0.10496311
