12
Family_1 [H]c1c([H])c([H])c([H])c([H])c1[H] | RMSD: 0.2493 | Generated by script
C       0.50839262     -0.91347557     -0.26614192
C       1.76217035     -1.00679193      0.40620715
C       2.32806511      0.12679374     -0.24893125
C       1.71764419      1.38546896     -0.06895388
C       0.36363662      1.48353116      0.17177067
C      -0.31646638      0.20014870     -0.02908453
H       0.36601635     -1.35960473     -1.33698295
H       1.98836759     -1.40457512      1.52032419
H       3.16422619     -0.02383870     -0.89230189
H       2.33543948      2.31622571      0.01702486
H      -0.33132438      2.25952044      0.56719322
H      -1.43982985      0.08806781     -0.23085242
