12
Family_1 [H]c1c([H])c([H])c([H])c([H])c1[H] | RMSD: 0.5357 | Generated by script
C       0.41222107     -0.97815307     -0.22861650
C       1.86504956     -1.10667240      0.49497030
C       2.45104866      0.09541373     -0.25656967
C       1.69448464      1.42064317      0.02015420
C       0.24598523      1.53284487      0.05191039
C      -0.40069977      0.24702887      0.03051980
H       0.67542101     -0.73876747     -1.33243651
H       2.76609730     -1.96590183      0.43414200
H       3.19064381     -0.03490884     -0.94027866
H       2.05380039      2.49557597     -0.08271657
H      -0.06329338      2.50865887      0.21904731
H      -1.40357706      0.38053236     -0.41094168
