12
Family_1 [H]c1c([H])c([H])c([H])c([H])c1[H] | RMSD: 0.4744 | Generated by script
C       0.38905807     -0.94121929     -0.14315276
C       1.79134745     -0.87710742      0.28518587
C       2.58926738      0.23051679     -0.47384080
C       1.79645783      1.23586539      0.10195393
C       0.29164325      1.43403592      0.04123061
C      -0.49965970      0.24274579     -0.04292707
H       0.01786459     -2.03730908     -0.35404706
H       1.93483469     -1.24750354      1.29822150
H       3.74145882      0.39245763     -0.13289519
H       2.24068980      1.68215101      1.00726886
H      -0.10891160      2.27380191      0.38950896
H      -1.67955128      0.22639753     -0.22321723
