12
Family_1 [H]c1c([H])c([H])c([H])c([H])c1[H] | RMSD: 0.3544 | Generated by script
C       0.37866091     -0.93485411     -0.27070942
C       1.79435131     -1.14513760      0.24683827
C       2.47342695      0.26789278     -0.12402925
C       1.84120205      1.46263175     -0.11312328
C       0.36297760      1.34420282      0.12898005
C      -0.43992617      0.19736234      0.03650651
H      -0.09436967     -1.73603920     -0.78470837
H       1.49376640     -0.72265488      1.34843297
H       3.45437945      0.38104478     -0.45407772
H       2.25448942      2.34069094     -0.18530408
H      -0.07925962      2.29534582      0.52261773
H      -1.50912773      0.31328525     -0.08280884
