12
Family_1 [H]c1c([H])c([H])c([H])c([H])c1[H] | RMSD: 0.2900 | Generated by script
C       0.49218761     -1.09413329     -0.16237809
C       1.81666135     -1.07271041      0.46283915
C       2.23341084      0.19947682     -0.42755368
C       1.72200891      1.43829640      0.05874348
C       0.36057845      1.48159670      0.25016082
C      -0.30818816      0.33496580     -0.19994611
H       0.29922819     -1.74932511     -1.01263500
H       2.18487338     -1.25832864      1.37769462
H       3.20965130      0.06866376     -0.81392072
H       2.48841279      2.04318188      0.05971552
H      -0.31593009      2.24369131      0.46302719
H      -1.22588290      0.38710505     -0.63203496
