12
Family_1 [H]c1c([H])c([H])c([H])c([H])c1[H] | RMSD: 0.3067 | Generated by script
C       0.45251817     -0.87690928     -0.23789573
C       1.78859437     -0.97119071      0.47651704
C       2.33545444      0.08523402     -0.25245985
C       1.66574207      1.35147622     -0.15755188
C       0.33146091      1.41520789      0.29977605
C      -0.27023936      0.25571645     -0.12099566
H       0.75624641     -1.05297608     -1.40070447
H       2.10217366     -1.56880635      1.27442211
H       3.30532881      0.07790889     -0.84826408
H       2.15356159      2.29257432     -0.22596328
H      -0.22437579      2.13479830      0.60207567
H      -1.29614850      0.18462060     -0.26385975
