12
Family_1 [H]c1c([H])c([H])c([H])c([H])c1[H] | RMSD: 0.2839 | Generated by script
C       0.49452450     -1.02804991     -0.29034157
C       1.74083588     -1.03432499      0.38516833
C       2.30507666      0.15517838     -0.21936161
C       1.73731889      1.45082119     -0.01777189
C       0.39726242      1.46056202      0.11228046
C      -0.28036565      0.24184504      0.02204701
H       0.27033057     -1.44130649     -1.14273411
H       1.94152137     -1.28919715      1.36255166
H       2.99001657      0.12068833     -1.06052752
H       2.27221147      2.29107385      0.01613233
H      -0.37123772      2.29749361      0.44643341
H      -1.39183735      0.25026321     -0.30101469
