12
Family_1 [H]c1c([H])c([H])c([H])c([H])c1[H] | RMSD: 0.4036 | Generated by script
C       0.40936441     -0.89178683      0.01787427
C       1.84321499     -1.03495491      0.15720357
C       2.47377904      0.11041867     -0.13076009
C       1.74122283      1.41079177     -0.03696837
C       0.28480289      1.40207719      0.09643175
C      -0.46640164      0.24160960     -0.05964538
H       0.70874963     -0.69325187     -1.30727666
H       2.13606501     -1.91415415      0.81951562
H       3.46423168      0.25920195     -0.50406685
H       2.44680297      2.20602348     -0.30337121
H      -0.28809734      2.37462759      0.26165621
H      -1.46186839      0.09041934     -0.26660172
