12
Family_1 [H]c1c([H])c([H])c([H])c([H])c1[H] | RMSD: 0.2866 | Generated by script
C       0.40645180     -0.90299868     -0.17513594
C       1.77756654     -0.90641670      0.34503531
C       2.55986427      0.08719988     -0.31639955
C       1.68111755      1.30865040     -0.14998524
C       0.33646055      1.32785675      0.23133981
C      -0.46541005      0.28207364     -0.04098344
H       0.60641786     -0.90398346     -1.30094893
H       2.15934664     -1.13999971      1.39090490
H       3.48036355      0.27498515      0.07895786
H       2.09287182      2.23838033      0.00795223
H      -0.00319028      2.12788692      0.74596174
H      -1.44989475      0.22355543     -0.43246583
