12
Family_1 [H]c1c([H])c([H])c([H])c([H])c1[H] | RMSD: 0.4242 | Generated by script
C       0.32264960     -0.93661826     -0.16531935
C       1.79247471     -1.02142226      0.10793728
C       2.40888127      0.20894552     -0.18152765
C       1.81663671      1.40336846      0.07631772
C       0.39723355      1.38879458      0.10956485
C      -0.33866756      0.18094700     -0.01185907
H      -0.01736115     -2.03122816     -0.45255991
H       1.66428047     -0.57022237      1.09122007
H       3.50969257      0.30885972     -0.36339842
H       2.11342282      2.41001121     -0.08412546
H      -0.14199852      2.28065643      0.05777153
H      -1.47131407      0.09328251     -0.24998218
