12
Family_1 [H]c1c([H])c([H])c([H])c([H])c1[H] | RMSD: 0.2679 | Generated by script
C       0.52451717     -0.81251991     -0.20739020
C       1.82003687     -0.95089956      0.42476266
C       2.46113401      0.10779984     -0.36849333
C       1.67521944      1.19218779      0.00419605
C       0.21443905      1.44632243      0.25021614
C      -0.38541489      0.30248446     -0.15262819
H       0.45876155     -1.64654117     -0.95006877
H       2.12280967     -1.28531631      1.33365334
H       3.27082166      0.09138146     -0.90673260
H       2.23955767      2.07236656      0.13450607
H       0.04803173      2.61058275      0.37756961
H      -1.41946885     -0.08225987     -0.17528297
