12
Family_1 [H]c1c([H])c([H])c([H])c([H])c1[H] | RMSD: 0.3254 | Generated by script
C       0.46621572     -1.01077981     -0.17547543
C       1.79514480     -1.11706375      0.40962781
C       2.35399147      0.16075790     -0.37690049
C       1.75873600      1.48155741      0.09206649
C       0.30452115      1.47777661      0.18323739
C      -0.31887647      0.26445097     -0.13259358
H       0.28527244     -1.63642796     -1.18012734
H       2.04606580     -1.33763531      1.50639473
H       3.02438695      0.05484346     -1.11594624
H       2.28271930      2.45237599      0.23144494
H      -0.09321224      2.32119886     -0.06125425
H      -1.41813148      0.24754888     -0.15429871
