12
Family_1 [H]c1c([H])c([H])c([H])c([H])c1[H] | RMSD: 0.4008 | Generated by script
C       0.54612037     -0.84045651     -0.39864036
C       1.72873019     -1.00663387      0.54005115
C       2.43807097      0.08965072     -0.18879317
C       1.65466957      1.48001319     -0.13236795
C       0.34478189      1.38677828      0.13615051
C      -0.36234372      0.20264196      0.06442824
H       0.14131959     -1.30693674     -1.18453823
H       2.12931189     -1.98104537      0.76772495
H       3.22245467     -0.09214155     -0.94108676
H       2.30103852      2.32259772     -0.05456274
H      -0.07492984      2.33525616      0.30249003
H      -1.47647163      0.16530317      0.08755053
