12
Family_1 [H]c1c([H])c([H])c([H])c([H])c1[H] | RMSD: 0.4511 | Generated by script
C       0.49584062     -0.91546239     -0.32860644
C       1.82204429     -1.10751545      0.47695578
C       2.34968692      0.14373084     -0.18403245
C       1.71297075      1.46581672     -0.12960181
C       0.31417898      1.50670309      0.08860800
C      -0.36488737      0.25600226      0.00971428
H       0.50860322     -1.57919103     -1.15223600
H       1.93782921     -2.10537301      0.95419737
H       3.16327938      0.11305185     -0.91383373
H       2.39800786      2.12302836      0.22996686
H      -0.32460515      2.50608670      0.52608145
H      -1.19975314     -0.05880131      0.37949184
