12
Family_1 [H]c1c([H])c([H])c([H])c([H])c1[H] | RMSD: 0.3352 | Generated by script
C       0.46015210     -0.96107672     -0.17356676
C       1.85189217     -1.13790018      0.31958812
C       2.37373280      0.15592863     -0.19395013
C       1.71701017      1.45238600     -0.00472429
C       0.31553333      1.48030483      0.08647260
C      -0.35356523      0.27332144     -0.09282109
H       0.35121675     -1.52611181     -1.08692254
H       2.23301135     -1.41384116      1.31134826
H       2.97247286     -0.06399525     -1.08291096
H       2.22220599      2.36389414      0.25873574
H      -0.20129566      2.39261127      0.45130112
H      -1.51035917      0.27469894      0.07725418
