12
Family_1 [H]c1c([H])c([H])c([H])c([H])c1[H] | RMSD: 0.1698 | Generated by script
C       0.42411956     -0.92354917     -0.14644036
C       1.74776895     -0.93591656      0.33424976
C       2.47795687      0.10750572     -0.35348674
C       1.65707390      1.29949943     -0.03771603
C       0.29129672      1.43849688      0.15969765
C      -0.32398420      0.23751422     -0.04035581
H       0.57254573     -1.12392241     -1.34336998
H       2.22322966     -1.16295255      1.41168969
H       3.56736419      0.12385860     -0.35762177
H       2.28039993      2.06328239      0.34632082
H      -0.21701686      2.30882787      0.48478095
H      -1.28062151      0.28780040     -0.31450647
