12
Family_1 [H]c1c([H])c([H])c([H])c([H])c1[H] | RMSD: 0.3659 | Generated by script
C       0.34220343     -0.83863683     -0.17921660
C       1.76002184     -0.77916657      0.48572567
C       2.58475610      0.15596763     -0.53806317
C       1.77140512      1.29179729      0.00108833
C       0.30667939      1.21389963      0.35844247
C      -0.42963722      0.20536834     -0.27487322
H      -0.02355878     -1.74004340     -0.57223979
H       1.95681347     -0.71139696      1.56175236
H       3.58314234      0.01196619     -0.56772853
H       2.25583363      2.12405899      0.34842042
H       0.13510121      2.22151103      0.79958661
H      -1.49063245      0.28481620     -0.59365741
