12
Family_1 [H]c1c([H])c([H])c([H])c([H])c1[H] | RMSD: 0.2668 | Generated by script
C       0.35377546     -0.96458599     -0.27167664
C       1.67105696     -0.70099521      0.40352788
C       2.55936059      0.19278005     -0.37856058
C       1.78260625      1.31828921     -0.09536280
C       0.42529087      1.22384263      0.24899574
C      -0.43638008      0.20906828     -0.03306832
H       0.14614716     -1.81024698     -1.05166199
H       1.53761099     -1.08922499      1.38628975
H       3.56691261      0.20671195     -0.21088661
H       2.26273320      2.20877670      0.25728233
H       0.10978406      2.20924868      0.68681439
H      -1.44815510      0.11807257     -0.33897591
