12
Family_1 [H]c1c([H])c([H])c([H])c([H])c1[H] | RMSD: 0.3756 | Generated by script
C       0.53731630     -1.00760503     -0.28554346
C       1.72552383     -1.07656295      0.53450253
C       2.30230369      0.06927864     -0.31458260
C       1.70189019      1.54266825     -0.03211395
C       0.35601133      1.48755666      0.17196770
C      -0.27569062      0.27227742     -0.04978462
H       0.33378718     -1.44079673     -1.31333836
H       2.26272925     -1.93522029      0.86968197
H       3.22662201      0.08023685     -0.80510168
H       2.28225208      2.56348800     -0.07018714
H      -0.45101614      2.28472320      0.36476255
H      -1.37978196      0.18111575     -0.11134048
