12
Family_1 [H]c1c([H])c([H])c([H])c([H])c1[H] | RMSD: 0.4969 | Generated by script
C       0.55283850     -0.84367379     -0.18362941
C       1.79939976     -1.18959338      0.53802510
C       2.20912009      0.11250370     -0.28788666
C       1.67702686      1.45475521     -0.01581281
C       0.25143149      1.49887525      0.12518621
C      -0.19506759      0.24977529     -0.09840059
H       0.44700209     -1.41508937     -1.17834361
H       2.39750153     -1.92603001      0.19253062
H       3.10246305      0.08731275     -0.85282884
H       2.47903293      2.38189494     -0.02615480
H      -0.25589448      2.46724058      0.41698723
H      -1.26868152      0.19744723     -0.24967632
