12
Family_1 [H]c1c([H])c([H])c([H])c([H])c1[H] | RMSD: 0.2545 | Generated by script
C       0.28428846     -0.90360241     -0.11144884
C       1.79124563     -0.84296465      0.33805499
C       2.59677617      0.23379017     -0.38335072
C       1.78959986      1.24304532      0.07633618
C       0.31523721      1.25810206      0.06815375
C      -0.43617367      0.26640194     -0.07173864
H       0.09410324     -1.52043018     -0.97890268
H       2.20259321     -1.23605272      1.20085807
H       3.53805340      0.26577438     -0.72071357
H       2.27635130      2.11661100      0.73126683
H      -0.19327794      2.29115077      0.24943640
H      -1.56719625      0.20781096     -0.25534581
