12
Family_1 [H]c1c([H])c([H])c([H])c([H])c1[H] | RMSD: 0.1966 | Generated by script
C       0.40660357     -0.87892279     -0.20675822
C       1.75373636     -0.88035163      0.41036322
C       2.49907190      0.15182958     -0.40415709
C       1.73773434      1.29041571     -0.09846379
C       0.32367003      1.34665762      0.28222954
C      -0.41197195      0.20405382     -0.06975541
H       0.40775255     -1.51873466     -1.04670793
H       1.83271976     -1.07853417      1.52358568
H       3.65487017      0.13876393     -0.55100859
H       2.28715433      2.14683408      0.56223291
H      -0.21259109      2.35681618      0.36114702
H      -1.23643530      0.33102183     -0.59228315
