12
Family_1 [H]c1c([H])c([H])c([H])c([H])c1[H] | RMSD: 0.4093 | Generated by script
C       0.40272773     -0.95267844     -0.20552938
C       1.82921965     -1.09209801      0.21098907
C       2.43331649      0.26871957     -0.17646754
C       1.76931318      1.35198865     -0.05042493
C       0.37909224      1.40747308      0.22535815
C      -0.38558445      0.21052191     -0.04566699
H      -0.23285579     -1.79299988     -0.59087596
H       1.50741649     -0.58250460      1.20365978
H       3.52574524      0.33379333     -0.42664926
H       2.29523781      2.18510675     -0.18757448
H      -0.28096169      2.20483142      0.04466258
H      -1.50194363      0.50165423     -0.32008051
