12
Family_1 [H]c1c([H])c([H])c([H])c([H])c1[H] | RMSD: 0.4242 | Generated by script
C       0.28039247     -0.95463388     -0.16518652
C       1.83214828     -1.10036453      0.08611127
C       2.49220238      0.30074168     -0.11901655
C       1.83874302      1.40726093      0.06985626
C       0.41830460      1.34662285      0.03076372
C      -0.42288233      0.19852220      0.06659902
H      -0.27606957     -1.75020363     -0.63629971
H       1.57964183     -0.74398783      1.18677130
H       3.49923596      0.41050921     -0.38491481
H       2.07589121      2.46577794     -0.25808842
H      -0.18148506      2.23920837     -0.09266755
H      -1.51354617      0.17826360     -0.22116804
