12
Family_1 [H]c1c([H])c([H])c([H])c([H])c1[H] | RMSD: 0.2224 | Generated by script
C       0.48832470     -0.81570294     -0.27722043
C       1.74763422     -0.98021100      0.37545196
C       2.52216929      0.11718860     -0.27352088
C       1.73903653      1.31155865     -0.11276262
C       0.26680648      1.46053805      0.15887750
C      -0.39578106      0.19679476      0.02325400
H       0.24090404     -1.54511518     -1.11493275
H       1.82269064     -1.19504624      1.42405898
H       3.54970524      0.02010763     -0.70939000
H       2.19576272      2.19071546      0.46058487
H      -0.25335725      2.29792209      0.52962878
H      -1.52938146     -0.06545921     -0.10207341
