12
Family_1 [H]c1c([H])c([H])c([H])c([H])c1[H] | RMSD: 0.3872 | Generated by script
C       0.34944671     -0.92775951     -0.18023689
C       1.77103883     -1.03895853      0.10965858
C       2.49633630      0.20178496     -0.06808085
C       1.80205245      1.49286188     -0.06140069
C       0.37300773      1.30484180      0.17084924
C      -0.39471644      0.19242046     -0.02107571
H       0.01298999     -1.67116977     -0.77833092
H       1.42173068     -0.75135580      1.25798722
H       3.50787778      0.21418471     -0.51179854
H       2.54466194      2.31424889     -0.43757257
H      -0.27723854      2.28248531      0.22051398
H      -1.52895954      0.08895282      0.07415875
