12
Family_1 [H]c1c([H])c([H])c([H])c([H])c1[H] | RMSD: 0.4005 | Generated by script
C       0.42419699     -0.89563169     -0.15035890
C       1.76789510     -0.96973366      0.27769925
C       2.47015708      0.13993134     -0.09197990
C       1.73999885      1.40316165     -0.20851728
C       0.34107697      1.35722703      0.17762526
C      -0.42408290      0.19176218     -0.02095158
H       0.43835950     -0.47375148     -1.17915124
H       2.01188610     -1.86259264      0.89331957
H       3.56950584      0.11465520     -0.39202807
H       2.33749898      2.27830996     -0.26397775
H      -0.27164776      2.29203119      0.49122638
H      -1.47602950      0.11051319     -0.12721842
