12
Family_1 [H]c1c([H])c([H])c([H])c([H])c1[H] | RMSD: 0.1866 | Generated by script
C       0.44717194     -0.98309527     -0.19308281
C       1.79569071     -0.94701385      0.42175028
C       2.48382412      0.08103535     -0.35091702
C       1.63497109      1.32302911     -0.05080764
C       0.33208141      1.42279983      0.24882901
C      -0.43177469      0.29310791     -0.11106152
H       0.72918126     -1.20442944     -1.26181786
H       2.15441929     -1.21926416      1.36420864
H       3.55413444      0.34333768     -0.75215760
H       2.30235399      2.16480600      0.13515271
H      -0.02230914      2.45605339      0.47290336
H      -1.42570647      0.35779960     -0.31202615
