12
Family_1 [H]c1c([H])c([H])c([H])c([H])c1[H] | RMSD: 0.5084 | Generated by script
C       0.28153170     -1.09741070     -0.26609669
C       1.83282013     -1.03696527      0.05600029
C       2.52320845      0.22160024     -0.10019023
C       1.81818422      1.40877420     -0.00747674
C       0.33442233      1.55683558      0.10838495
C      -0.38783418      0.15291310      0.11925112
H      -0.04946423     -2.11558917     -0.39564608
H       1.38509221     -0.68586045      1.01137335
H       3.69140849      0.42409368      0.00470771
H       2.30585015      2.32078739     -0.17754763
H      -0.13253332      2.56909826      0.00586330
H      -1.58086017      0.19650366     -0.14906042
