12
Family_1 [H]c1c([H])c([H])c([H])c([H])c1[H] | RMSD: 0.4837 | Generated by script
C       0.35613181     -1.02103038     -0.12114437
C       1.84559286     -1.04902570      0.32683582
C       2.40946316      0.12547393     -0.18440204
C       1.71826346      1.45225545     -0.06446012
C       0.30775657      1.46095475      0.14204443
C      -0.38139742      0.26406469     -0.04952332
H       0.83214069     -0.62860086     -1.26492460
H       2.46050988     -1.98818117      0.61570819
H       3.56980066      0.14094654     -0.35084626
H       2.35473765      2.22687141     -0.42263723
H      -0.43651413      2.25643236      0.24054133
H      -1.41527070      0.38049031     -0.18012218
