12
Family_1 [H]c1c([H])c([H])c([H])c([H])c1[H] | RMSD: 0.3582 | Generated by script
C       0.36092080     -1.11647607     -0.21723397
C       1.79055420     -1.05218326      0.38282197
C       2.52280092      0.16436381     -0.18286052
C       1.70903087      1.45019412     -0.11545502
C       0.31484490      1.45878170      0.14982668
C      -0.38444086      0.28394891      0.02226319
H       0.53180451     -0.74190240     -1.41048714
H       2.22208347     -1.76795841      0.88666627
H       3.51170174      0.22972936     -0.64478999
H       2.29611086      2.31466430     -0.16372893
H      -0.39679077      2.43021285      0.24579405
H      -1.48942788      0.44825963     -0.15672042
