12
Family_1 [H]c1c([H])c([H])c([H])c([H])c1[H] | RMSD: 0.2889 | Generated by script
C       0.39495380     -0.88167909     -0.41901319
C       1.67582710     -0.70444309      0.49396733
C       2.67478499      0.07527492     -0.34607970
C       1.71599604      1.30525484     -0.18955964
C       0.36928139      1.29611874      0.38370896
C      -0.46163415      0.18294451     -0.03309410
H       0.29355690     -1.76389963     -0.97375842
H       1.55516612     -0.97374429      1.63605869
H       3.66784336      0.11798008     -0.60464772
H       2.24786192      2.17458774      0.00256077
H      -0.18746661      2.12842127      0.68489216
H      -1.56277999      0.21871499     -0.20778046
