12
Family_1 [H]c1c([H])c([H])c([H])c([H])c1[H] | RMSD: 0.5145 | Generated by script
C       0.36726029     -1.00022471     -0.22345098
C       1.78112157     -1.01389298      0.12617486
C       2.44933093      0.21354811     -0.08131088
C       1.74076698      1.40937809     -0.14362038
C       0.41693699      1.40244761      0.25728384
C      -0.31107844      0.20754586      0.03293938
H      -0.14940502     -1.74889907     -0.99839576
H       1.20414453     -0.64129331      1.22518926
H       3.44333552      0.32852463      0.15483827
H       1.95782207      2.20024498     -0.83081614
H      -0.05155811      2.26281445      0.47013188
H      -1.28537144      0.15208464     -0.41407216
