12
Family_1 [H]c1c([H])c([H])c([H])c([H])c1[H] | RMSD: 0.2531 | Generated by script
C       0.42123581     -0.86721223     -0.26852811
C       1.72071407     -0.79803096      0.44727530
C       2.54979708      0.13717044     -0.38976595
C       1.68978246      1.23562025     -0.10470521
C       0.36687050      1.33476545      0.31353956
C      -0.43659813      0.19192365     -0.08583247
H       0.20085251     -1.45099646     -1.17943237
H       1.89241740     -0.70933880      1.51601772
H       3.65775064      0.14296791     -0.36278430
H       2.36894327      2.05161822      0.04955342
H       0.07573002      2.26867199      0.78968384
H      -1.49746442      0.06663971     -0.53849527
