12
Family_1 [H]c1c([H])c([H])c([H])c([H])c1[H] | RMSD: 0.4555 | Generated by script
C       0.32776583     -0.96238087     -0.25916330
C       1.76285313     -1.15149169      0.24360426
C       2.50009824      0.30311256     -0.20973505
C       1.75702840      1.45450015     -0.03426153
C       0.42647827      1.36248142      0.16624553
C      -0.36056580      0.18645129     -0.00325690
H      -0.26178242     -2.00613064     -0.47470849
H       1.43249529     -0.61113061      1.28814091
H       3.74588267      0.40552337     -0.36769637
H       2.19593164      2.37108240     -0.12520422
H      -0.15075911      2.34221529      0.14884505
H      -1.47722480      0.36326250     -0.09295349
