12
Family_1 [H]c1c([H])c([H])c([H])c([H])c1[H] | RMSD: 0.4119 | Generated by script
C       0.37314109     -1.03519923     -0.14580733
C       1.72828629     -1.01098564      0.02826491
C       2.48782412      0.26047234     -0.04938118
C       1.83484309      1.39219806     -0.01975160
C       0.35197406      1.41161813      0.13315783
C      -0.40074640      0.20409024      0.01482842
H       0.05220569     -2.00965867     -0.87286800
H       1.42955899     -0.80823089      1.17370648
H       3.63562446      0.28767471     -0.47066006
H       2.18273366      2.40886052     -0.36490072
H       0.05186555      2.51543814      0.12121682
H      -1.41064789      0.11897546      0.10027307
