12
Family_1 [H]c1c([H])c([H])c([H])c([H])c1[H] | RMSD: 0.3255 | Generated by script
C       0.43456253     -0.88987658     -0.24766419
C       1.87152781     -1.12210260      0.40003699
C       2.42931188      0.10150542     -0.21938388
C       1.68694089      1.46173360     -0.02706708
C       0.25755053      1.43756608      0.13566668
C      -0.34655095      0.26972054     -0.08485363
H       0.18354410     -1.37192861     -1.20477219
H       2.27231061     -1.49443581      1.37184054
H       3.09467978      0.14127569     -0.97554535
H       2.43608546      2.22419120      0.03973379
H      -0.12227815      2.51750417      0.27720023
H      -1.42278675      0.06328749      0.23283856
