12
Family_1 [H]c1c([H])c([H])c([H])c([H])c1[H] | RMSD: 0.3379 | Generated by script
C       0.56756984     -0.84983686     -0.30436598
C       1.81264765     -1.14160331      0.38466214
C       2.38222005      0.08406095     -0.12582664
C       1.64098911      1.47164684     -0.17664851
C       0.30235937      1.43006840      0.08107178
C      -0.39732531      0.26798077      0.10494126
H       0.55775976     -0.86755494     -1.44114908
H       2.19300757     -1.66670866      1.18261751
H       3.25457697     -0.12817459     -0.61350761
H       2.35865234      2.18443982      0.09613450
H      -0.16260167      2.40404847      0.34875297
H      -1.46335431      0.10891788      0.08385613
