12
Family_1 [H]c1c([H])c([H])c([H])c([H])c1[H] | RMSD: 0.2583 | Generated by script
C       0.43033182     -1.05241190     -0.21345796
C       1.69531147     -0.84137912      0.30984928
C       2.46708130      0.16281455     -0.20887625
C       1.68607627      1.30229808     -0.07548503
C       0.40372207      1.40899153      0.11196474
C      -0.38809406      0.23420184      0.01801459
H       0.45840740     -0.88415351     -1.35247810
H       2.09774913     -1.47480861      1.05149926
H       3.51062645      0.27200949     -0.36337310
H       2.26493937      2.12502197      0.07711703
H      -0.06719764      2.32563541      0.33023655
H      -1.35928529      0.24085422      0.17375842
