12
Family_1 [H]c1c([H])c([H])c([H])c([H])c1[H] | RMSD: 0.1519 | Generated by script
C       0.39834208     -1.09448431     -0.23299892
C       1.68937356     -0.88879350      0.44798886
C       2.44161535      0.13859265     -0.44953880
C       1.74272446      1.38688006     -0.01294646
C       0.37313636      1.44894033      0.29888465
C      -0.35371222      0.26186020     -0.08720476
H       0.63776991     -1.50553664     -1.21448240
H       2.07700854     -1.21775438      1.37626107
H       3.56078275      0.22111505     -0.35375725
H       2.37131958      2.23288464      0.04251144
H      -0.30699829      2.21250010      0.25835755
H      -1.39950022      0.20282958     -0.45636278
