12
Family_1 [H]c1c([H])c([H])c([H])c([H])c1[H] | RMSD: 0.2561 | Generated by script
C       0.40011733     -0.92701888     -0.22325293
C       1.78552463     -0.83419857      0.41848999
C       2.52165715      0.10404225     -0.44693842
C       1.78312898      1.33441694     -0.04324013
C       0.34409500      1.36769240      0.27615630
C      -0.48438565      0.18112023     -0.09093220
H       0.09642620     -1.54287054     -1.09664740
H       1.92348701     -0.72033644      1.49655145
H       3.66254897      0.08378027     -0.35954916
H       2.41727177      2.14260347      0.64668298
H      -0.27109837      2.23717828      0.36315773
H      -1.58720115      0.26670431     -0.51707640
