12
Family_1 [H]c1c([H])c([H])c([H])c([H])c1[H] | RMSD: 0.3453 | Generated by script
C       0.44899572     -0.88299178     -0.23768998
C       1.75417483     -0.80790306      0.41279698
C       2.47856168      0.04673073     -0.43204779
C       1.73752354      1.30267262     -0.00399195
C       0.32273361      1.37019995      0.21238048
C      -0.38729101      0.21956064     -0.08931534
H       0.31920447     -1.62524238     -0.98497333
H       1.72015078     -0.46196899      1.46747095
H       3.48619469      0.12293209     -0.69292992
H       2.15553849      1.92030302      0.64769520
H      -0.11287602      2.17643534      0.78494402
H      -1.38112457      0.06989673     -0.35365894
