12
Family_1 [H]c1c([H])c([H])c([H])c([H])c1[H] | RMSD: 0.4304 | Generated by script
C       0.57041456     -0.97152901     -0.29928759
C       1.75552757     -1.01446833      0.61195658
C       2.29861766      0.09118976     -0.33592030
C       1.69550244      1.52217906     -0.12978478
C       0.33705297      1.44694108      0.28787283
C      -0.31787438      0.30380466     -0.15267887
H       0.19495777     -1.80919408     -1.05352874
H       2.31820993     -1.97377582      0.87624679
H       3.09196564     -0.12312315     -0.86444785
H       2.37442067      2.24064356      0.08930537
H      -0.16635101      2.17013515      0.82172481
H      -1.44192812      0.15044207     -0.43093668
