12
Family_1 [H]c1c([H])c([H])c([H])c([H])c1[H] | RMSD: 0.4096 | Generated by script
C       0.32321037     -1.07168596     -0.18156492
C       1.64132978     -0.90697258      0.18539062
C       2.48502523      0.23995961     -0.08662374
C       1.79494875      1.39387662     -0.11466943
C       0.38911695      1.35123210      0.12751699
C      -0.33822709      0.18282900      0.13606253
H       0.39648905     -0.58228872     -1.28541006
H       2.20285538     -1.49932500      0.88312474
H       3.54406035      0.16428738     -0.17968664
H       2.20601473      2.30609615     -0.47309956
H      -0.31585965      2.16320990     -0.05217172
H      -1.13993934      0.35376200     -0.45476364
