12
Family_1 [H]c1c([H])c([H])c([H])c([H])c1[H] | RMSD: 0.3145 | Generated by script
C       0.64181199     -0.82496398     -0.31795854
C       1.82145649     -1.04045279      0.45814714
C       2.25418807      0.08299731     -0.25952019
C       1.60638024      1.42072546     -0.13060923
C       0.33982242      1.39782091      0.20362917
C      -0.30415869      0.31244934     -0.00883110
H       0.32612325     -1.60092324     -1.06512165
H       1.96378681     -1.78582992      1.18742624
H       3.18384242     -0.28172473     -0.49721660
H       2.38011654      2.17997027      0.10160794
H      -0.31974637      2.16400194      0.29483190
H      -1.40425563      0.33163392     -0.13870216
