12
Aligned to gpa_Type_2.xyz, RMSD 0.18578
C -0.928159 -1.034529 -0.472281
C 0.540142 -1.042180 -0.115379
C 1.405108 0.009848 0.293786
C 0.761456 1.382092 0.166073
C -0.769177 1.225275 -0.079484
C -1.466275 0.060827 0.343780
H -1.476148 -1.972696 -0.806063
H 0.947677 -2.017467 0.125392
H 2.572336 -0.004711 0.336688
H 1.537547 2.157333 0.039122
H -1.032913 1.294888 -1.114550
H -2.091595 -0.058683 1.282916
12
Aligned to gpa_Type_1.xyz, RMSD 0.21779
C -0.659148 -1.054125 -0.239369
C 0.756341 -1.122529 0.111568
C 1.494058 0.030775 0.297260
C 0.768098 1.185840 -0.036970
C -0.708591 0.927383 -0.325590
C -1.468638 -0.034111 0.552171
H -1.290304 -1.580088 -0.903790
H 0.906212 -2.102717 -0.122825
H 2.645347 -0.170155 0.510522
H 1.273268 2.144890 -0.065955
H -1.286505 1.624356 -1.038876
H -2.430138 0.150482 1.261853
12
Aligned to gpa_Type_1.xyz, RMSD 0.19051
C -0.766901 -1.034819 -0.257447
C 0.634805 -1.252060 0.066016
C 1.419001 -0.026316 0.253388
C 0.844544 1.058632 -0.097404
C -0.605442 0.943377 -0.268993
C -1.405417 0.030738 0.543723
H -1.345093 -1.507381 -1.011027
H 1.105326 -2.188892 0.191609
H 2.384352 0.029894 0.391953
H 1.193616 2.153863 -0.114713
H -1.240266 1.733369 -0.765939
H -2.218524 0.059595 1.068834
12
Aligned to gpa_Type_2.xyz, RMSD 0.19103
C -0.778358 -0.990946 -0.547255
C 0.733978 -1.183320 -0.091684
C 1.406901 0.147060 0.262691
C 0.668696 1.291365 0.044622
C -0.726159 1.149845 -0.180719
C -1.590997 0.041187 0.385380
H -1.359326 -1.735562 -0.839008
H 0.905002 -2.263593 0.156776
H 2.372733 -0.123294 0.613338
H 1.263043 2.075453 -0.203662
H -1.044084 1.673518 -1.032129
H -1.851428 -0.081714 1.431650
12
Aligned to gpa_Type_2.xyz, RMSD 0.22097
C -0.851338 -1.038319 -0.353674
C 0.654660 -1.216902 -0.139347
C 1.362498 -0.030566 0.218739
C 0.689813 1.231385 0.074602
C -0.719037 1.175354 -0.230281
C -1.524291 0.073739 0.462006
H -1.553972 -1.787342 -1.041789
H 1.099084 -2.152556 0.069458
H 2.407416 0.058260 0.667012
H 1.404257 2.152708 -0.010282
H -1.135510 1.479625 -1.233870
H -1.833579 0.054612 1.517426
12
Aligned to gpa_Type_2.xyz, RMSD 0.25359
C -0.759158 -1.093568 -0.389427
C 0.701088 -1.165405 -0.098221
C 1.379981 -0.013529 0.419973
C 0.718071 1.185877 -0.050057
C -0.756007 1.078370 -0.352564
C -1.475129 0.008638 0.389773
H -1.588888 -1.664701 -1.096091
H 1.053437 -2.132247 0.266959
H 2.455604 -0.145329 0.536193
H 1.274420 2.261782 -0.081733
H -1.183243 1.686563 -1.058618
H -1.820176 -0.006452 1.513814
12
Aligned to gpa_Type_1.xyz, RMSD 0.25767
C -0.697625 -0.837347 -0.093894
C 0.702286 -1.076147 0.115887
C 1.563747 -0.077440 0.466955
C 0.807757 1.152268 0.089531
C -0.771884 1.041174 -0.236669
C -1.626044 0.023336 0.486040
H -1.313081 -1.366592 -0.644136
H 1.090882 -2.090607 -0.325782
H 2.566470 -0.018230 0.440963
H 1.443347 1.838469 -0.330480
H -1.232349 1.597872 -0.973957
H -2.533506 -0.186756 1.005540
12
Aligned to gpa_Type_1.xyz, RMSD 0.23077
C -0.845018 -0.980579 -0.195427
C 0.738976 -1.195875 0.145394
C 1.537259 -0.003752 0.448864
C 0.730976 1.035569 0.057479
C -0.685221 0.880779 -0.133384
C -1.618288 0.108373 0.508745
H -1.361554 -1.560486 -0.866497
H 1.295777 -2.009678 -0.278133
H 2.639714 -0.072546 0.443056
H 1.171967 1.983768 -0.353403
H -1.169033 1.484854 -0.719217
H -2.435556 0.329573 0.942523
12
Aligned to gpa_Type_2.xyz, RMSD 0.27662
C -0.842532 -1.026692 -0.348392
C 0.611846 -1.201588 0.030872
C 1.534575 0.049716 0.173608
C 0.851164 1.232087 -0.069402
C -0.680386 1.109524 -0.081959
C -1.336346 0.042117 0.529158
H -1.433059 -1.681213 -0.894154
H 0.878096 -2.356065 -0.091166
H 2.530007 -0.008132 0.588618
H 0.943542 2.301006 0.037789
H -0.992360 1.349153 -1.094838
H -2.064545 0.190087 1.219867
12
Aligned to gpa_Type_2.xyz, RMSD 0.24529
C -0.858158 -1.030281 -0.300357
C 0.632892 -1.176265 0.046215
C 1.477494 0.039456 0.212084
C 0.843202 1.195633 -0.039039
C -0.709085 1.092072 -0.102739
C -1.335130 0.039319 0.555209
H -1.373561 -1.687208 -0.996873
H 0.916005 -2.222899 -0.030720
H 2.453795 -0.095571 0.559935
H 1.018479 2.260570 -0.051215
H -1.034050 1.422156 -1.085274
H -2.031880 0.163017 1.232776
12
Aligned to gpa_Type_2.xyz, RMSD 0.29084
C -0.780114 -1.075028 -0.370287
C 0.670429 -1.310602 -0.054904
C 1.436261 -0.108063 0.207032
C 0.610342 1.045414 0.116624
C -0.724681 1.092451 -0.309156
C -1.381432 0.029746 0.474368
H -1.507362 -1.652314 -0.979130
H 1.085417 -2.326514 -0.015908
H 2.419305 0.316714 0.608058
H 1.201166 2.062164 -0.030000
H -1.052270 1.669874 -1.141487
H -1.977060 0.256155 1.494791
12
Aligned to gpa_Type_3.xyz, RMSD 0.30319
C -0.810225 -1.063309 0.088671
C 0.663450 -1.022240 -0.366147
C 1.451715 0.107340 0.093347
C 0.796295 1.259922 0.151882
C -0.587101 0.989053 -0.235438
C -1.439006 0.151711 0.612649
H -1.301735 -1.889349 -0.367599
H 1.059092 -1.925765 -0.305488
H 2.491304 -0.045905 0.266647
H 1.233478 2.064864 0.561047
H -1.011236 0.942602 -1.276920
H -2.546031 0.431077 0.777350
12
Aligned to gpa_Type_3.xyz, RMSD 0.34529
C -0.803912 -0.907582 0.100156
C 0.540671 -1.001299 -0.203316
C 1.496982 0.057596 0.106621
C 0.717030 1.166045 0.148090
C -0.634674 1.074868 -0.294854
C -1.391389 0.350253 0.682222
H -1.320203 -1.637355 -0.408207
H 1.049653 -2.039734 -0.525559
H 2.515243 -0.098614 0.389044
H 1.083776 2.147777 0.484917
H -0.873862 0.810563 -1.335960
H -2.379313 0.077483 0.856846
12
Aligned to gpa_Type_2.xyz, RMSD 0.26147
C -0.783417 -1.121178 -0.555111
C 0.443049 -1.129025 0.105260
C 1.353083 0.007849 0.284358
C 0.661869 1.251810 -0.060897
C -0.722187 1.155223 -0.258705
C -1.472324 -0.025310 0.355861
H -1.448934 -1.767658 -1.102378
H 0.981953 -2.095822 0.308328
H 2.275533 -0.103038 0.688212
H 1.269928 2.123217 -0.302918
H -1.061089 1.884314 -0.947972
H -1.497464 -0.180383 1.485963
12
Aligned to gpa_Type_3.xyz, RMSD 0.24647
C -0.831938 -1.091793 0.062727
C 0.514002 -1.233795 -0.112643
C 1.313012 0.051598 -0.078949
C 0.815912 1.205000 0.385500
C -0.687535 1.389494 0.292525
C -1.398015 0.113764 0.281389
H -1.351428 -2.138376 -0.164187
H 1.004305 -2.261149 -0.198353
H 2.298365 0.154164 -0.146845
H 1.211382 2.360564 0.596917
H -0.551826 1.204280 -1.506179
H -2.336237 0.246250 0.588098
12
Aligned to gpa_Type_3.xyz, RMSD 0.23484
C -0.743733 -1.043512 -0.068439
C 0.668425 -1.181638 -0.169517
C 1.404610 0.109344 0.033434
C 0.695925 1.171378 0.326337
C -0.830473 1.367440 0.367154
C -1.425647 0.045759 0.444304
H -1.473405 -1.914935 -0.163494
H 1.221195 -2.036724 -0.177343
H 2.462935 -0.114415 -0.082138
H 1.239227 2.150865 0.395015
H -0.644406 1.183078 -1.482343
H -2.574654 0.263361 0.577033
12
Aligned to gpa_Type_3.xyz, RMSD 0.25224
C -0.788183 -1.109058 -0.077412
C 0.680891 -1.130504 -0.243261
C 1.338909 0.065052 -0.223784
C 0.697130 1.305805 0.134119
C -0.749519 1.428106 0.148993
C -1.539489 0.031429 0.259052
H -1.513722 -1.859461 -0.332981
H 1.099546 -2.000147 0.215531
H 2.553075 0.029318 -0.078562
H 1.462636 2.044521 0.496437
H -0.730434 1.155860 -0.923011
H -2.510839 0.039080 0.624880
12
Aligned to gpa_Type_3.xyz, RMSD 0.19645
C -0.841762 -1.016162 -0.087387
C 0.558157 -1.023555 -0.216581
C 1.351708 0.037793 -0.045028
C 0.675002 1.278562 0.223735
C -0.771326 1.393537 -0.074421
C -1.551210 0.143831 0.198698
H -1.247116 -2.100893 0.231642
H 1.103178 -1.888621 -0.677121
H 2.329987 -0.178459 0.345063
H 1.280997 2.114785 0.364491
H -0.342203 1.101148 -0.999177
H -2.545411 0.138036 0.736086
12
Aligned to gpa_Type_2.xyz, RMSD 0.19557
C -0.862651 -1.064497 -0.541161
C 0.447251 -1.061382 0.113838
C 1.247285 0.065124 0.438244
C 0.681751 1.170216 0.151245
C -0.556183 1.182460 -0.167120
C -1.399632 0.062338 0.310127
H -1.262878 -1.937312 -0.981044
H 1.025471 -2.016301 0.228292
H 2.371656 -0.059333 0.261338
H 1.359194 1.939653 -0.151391
H -1.203022 1.688410 -0.973599
H -1.848241 0.030624 1.311232
12
Aligned to gpa_Type_2.xyz, RMSD 0.25936
C -0.853759 -1.104740 -0.521811
C 0.479344 -1.051063 -0.077533
C 1.361777 0.098978 0.005926
C 0.720265 1.360430 -0.111210
C -0.638511 1.190411 -0.111937
C -1.393635 0.107079 0.314017
H -1.256982 -2.120513 -0.730761
H 0.832305 -1.975663 0.482626
H 2.432918 -0.225136 0.166565
H 1.344404 2.123796 0.396934
H -1.059182 1.651114 -1.003727
H -1.968942 -0.054694 1.190911
12
Aligned to gpa_Type_1.xyz, RMSD 0.16624
C -0.807009 -1.062099 -0.170972
C 0.672673 -1.259171 -0.076389
C 1.519271 0.052754 0.099894
C 0.775480 1.201071 -0.086087
C -0.646788 1.019045 -0.291154
C -1.289862 0.019738 0.697054
H -1.208826 -1.544855 -0.886316
H 0.932003 -2.298699 0.123876
H 2.482108 0.031894 0.496463
H 1.262411 2.060116 0.024915
H -1.393205 1.626847 -0.844450
H -2.298256 0.153359 0.913165
12
Aligned to gpa_Type_1.xyz, RMSD 0.17331
C -0.781522 -1.059245 -0.185210
C 0.681290 -1.257524 -0.056909
C 1.521169 0.055910 0.102396
C 0.773329 1.212743 -0.097979
C -0.659789 1.006788 -0.317896
C -1.291580 0.032022 0.677619
H -1.232017 -1.611668 -0.943164
H 0.948592 -2.321024 0.153485
H 2.475275 -0.003810 0.491144
H 1.228237 2.105199 0.022506
H -1.367552 1.659003 -0.801669
H -2.295432 0.181607 0.955677
12
Aligned to gpa_Type_2.xyz, RMSD 0.23816
C -0.783688 -0.977164 -0.432210
C 0.635340 -1.212462 -0.060491
C 1.388705 0.074186 0.199658
C 0.751220 1.132654 0.077805
C -0.625289 1.022530 -0.472489
C -1.425042 0.031120 0.342959
H -1.241786 -1.852877 -0.566662
H 0.834220 -2.203959 0.053941
H 2.391103 0.075341 0.372205
H 1.319786 2.066061 0.200087
H -1.196175 1.769229 -0.944662
H -2.048393 0.075342 1.229860
12
Aligned to gpa_Type_2.xyz, RMSD 0.25204
C -0.809121 -1.038200 -0.375545
C 0.615325 -1.126419 -0.024920
C 1.376763 0.056224 0.237960
C 0.686528 1.167043 0.096669
C -0.643066 0.964609 -0.453462
C -1.447476 0.032632 0.293286
H -1.335118 -1.948628 -0.809147
H 0.952185 -2.242787 0.163046
H 2.480772 0.030696 0.367416
H 1.337901 2.016025 0.193699
H -1.294608 1.919366 -1.038010
H -1.920085 0.169437 1.349009
12
Aligned to gpa_Type_2.xyz, RMSD 0.24147
C -0.904188 -1.021472 -0.266867
C 0.509092 -1.142654 -0.079611
C 1.286564 0.075459 0.150576
C 0.786513 1.276178 0.024720
C -0.645113 1.181900 -0.195724
C -1.352878 0.030907 0.561924
H -1.355000 -1.668044 -0.953786
H 1.184276 -2.109431 0.097642
H 2.420867 -0.081131 0.442226
H 1.403300 2.066946 0.102625
H -1.196980 1.305298 -1.095986
H -2.136454 0.086044 1.212263
12
Aligned to gpa_Type_1.xyz, RMSD 0.27964
C -0.854366 -0.998319 -0.088203
C 0.688770 -1.092734 -0.166248
C 1.527255 -0.098541 0.152597
C 0.767567 1.222729 -0.027301
C -0.696568 0.971345 -0.317108
C -1.487866 0.085560 0.740097
H -1.329346 -1.875102 -0.324894
H 0.979496 -2.125433 -0.414692
H 2.666935 -0.000549 0.505373
H 1.219238 2.210764 0.256412
H -0.984596 1.514911 -1.121305
H -2.496520 0.185369 0.805271
12
Aligned to gpa_Type_2.xyz, RMSD 0.27418
C -0.917458 -1.169484 -0.522896
C 0.498075 -1.071032 -0.088321
C 1.105581 0.014578 0.470501
C 0.688232 1.364009 0.193355
C -0.657262 1.313429 -0.342988
C -1.179788 0.014228 0.188402
H -1.339971 -2.146638 -0.457705
H 0.957030 -2.083478 -0.325580
H 2.121838 -0.134614 0.748018
H 1.374586 2.038954 0.043575
H -1.267319 1.726499 -1.167828
H -1.383543 0.133549 1.261466
12
Aligned to gpa_Type_2.xyz, RMSD 0.23743
C -0.902501 -1.060908 -0.482040
C 0.468203 -1.084880 0.193144
C 1.244737 0.047705 0.539446
C 0.641557 1.215293 0.199050
C -0.628815 1.169317 -0.143190
C -1.387980 0.073561 0.380543
H -1.017186 -1.977293 -0.997311
H 0.955953 -2.036199 0.088490
H 2.234332 -0.243498 0.149752
H 1.292715 2.117959 -0.265227
H -1.019724 1.661699 -0.949354
H -1.881292 0.117243 1.286699
12
Aligned to gpa_Type_3.xyz, RMSD 0.16673
C -0.841293 -1.015260 0.023936
C 0.572207 -1.113652 -0.093910
C 1.324588 0.036508 0.026900
C 0.687651 1.257953 0.253245
C -0.687740 1.240071 0.032324
C -1.455796 0.195001 0.274095
H -1.166815 -1.911442 -0.315288
H 1.083804 -2.000740 -0.349359
H 2.347190 -0.018662 0.062615
H 1.358693 2.175133 0.355689
H -0.624734 0.896032 -0.983525
H -2.597755 0.259058 0.713277
12
Aligned to gpa_Type_3.xyz, RMSD 0.20109
C -0.800364 -1.180162 0.095989
C 0.528217 -1.061617 -0.217007
C 1.420454 0.102100 0.027524
C 0.650731 1.371806 0.164393
C -0.733661 1.317258 0.097940
C -1.388364 -0.001776 0.536691
H -1.498523 -1.983272 -0.075998
H 1.030496 -1.861750 -0.532463
H 2.449130 -0.201637 0.079942
H 1.152398 2.333869 0.509951
H -0.450205 0.842374 -1.125111
H -2.360309 0.322808 0.438150
12
Aligned to gpa_Type_3.xyz, RMSD 0.18439
C -0.828137 -1.124642 0.099694
C 0.517206 -1.019044 -0.294713
C 1.479249 0.141491 0.055398
C 0.697091 1.231975 0.249065
C -0.820280 1.390500 -0.063333
C -1.624697 0.078883 0.234641
H -1.223911 -2.166671 0.105240
H 1.024683 -1.808676 -0.621623
H 2.478366 -0.126880 0.201889
H 1.331548 2.086133 0.478682
H -0.443229 0.964481 -1.127408
H -2.587890 0.352450 0.682470
12
Aligned to gpa_Type_1.xyz, RMSD 0.30662
C -0.740303 -0.956578 -0.143447
C 0.753291 -1.113345 0.009786
C 1.559596 -0.065510 0.302436
C 0.718496 1.177171 0.077112
C -0.803963 1.008914 -0.225972
C -1.595281 0.021414 0.504625
H -1.209950 -1.854972 -0.622233
H 0.854859 -2.118918 -0.373775
H 2.706254 -0.040693 0.339816
H 1.174846 2.217060 0.166831
H -0.895132 1.454779 -1.267388
H -2.522714 0.270678 1.232209
12
Aligned to gpa_Type_1.xyz, RMSD 0.19169
C -0.587263 -0.898857 -0.119331
C 0.905338 -1.288632 0.022799
C 1.443472 -0.068719 0.199778
C 0.642524 1.181227 0.106121
C -0.752737 1.152843 -0.193485
C -1.369224 0.141949 0.689032
H -1.320288 -1.381407 -0.652048
H 0.994231 -2.425794 -0.094840
H 2.525663 -0.023173 0.251995
H 1.235477 2.172116 0.028108
H -1.127652 1.438268 -1.066654
H -2.589542 0.000179 0.828524
12
Aligned to gpa_Type_3.xyz, RMSD 0.17268
C -0.836575 -1.035887 -0.199625
C 0.606334 -1.170481 -0.215781
C 1.398073 0.114460 -0.016219
C 0.779902 1.268973 0.311311
C -0.928915 1.459462 -0.011994
C -1.454984 0.074384 0.257449
H -1.290185 -1.914859 0.131541
H 0.914095 -2.248066 -0.221927
H 2.450242 0.096156 -0.056857
H 1.444777 2.135554 0.591861
H -0.557695 1.243489 -1.172900
H -2.525068 -0.023184 0.603142
12
Aligned to gpa_Type_3.xyz, RMSD 0.18513
C -0.895504 -1.141411 -0.064605
C 0.511690 -1.054444 -0.060701
C 1.322081 0.135851 0.034259
C 0.802803 1.296526 0.175212
C -0.604377 1.195313 0.234065
C -1.480473 0.048691 0.283383
H -1.301558 -2.121508 -0.201422
H 0.950344 -2.136760 -0.231372
H 2.332912 0.130053 -0.135095
H 1.247076 2.246958 0.426080
H -0.348811 1.123026 -1.075890
H -2.536183 0.277704 0.616087
12
Aligned to gpa_Type_3.xyz, RMSD 0.19651
C -0.844016 -1.081103 -0.132451
C 0.600886 -1.124201 -0.145033
C 1.382561 0.101376 0.155446
C 0.713589 1.360879 0.285538
C -0.732233 1.118835 0.280956
C -1.529776 0.042597 0.258896
H -1.482377 -1.984445 0.109791
H 0.908329 -2.024340 -0.413432
H 2.486154 0.078023 -0.086771
H 1.378046 2.269119 0.283700
H -0.325437 1.175897 -1.037953
H -2.555728 0.067363 0.441314
12
Aligned to gpa_Type_2.xyz, RMSD 0.26139
C -0.898887 -0.984674 -0.503625
C 0.513030 -1.238277 0.141039
C 1.257701 0.032656 0.445546
C 0.567530 1.240215 0.104934
C -0.755750 1.160727 -0.137552
C -1.310831 0.049168 0.318467
H -1.294121 -2.056700 -0.603670
H 0.907067 -1.939901 -0.543044
H 2.301334 0.005122 0.843778
H 1.350445 1.964629 -0.239743
H -0.987997 1.654766 -1.156187
H -1.649520 0.112268 1.330057
12
Aligned to gpa_Type_3.xyz, RMSD 0.17702
C -0.795696 -0.941302 0.026086
C 0.598448 -1.095121 -0.261633
C 1.389557 -0.036761 -0.001217
C 0.732468 1.363502 0.120636
C -0.717176 1.355337 0.136297
C -1.516054 0.138904 0.402708
H -1.364425 -1.803755 0.036716
H 1.071339 -2.076210 -0.448906
H 2.402882 -0.039194 0.090480
H 1.373934 2.233997 0.381339
H -0.454670 0.991985 -0.887530
H -2.720608 -0.091380 0.405024
12
Aligned to gpa_Type_2.xyz, RMSD 0.25786
C -0.879178 -1.001304 -0.597520
C 0.454286 -1.133928 0.111797
C 1.249899 -0.026444 0.505226
C 0.600020 1.240286 0.149808
C -0.752052 1.208823 -0.158664
C -1.303022 0.063080 0.310371
H -1.438214 -1.862967 -0.572933
H 1.137151 -1.990166 -0.403886
H 2.237740 0.022318 0.811020
H 1.231387 1.869891 -0.409454
H -0.865671 1.682030 -1.067383
H -1.672345 -0.071620 1.321621
12
Aligned to gpa_Type_2.xyz, RMSD 0.33360
C -0.931131 -1.283826 -0.437749
C 0.516811 -1.243786 -0.044152
C 1.237923 0.069304 0.146016
C 0.768732 1.344515 -0.204566
C -0.707538 1.190013 -0.214946
C -1.304455 -0.030656 0.269771
H -1.268367 -1.944535 -1.192040
H 0.664289 -2.261966 0.553158
H 2.233613 0.154704 0.508251
H 1.420527 2.161811 0.055705
H -1.190015 1.833733 -0.778802
H -1.440388 0.010688 1.339355
12
Aligned to gpa_Type_1.xyz, RMSD 0.24944
C -0.793678 -1.052158 -0.245690
C 0.690582 -1.147459 -0.017090
C 1.498669 0.095221 0.085227
C 0.713360 1.158265 -0.111405
C -0.669341 1.117824 -0.098398
C -1.308493 0.036592 0.650755
H -1.393699 -1.667639 -0.925372
H 1.043125 -2.302901 0.288464
H 2.508804 0.140793 0.111335
H 1.257310 1.907099 0.395036
H -1.267357 1.385448 -0.954062
H -2.279283 0.328915 0.821200
12
Aligned to gpa_Type_1.xyz, RMSD 0.32385
C -0.829453 -1.192275 -0.149258
C 0.579269 -1.193232 0.132212
C 1.482835 -0.137812 0.030313
C 0.762526 1.081030 -0.405751
C -0.623448 1.009414 -0.043839
C -1.382781 0.052957 0.699574
H -1.045532 -1.365676 -1.273463
H 0.896401 -2.183765 0.583144
H 2.567766 0.175422 0.132909
H 1.343037 2.059365 0.033043
H -1.311242 1.663388 -0.511115
H -2.439380 0.031184 0.772229
12
Aligned to gpa_Type_1.xyz, RMSD 0.23831
C -0.777275 -1.006799 -0.075150
C 0.732047 -1.216532 0.222920
C 1.604503 -0.147066 0.170604
C 0.759547 1.036977 -0.040957
C -0.738849 0.976475 -0.116786
C -1.588773 0.092628 0.585374
H -1.142161 -1.251037 -1.105061
H 0.979541 -2.152067 0.244834
H 2.683338 0.005334 0.167214
H 1.149939 2.077501 -0.278046
H -1.055646 1.729335 -0.701981
H -2.606212 -0.144749 0.927035
12
Aligned to gpa_Type_1.xyz, RMSD 0.27023
C -0.830086 -0.873607 -0.114854
C 0.654247 -1.068606 0.082404
C 1.631148 0.002193 0.267020
C 0.711637 1.060407 0.214230
C -0.676140 1.036653 -0.202838
C -1.648175 0.111184 0.502437
H -1.213349 -1.849089 -0.624838
H 1.133044 -2.092958 -0.364000
H 2.736344 -0.200900 0.243014
H 1.123306 2.166159 0.099086
H -1.071557 1.366259 -1.118099
H -2.550421 0.342306 1.016437
12
Aligned to gpa_Type_2.xyz, RMSD 0.23654
C -0.937982 -1.226599 -0.333367
C 0.634701 -1.163054 -0.136767
C 1.265310 0.043403 0.198678
C 0.687622 1.202876 -0.001556
C -0.734682 1.355673 -0.189842
C -1.233999 -0.017670 0.380451
H -1.517489 -1.886325 -1.031843
H 1.007669 -2.224910 0.110395
H 2.226259 -0.112397 0.737581
H 1.338693 2.326974 0.082201
H -1.221751 1.560418 -1.216194
H -1.514351 0.141611 1.400264
12
Aligned to gpa_Type_3.xyz, RMSD 0.17853
C -0.812893 -1.088984 -0.010923
C 0.550389 -1.104941 -0.219892
C 1.355872 0.100769 -0.032973
C 0.717250 1.242618 0.203033
C -0.776841 1.477781 -0.086632
C -1.472879 0.157988 0.207652
H -1.378714 -2.036679 -0.006048
H 0.934707 -2.053436 -0.538575
H 2.348145 0.011316 0.379559
H 1.350665 2.208259 0.436138
H -0.483727 1.085031 -1.177901
H -2.331975 0.000278 0.846562
12
Aligned to gpa_Type_2.xyz, RMSD 0.23453
C -0.874123 -0.983713 -0.394494
C 0.611443 -1.246126 0.052221
C 1.255697 -0.006718 0.461421
C 0.691128 1.249616 0.057789
C -0.755604 1.136978 -0.405160
C -1.458241 0.070313 0.355727
H -1.398911 -1.800422 -0.899969
H 1.036454 -2.243865 -0.079609
H 2.312346 -0.041916 0.712841
H 1.263238 2.079244 -0.145500
H -1.185640 1.823301 -1.162540
H -1.497786 -0.036693 1.447275
12
Aligned to gpa_Type_2.xyz, RMSD 0.26689
C -0.911929 -1.153082 -0.532750
C 0.473363 -1.105041 0.066367
C 1.397360 0.113688 0.153327
C 0.888708 1.296461 0.102714
C -0.597824 1.338361 -0.069314
C -1.366573 0.019855 0.314559
H -1.449203 -2.104559 -0.577206
H 1.027861 -1.926389 0.295284
H 2.356213 -0.178040 -0.030122
H 1.327585 2.236749 0.315482
H -0.974337 1.538539 -1.033545
H -2.171224 -0.076543 0.995205
12
Aligned to gpa_Type_1.xyz, RMSD 0.30606
C -0.790626 -0.882489 -0.274970
C 0.663644 -1.085630 -0.068099
C 1.463722 -0.033821 0.297091
C 0.847828 1.120306 -0.023877
C -0.670040 1.167421 -0.318724
C -1.421568 0.113078 0.485342
H -1.491397 -1.573420 -0.627351
H 1.124178 -2.035202 -0.295763
H 2.520698 -0.126529 0.654930
H 1.294842 2.088648 0.137136
H -1.318645 1.171620 -1.191837
H -2.222638 0.076018 1.226122
12
Aligned to gpa_Type_1.xyz, RMSD 0.27206
C -0.811935 -0.889838 -0.235702
C 0.665855 -1.098487 -0.091546
C 1.441589 -0.033124 0.287542
C 0.876557 1.148394 -0.114322
C -0.635501 1.138712 -0.322065
C -1.435712 0.102813 0.563897
H -1.494460 -1.691489 -0.611001
H 1.130341 -2.133366 -0.224525
H 2.555498 -0.066229 0.511347
H 1.146904 2.096654 0.289596
H -1.154861 1.327953 -1.218118
H -2.284275 0.098006 1.164897
12
Aligned to gpa_Type_2.xyz, RMSD 0.32546
C -0.826860 -1.031908 -0.225971
C 0.542391 -1.186170 -0.067973
C 1.231547 -0.060653 0.254835
C 0.546798 1.129962 0.122045
C -0.751977 1.166932 -0.329042
C -1.503968 0.084873 0.486572
H -1.279320 -1.342498 -1.090846
H 1.082083 -2.123441 0.040621
H 2.296910 -0.028550 0.581798
H 1.216179 2.007471 0.066673
H -1.060200 1.341233 -1.406374
H -1.493581 0.042749 1.567663
12
Aligned to gpa_Type_2.xyz, RMSD 0.24234
C -0.860074 -1.091320 -0.421402
C 0.472902 -1.064690 0.084603
C 1.297903 0.043235 0.230287
C 0.771824 1.329310 0.304355
C -0.688514 1.186973 0.035544
C -1.419370 -0.038317 0.383568
H -1.407854 -1.959228 -0.771949
H 0.941026 -2.047455 0.220988
H 2.378777 0.081724 -0.014253
H 1.467915 2.182501 -0.064488
H -0.762071 1.493321 -1.032335
H -2.192463 -0.116055 1.045085
12
Aligned to gpa_Type_3.xyz, RMSD 0.15090
C -0.824831 -1.001415 -0.109287
C 0.606478 -1.063210 -0.242008
C 1.328190 0.013530 -0.120073
C 0.736463 1.312130 0.106886
C -0.717925 1.380828 0.067874
C -1.542347 0.063802 0.163697
H -1.302072 -1.955627 0.160655
H 0.978004 -2.037682 -0.375785
H 2.320787 0.153347 0.225188
H 1.403388 1.958424 0.512051
H -0.456714 1.153145 -1.076790
H -2.529422 0.022727 0.687592
12
Aligned to gpa_Type_3.xyz, RMSD 0.17580
C -0.884426 -1.147117 -0.001173
C 0.534202 -1.092884 -0.168075
C 1.394524 0.127668 0.149083
C 0.736652 1.291441 0.372778
C -0.761411 1.388545 -0.005603
C -1.392211 0.180853 0.315649
H -1.409153 -2.030286 -0.243122
H 1.138154 -2.034842 -0.365462
H 2.434333 -0.199884 -0.043559
H 1.105758 2.307557 0.298012
H -0.488441 0.975174 -0.987276
H -2.407982 0.233776 0.678749
12
Aligned to gpa_Type_3.xyz, RMSD 0.20482
C -0.904870 -1.193803 -0.002585
C 0.549479 -1.105370 -0.163883
C 1.397128 0.054954 0.162583
C 0.750311 1.262031 0.362773
C -0.734420 1.367692 -0.058523
C -1.385257 0.120993 0.300607
H -1.542535 -2.009507 -0.350586
H 1.118340 -1.952745 -0.333313
H 2.436886 -0.042682 0.005747
H 1.214550 2.363307 0.324204
H -0.590802 0.871377 -0.999415
H -2.308812 0.263754 0.752393
12
Aligned to gpa_Type_3.xyz, RMSD 0.18503
C -0.932330 -1.160287 -0.158758
C 0.478455 -1.037367 -0.387100
C 1.323685 0.123474 -0.062118
C 0.838633 1.298307 0.198527
C -0.793377 1.513084 -0.033497
C -1.509113 0.124149 0.192760
H -1.267340 -1.990760 0.347244
H 1.134858 -1.943796 -0.384210
H 2.366646 -0.217236 0.172933
H 1.389042 2.167942 0.638809
H -0.508051 1.181777 -1.175581
H -2.521108 -0.059286 0.650993
12
Aligned to gpa_Type_3.xyz, RMSD 0.16244
C -0.892809 -1.021290 -0.021387
C 0.533730 -0.990002 -0.400167
C 1.428676 0.070555 -0.140927
C 0.777494 1.242964 0.305837
C -0.777654 1.516292 0.003908
C -1.574924 0.083478 0.254446
H -1.084387 -1.989955 0.084051
H 0.915064 -1.904686 -0.283498
H 2.427335 -0.193453 0.205804
H 1.361779 2.118893 0.471939
H -0.618927 1.036868 -1.067770
H -2.495379 0.030336 0.587764
12
Aligned to gpa_Type_1.xyz, RMSD 0.24467
C -0.723575 -0.958427 0.053122
C 0.782257 -1.219458 -0.052252
C 1.478696 -0.131743 -0.025605
C 0.772626 1.092809 -0.164765
C -0.637929 1.044721 -0.318014
C -1.369360 0.188143 0.741316
H -1.326218 -1.646585 -0.544102
H 1.222429 -2.198444 0.010776
H 2.481909 -0.065607 0.235184
H 0.879687 1.948197 0.416385
H -1.169379 1.721146 -0.887973
H -2.391145 0.225249 0.535927
12
Aligned to gpa_Type_1.xyz, RMSD 0.21044
C -0.723557 -0.959490 0.080253
C 0.804927 -1.139201 0.011792
C 1.506057 -0.068257 0.067954
C 0.756443 1.081360 -0.053977
C -0.744565 1.022816 -0.279035
C -1.507495 0.176886 0.713708
H -1.168315 -1.633208 -0.647716
H 1.081445 -2.169537 0.086970
H 2.636538 -0.127941 0.017440
H 1.298837 2.022569 0.357117
H -1.321805 1.725131 -0.948425
H -2.618512 0.068872 0.593918
12
Aligned to gpa_Type_1.xyz, RMSD 0.23012
C -0.690680 -0.803301 -0.303432
C 0.597427 -1.182816 0.140970
C 1.422361 -0.020362 0.351423
C 0.755852 1.096520 -0.083880
C -0.722984 1.081213 -0.104888
C -1.383037 0.059033 0.646204
H -1.207565 -1.621708 -0.940267
H 1.211843 -2.096158 -0.174807
H 2.394098 -0.033426 0.573254
H 1.459275 1.879299 -0.335456
H -1.411115 1.467791 -0.744958
H -2.425477 0.173914 0.975835
12
Aligned to gpa_Type_2.xyz, RMSD 0.31099
C -0.865297 -1.113619 -0.156970
C 0.644343 -1.083928 0.175304
C 1.440242 0.036318 0.334338
C 0.771204 1.271072 0.199619
C -0.749799 1.161471 -0.027295
C -1.461886 0.059039 0.505157
H -1.434643 -1.682219 -0.890941
H 0.995020 -1.836680 -0.382431
H 2.457130 -0.222641 0.483450
H 1.059888 2.153288 -0.285969
H -0.677471 1.258333 -1.184346
H -2.178730 -0.000435 1.230085
12
Aligned to gpa_Type_1.xyz, RMSD 0.20374
C -0.719995 -0.903722 0.058802
C 0.807316 -1.292654 0.172199
C 1.533203 -0.146347 -0.025056
C 0.712766 1.035663 -0.050845
C -0.769581 0.967757 -0.164745
C -1.552600 0.101594 0.614219
H -1.016113 -1.235446 -0.789487
H 1.110199 -2.378794 0.021290
H 2.704019 -0.039621 0.272615
H 1.178852 2.098168 -0.023855
H -1.336822 1.662395 -0.801039
H -2.651246 0.131008 0.715900
12
Aligned to gpa_Type_1.xyz, RMSD 0.13972
C -0.674036 -0.906383 0.047033
C 0.796760 -1.182459 0.123217
C 1.565811 0.019478 0.011404
C 0.725853 1.144372 -0.015212
C -0.691034 1.004339 -0.192266
C -1.530224 0.141292 0.720147
H -1.127530 -1.678787 -0.861900
H 0.975411 -2.191702 0.017743
H 2.522331 -0.173604 0.226100
H 1.168343 2.042940 0.017305
H -1.156455 1.723393 -0.828096
H -2.575230 0.057120 0.734525
12
Aligned to gpa_Type_2.xyz, RMSD 0.28568
C -0.831928 -1.128168 -0.148338
C 0.531327 -1.069719 -0.053579
C 1.326218 -0.115372 0.178927
C 0.662481 1.336362 0.236723
C -0.671919 1.159415 -0.366784
C -1.497616 -0.030442 0.522320
H -1.338568 -1.717236 -0.840403
H 1.015135 -1.996136 -0.269551
H 2.394223 -0.123880 0.461175
H 1.208621 2.185212 0.261103
H -0.930111 1.241877 -1.395268
H -1.867862 0.258087 1.413676
12
Aligned to gpa_Type_3.xyz, RMSD 0.12358
C -0.919901 -1.030668 0.041316
C 0.526704 -1.103617 -0.184239
C 1.455435 0.000672 0.069196
C 0.775075 1.241075 0.360817
C -0.789714 1.429365 -0.065842
C -1.487612 0.221308 0.312116
H -1.311019 -2.032856 -0.084109
H 1.071654 -1.972083 -0.421563
H 2.498440 0.027602 -0.041140
H 1.211106 2.137542 0.522268
H -0.508487 0.903022 -1.186070
H -2.521682 0.178638 0.677252
12
Aligned to gpa_Type_1.xyz, RMSD 0.32044
C -0.868883 -1.004065 -0.362062
C 0.740983 -1.270416 -0.293481
C 1.517099 -0.053718 0.155926
C 0.811758 1.122839 -0.094190
C -0.607660 1.027615 -0.413447
C -1.219360 0.068904 0.620067
H -1.465462 -1.841825 -0.487561
H 1.061179 -2.245142 -0.190342
H 2.354242 0.158168 0.826283
H 1.189740 2.130794 0.175827
H -1.355730 1.560815 -0.953137
H -2.157909 0.346031 1.016117
12
Aligned to gpa_Type_2.xyz, RMSD 0.36856
C -0.872258 -1.031626 -0.209085
C 0.561054 -1.097882 0.168834
C 1.399164 0.043820 0.391713
C 0.705334 1.198858 0.137397
C -0.652861 1.199979 0.008615
C -1.475638 0.080654 0.600750
H -1.280444 -1.684723 -0.967096
H 1.078891 -1.925675 -0.515557
H 2.449291 -0.133923 0.583189
H 1.143768 2.106325 -0.432488
H -0.705775 1.133844 -1.088904
H -2.350525 0.110348 1.322634
12
Aligned to gpa_Type_2.xyz, RMSD 0.30885
C -0.905348 -1.181933 -0.516080
C 0.501225 -1.136274 0.081822
C 1.285266 0.124444 0.288776
C 0.743994 1.256003 -0.068863
C -0.645137 1.145265 -0.322316
C -1.276173 -0.014137 0.283674
H -1.458931 -2.080678 -1.152482
H 0.946093 -2.071092 0.268562
H 2.217600 -0.100878 0.805064
H 1.426885 2.108062 -0.309947
H -1.318474 2.016514 -0.799257
H -1.516998 -0.065296 1.441048
12
Aligned to gpa_Type_2.xyz, RMSD 0.27679
C -0.804392 -1.049383 -0.247338
C 0.599885 -1.266498 -0.015298
C 1.305315 0.028123 0.148592
C 0.674623 1.225191 -0.004971
C -0.732940 1.457605 0.074189
C -1.285071 0.150969 0.626277
H -1.425780 -1.800003 -0.869594
H 1.000669 -2.223472 -0.188295
H 2.386624 0.158340 0.514575
H 1.189854 2.062424 -0.031168
H -0.767145 1.191913 -1.125271
H -2.141641 0.064790 1.118304
12
Aligned to gpa_Type_2.xyz, RMSD 0.31558
C -0.885377 -1.174707 -0.157067
C 0.535468 -1.097807 -0.286895
C 1.277796 0.047176 0.325158
C 0.740949 1.398296 0.116869
C -0.765504 1.329251 0.095115
C -1.464848 0.119851 0.377286
H -1.414846 -2.054583 -0.601845
H 1.093808 -2.098055 -0.478585
H 2.326425 0.039178 0.607489
H 1.481603 2.201796 -0.097449
H -0.699692 1.117720 -1.053536
H -2.225783 0.171883 1.153463
12
Aligned to gpa_Type_2.xyz, RMSD 0.21737
C -0.837974 -1.017573 -0.373062
C 0.464983 -1.039721 0.059187
C 1.311591 -0.005088 0.357537
C 0.677930 1.169763 -0.014037
C -0.684952 1.077303 -0.315181
C -1.292959 -0.037801 0.580641
H -1.299450 -1.894842 -0.932352
H 1.036087 -1.994744 -0.219945
H 2.330907 -0.118374 0.707459
H 1.335610 2.064650 -0.116897
H -1.135088 1.657240 -1.159284
H -1.906684 0.139186 1.425935
12
Aligned to gpa_Type_2.xyz, RMSD 0.23147
C -0.782734 -0.975150 -0.264473
C 0.605958 -1.174984 -0.077537
C 1.346033 -0.076732 0.266090
C 0.636339 1.140630 0.021227
C -0.741106 1.097584 -0.451770
C -1.300450 0.030436 0.448887
H -1.352765 -1.696881 -0.804453
H 1.030915 -2.139138 -0.075516
H 2.328107 -0.154544 0.682512
H 1.041850 2.111495 0.013807
H -1.043290 1.790392 -1.207562
H -1.768858 0.046890 1.448789
12
Aligned to gpa_Type_2.xyz, RMSD 0.20489
C -0.844095 -0.910763 -0.418848
C 0.541420 -1.051601 -0.029676
C 1.326930 0.098482 0.282524
C 0.730877 1.294207 0.152902
C -0.793516 1.413633 0.026542
C -1.311798 0.162336 0.397979
H -1.251398 -2.052085 -0.509118
H 0.829423 -2.071647 -0.056934
H 2.414256 -0.125161 0.303697
H 1.491483 2.079807 0.037520
H -1.018704 1.413524 -1.234106
H -2.114876 -0.250734 1.047518
12
Aligned to gpa_Type_2.xyz, RMSD 0.15129
C -0.799270 -0.963127 -0.564397
C 0.536161 -1.141266 -0.125768
C 1.246105 -0.012392 0.285908
C 0.683584 1.350387 0.124889
C -0.727639 1.324580 -0.026924
C -1.349883 0.089423 0.319757
H -1.272816 -1.812915 -0.676501
H 0.837915 -2.150777 0.274720
H 2.292310 -0.076013 0.334432
H 1.303788 2.159322 -0.155106
H -0.888092 1.476574 -0.974190
H -1.862162 -0.243795 1.183182
12
Aligned to gpa_Type_2.xyz, RMSD 0.39338
C -0.703510 -1.167957 -0.203445
C 0.660026 -1.117289 -0.062396
C 1.460246 -0.002062 -0.096096
C 0.721741 1.445992 -0.123435
C -0.735635 1.188509 -0.445164
C -1.341138 0.096432 0.318627
H -1.455629 -1.841867 -0.628638
H 0.817635 -2.120303 0.354307
H 2.481916 -0.048826 0.098897
H 1.089416 1.854882 0.847688
H -1.115461 1.661739 -1.144796
H -1.879607 0.050748 1.084451
12
Aligned to gpa_Type_2.xyz, RMSD 0.23857
C -0.804232 -0.936984 -0.399414
C 0.494611 -1.096967 -0.003012
C 1.292560 0.043055 -0.021103
C 0.758178 1.328029 0.171288
C -0.702407 1.236639 -0.126881
C -1.441302 0.002244 0.366712
H -1.175703 -1.764785 -0.869224
H 0.725221 -2.234987 0.473357
H 2.505765 -0.184424 0.310308
H 1.261518 2.257798 -0.039486
H -1.012986 1.671615 -1.131374
H -1.901221 -0.321235 1.268830
12
Aligned to gpa_Type_1.xyz, RMSD 0.20317
C -0.763251 -0.964456 -0.232404
C 0.785530 -1.205868 0.138486
C 1.537569 -0.074848 0.099888
C 0.757630 1.064350 0.033411
C -0.654311 1.130829 -0.211202
C -1.403404 0.155388 0.711184
H -1.497441 -1.570827 -0.555645
H 1.287156 -2.181425 0.119234
H 2.709589 -0.130237 0.055218
H 1.150874 2.061502 0.177630
H -1.251815 1.710668 -0.842142
H -2.658127 0.004923 0.506342
12
Aligned to gpa_Type_3.xyz, RMSD 0.15538
C -0.824772 -1.071573 -0.040329
C 0.537132 -1.110164 -0.276046
C 1.332428 0.098167 0.112179
C 0.718871 1.286441 0.467080
C -0.803269 1.389317 0.031554
C -1.413197 0.084458 0.196160
H -1.343116 -1.955641 0.116387
H 1.177381 -1.950518 -0.424238
H 2.332826 -0.073111 -0.115227
H 1.301133 2.134304 0.520307
H -0.380207 0.945889 -1.280589
H -2.635211 0.222431 0.692764
12
Aligned to gpa_Type_3.xyz, RMSD 0.16474
C -0.804436 -1.025865 0.128603
C 0.644583 -1.064124 -0.305923
C 1.400192 0.093703 -0.063881
C 0.708669 1.216157 0.245533
C -0.687414 1.444887 0.020307
C -1.440887 0.116961 0.414791
H -1.310491 -1.866211 -0.069289
H 0.875207 -2.063935 -0.502704
H 2.418022 0.017299 0.233495
H 1.330676 2.246180 0.515758
H -0.564769 0.820038 -1.220572
H -2.569354 0.064911 0.603883
12
Aligned to gpa_Type_1.xyz, RMSD 0.27810
C -0.781942 -1.114164 -0.418035
C 0.493688 -1.173884 0.149171
C 1.361412 0.089953 0.199505
C 0.859189 1.234453 -0.038776
C -0.505864 1.070231 -0.165591
C -1.173966 -0.044505 0.556622
H -1.482167 -1.804522 -1.026722
H 1.145834 -1.936843 0.176891
H 2.327497 -0.203079 0.392524
H 1.385762 2.180494 0.001021
H -1.446152 1.528325 -0.853466
H -2.183293 0.173542 1.026855
12
Aligned to gpa_Type_1.xyz, RMSD 0.26482
C -0.818468 -1.103483 -0.403210
C 0.473269 -1.150663 0.194563
C 1.330127 0.061572 0.203169
C 0.777965 1.257496 -0.096665
C -0.630325 1.074600 -0.169718
C -1.266113 0.014254 0.552314
H -1.442061 -1.681648 -1.078145
H 1.210840 -2.078921 0.200743
H 2.363366 -0.201770 0.362867
H 1.322059 2.226633 -0.031362
H -1.242605 1.449968 -0.766656
H -2.078055 0.131963 1.032098
12
Aligned to gpa_Type_1.xyz, RMSD 0.23573
C -0.799050 -1.108988 0.034523
C 0.820252 -1.276173 0.196233
C 1.570750 -0.120544 0.184427
C 0.691603 1.094437 -0.046935
C -0.758756 1.058667 -0.121836
C -1.540451 0.115535 0.668382
H -1.319458 -1.609671 -0.903869
H 1.073700 -2.187353 -0.188350
H 2.580451 0.102746 0.166515
H 1.054484 2.120637 0.222830
H -0.943118 1.496670 -1.152875
H -2.430408 0.314036 0.940953
12
Aligned to gpa_Type_2.xyz, RMSD 0.21114
C -0.848328 -1.065439 -0.454977
C 0.531519 -1.089878 -0.109710
C 1.424044 -0.001960 0.335564
C 0.759205 1.238984 0.045529
C -0.623853 1.060184 -0.236068
C -1.383888 0.014768 0.457857
H -1.474256 -1.815374 -0.909919
H 0.946113 -1.969998 -0.085177
H 2.451990 -0.145421 0.867045
H 1.230015 2.203830 -0.273876
H -1.161198 1.552460 -1.050416
H -1.851359 0.017845 1.414150
12
Aligned to gpa_Type_2.xyz, RMSD 0.23248
C -0.912378 -1.164563 -0.497431
C 0.390464 -1.193004 -0.042497
C 1.295000 -0.044589 0.366089
C 0.726685 1.276436 0.089810
C -0.587811 1.365149 -0.199382
C -1.170769 0.044719 0.144365
H -1.661273 -1.918126 -0.621897
H 0.950917 -2.118236 0.362244
H 2.372419 0.093120 0.318786
H 1.208808 2.192242 0.062459
H -1.030926 1.845612 -1.054433
H -1.581136 -0.378761 1.071888
12
Aligned to gpa_Type_2.xyz, RMSD 0.27374
C -0.832060 -0.930762 -0.273321
C 0.571084 -1.151771 0.029353
C 1.445308 0.022147 0.220013
C 0.764962 1.292196 0.150032
C -0.712902 1.142626 0.001675
C -1.450142 0.071458 0.496779
H -1.270158 -1.592841 -0.936256
H 1.017631 -2.045699 -0.110158
H 2.446398 -0.157105 0.524125
H 1.349017 2.155534 -0.223629
H -1.110679 1.141320 -1.078925
H -2.218457 0.052897 1.200314
12
Aligned to gpa_Type_1.xyz, RMSD 0.21410
C -0.714803 -1.022154 -0.161249
C 0.854993 -1.318939 -0.193464
C 1.461882 -0.047636 0.238036
C 0.668400 1.083015 0.067231
C -0.596456 1.054749 -0.212195
C -1.313928 0.107640 0.852053
H -1.426324 -1.663721 -0.660626
H 1.082067 -2.315979 -0.200607
H 2.411920 0.111235 0.510155
H 1.115979 2.177606 -0.010862
H -1.195923 1.446606 -0.944401
H -2.347809 0.387579 0.715929
12
Aligned to gpa_Type_3.xyz, RMSD 0.26765
C -0.787777 -1.061301 -0.363221
C 0.545584 -1.097215 -0.178887
C 1.360301 0.028371 0.044261
C 0.821714 1.262453 0.122224
C -0.640262 1.341111 0.189276
C -1.476859 0.118519 0.265374
H -1.451131 -1.842316 -0.238883
H 0.989091 -2.099128 -0.024274
H 2.372168 0.150743 0.168936
H 1.321904 2.070884 0.109676
H -0.632989 1.244988 -0.826253
H -2.421745 -0.117109 0.731772
12
Aligned to gpa_Type_3.xyz, RMSD 0.16730
C -0.889447 -1.031382 -0.028215
C 0.576644 -1.077644 -0.120706
C 1.206668 0.118290 -0.049201
C 0.657898 1.365502 0.268902
C -0.816498 1.442797 0.040065
C -1.563332 0.090974 0.262065
H -1.261749 -2.054598 -0.165961
H 1.105299 -2.015496 -0.184429
H 2.366930 -0.043228 -0.037466
H 1.594742 2.043121 0.360470
H -0.445984 1.150477 -0.950062
H -2.531173 0.011187 0.604538
12
Aligned to gpa_Type_2.xyz, RMSD 0.21408
C -0.786631 -0.889677 -0.408481
C 0.571383 -1.033127 -0.032986
C 1.413943 0.106798 0.145115
C 0.765651 1.239063 -0.166636
C -0.708209 1.213814 -0.167695
C -1.403605 0.039330 0.380456
H -1.392008 -1.677016 -0.804427
H 0.805755 -2.179950 0.068825
H 2.310299 -0.136648 0.815026
H 1.239091 2.128137 -0.092361
H -1.082257 1.519824 -1.120491
H -1.733410 -0.330549 1.383656
12
Aligned to gpa_Type_2.xyz, RMSD 0.25891
C -0.801481 -0.998670 -0.416607
C 0.583525 -1.064347 -0.179406
C 1.365340 0.118203 0.223939
C 0.866914 1.262231 -0.123294
C -0.566174 1.047172 -0.336801
C -1.399718 -0.052680 0.406479
H -1.317110 -1.739456 -0.743092
H 0.795255 -2.087051 -0.079157
H 2.200201 -0.232188 0.980840
H 1.278554 2.270066 -0.163244
H -1.248811 1.578670 -0.970475
H -1.756496 -0.101950 1.400819
12
Aligned to gpa_Type_3.xyz, RMSD 0.31422
C -0.868319 -1.118960 -0.173982
C 0.468213 -1.056566 0.098288
C 1.268771 0.051630 0.232982
C 0.729670 1.306045 0.312477
C -0.776127 1.370287 0.036647
C -1.453040 0.075153 0.294535
H -1.447061 -2.241347 -0.509476
H 0.939535 -2.000076 -0.074972
H 2.572830 0.001770 -0.148204
H 1.213868 2.169028 0.135396
H -0.350755 1.358829 -1.116090
H -2.297586 0.084208 0.912399
12
Aligned to gpa_Type_2.xyz, RMSD 0.31475
C -0.795370 -1.144087 -0.194197
C 0.521960 -1.111822 0.063319
C 1.272759 0.015948 0.203550
C 0.727281 1.297772 0.255668
C -0.785287 1.368205 0.038581
C -1.468502 -0.059609 0.292706
H -1.451935 -1.987512 -0.580212
H 1.026557 -2.011746 -0.131756
H 2.237423 -0.001477 -0.037691
H 1.316275 2.307567 0.170269
H -0.417989 1.297538 -1.164638
H -2.183172 0.029223 1.084402
12
Aligned to gpa_Type_1.xyz, RMSD 0.21487
C -0.788782 -0.968661 -0.082593
C 0.706199 -1.139627 0.113744
C 1.536927 -0.034712 0.068009
C 0.803373 1.114752 0.108192
C -0.753056 1.018466 -0.075432
C -1.588678 0.021679 0.525506
H -1.225762 -1.744212 -0.933533
H 1.090778 -2.113862 0.172062
H 2.627462 -0.079281 -0.003899
H 1.088036 2.043339 0.192751
H -1.010442 1.657764 -1.058839
H -2.486056 0.224355 0.974030
12
Aligned to gpa_Type_2.xyz, RMSD 0.26462
C -0.757114 -1.014515 -0.393920
C 0.625433 -1.152537 0.053114
C 1.397724 -0.006652 0.054104
C 0.748054 1.121826 0.037855
C -0.710091 1.066978 -0.402334
C -1.531482 -0.000110 0.280125
H -1.223551 -1.778256 -0.784817
H 0.962518 -2.266781 0.321797
H 2.419320 -0.122585 0.291495
H 1.240097 2.259303 0.063086
H -1.071317 1.878847 -0.835200
H -2.099590 0.014483 1.314696
12
Aligned to gpa_Type_2.xyz, RMSD 0.24819
C -0.897609 -1.034492 -0.209489
C 0.606679 -1.197933 0.020854
C 1.305441 -0.054711 0.102126
C 0.674698 1.146969 -0.085137
C -0.713182 1.134940 -0.356881
C -1.470175 0.174671 0.389729
H -1.249616 -1.922833 -0.946131
H 1.030440 -2.100933 0.146730
H 2.315435 -0.019030 0.490479
H 1.268449 1.968829 0.264596
H -1.169825 1.871606 -1.202481
H -1.700734 0.032914 1.385606
12
Aligned to gpa_Type_1.xyz, RMSD 0.18721
C -0.729073 -0.950996 -0.282950
C 0.742281 -1.189227 0.106857
C 1.422286 0.055933 0.320329
C 0.743752 1.220089 0.189656
C -0.648321 0.965314 -0.097120
C -1.414437 0.003241 0.620006
H -1.493113 -1.658738 -0.817848
H 1.115215 -2.244902 -0.156185
H 2.605038 -0.015157 0.312732
H 1.198574 2.111702 -0.118624
H -1.047255 1.517010 -1.107005
H -2.494948 0.185733 1.030152
12
Aligned to gpa_Type_2.xyz, RMSD 0.20704
C -0.795386 -0.988327 -0.475842
C 0.611780 -1.151400 -0.046894
C 1.365722 -0.007233 0.400190
C 0.701908 1.112603 0.024550
C -0.732038 1.059909 -0.317342
C -1.458127 -0.027228 0.300235
H -1.391251 -1.746766 -0.742475
H 0.964425 -2.258931 0.002433
H 2.386807 -0.039074 0.631860
H 1.071695 2.125361 -0.094704
H -1.086665 1.796275 -1.006665
H -1.638870 0.124810 1.324654
12
Aligned to gpa_Type_2.xyz, RMSD 0.23173
C -0.814368 -0.949561 -0.447290
C 0.623207 -1.211431 -0.115750
C 1.497272 0.005553 0.259098
C 0.787897 1.153639 -0.043295
C -0.701769 1.032905 -0.285902
C -1.414079 0.014033 0.349232
H -1.510274 -1.867871 -0.819876
H 0.849222 -2.138132 0.274121
H 2.576132 -0.069913 0.539103
H 0.985228 2.220524 -0.016860
H -1.004950 1.910795 -1.062355
H -1.873515 -0.100540 1.369774
12
Aligned to gpa_Type_2.xyz, RMSD 0.24942
C -0.899160 -1.009044 -0.233520
C 0.530561 -1.052625 -0.061116
C 1.333583 -0.030092 0.301936
C 0.825921 1.391611 0.056996
C -0.646588 1.237402 -0.082458
C -1.553818 0.160742 0.416950
H -1.251343 -1.830275 -0.783908
H 0.971421 -2.160871 -0.252345
H 2.503028 -0.241125 0.592990
H 1.317342 2.411704 -0.141078
H -0.949304 1.235317 -1.171640
H -2.181643 -0.112745 1.357194
12
Aligned to gpa_Type_2.xyz, RMSD 0.17414
C -0.790234 -1.017184 -0.464490
C 0.543537 -1.186432 0.057741
C 1.356909 0.087154 0.233194
C 0.715471 1.211845 0.182628
C -0.849617 1.396287 0.026794
C -1.311658 0.090600 0.261079
H -1.352100 -1.995019 -0.566754
H 0.899280 -2.191453 0.031079
H 2.366647 0.055426 0.275097
H 1.229022 1.993407 -0.056759
H -0.823337 1.631008 -1.023490
H -1.983920 -0.075642 1.043883
12
Aligned to gpa_Type_1.xyz, RMSD 0.25073
C -0.813666 -1.096971 -0.018717
C 0.678447 -1.155849 0.312857
C 1.448680 -0.018351 0.223668
C 0.799538 1.219673 -0.011323
C -0.690547 0.987923 -0.078221
C -1.546935 0.060747 0.675964
H -1.059443 -1.451879 -1.139802
H 1.304352 -2.186636 0.092745
H 2.540251 -0.255475 -0.049338
H 1.282349 2.119754 0.008960
H -1.330049 1.411212 -0.809280
H -2.612978 0.365852 0.792485
12
Aligned to gpa_Type_3.xyz, RMSD 0.20273
C -0.878806 -1.161114 -0.036619
C 0.622516 -1.117292 -0.147671
C 1.342305 0.031694 0.074873
C 0.690788 1.284431 0.340721
C -0.716596 1.398747 -0.052920
C -1.484551 0.046192 0.253820
H -1.672334 -1.979879 -0.246070
H 1.122775 -2.035144 -0.330250
H 2.633678 0.191849 -0.027818
H 1.208458 2.167531 0.345023
H -0.380792 0.934344 -0.986098
H -2.487442 0.238642 0.813011
12
Aligned to gpa_Type_3.xyz, RMSD 0.22207
C -0.774975 -1.043041 -0.065026
C 0.638987 -1.036756 -0.309930
C 1.386808 0.046175 -0.089190
C 0.803033 1.353567 0.024319
C -0.703640 1.403414 0.068116
C -1.457537 0.036055 0.310069
H -1.629295 -1.987562 -0.109368
H 1.052934 -2.025806 -0.425002
H 2.526157 0.009821 0.514510
H 1.278761 2.150680 0.410141
H -0.737757 0.990263 -1.134582
H -2.383476 0.103190 0.805943
12
Aligned to gpa_Type_3.xyz, RMSD 0.23992
C -0.863747 -1.151129 -0.099712
C 0.502807 -1.023749 -0.484870
C 1.365498 0.013693 -0.123758
C 0.758942 1.273754 0.131100
C -0.786354 1.381930 -0.022451
C -1.429340 0.096318 0.180033
H -1.308919 -2.015322 0.320310
H 0.954442 -1.992754 -0.503012
H 2.338560 0.090163 0.497483
H 1.215626 1.995655 0.529323
H -0.423985 1.214410 -1.222186
H -2.323531 0.117032 0.797742
12
Aligned to gpa_Type_1.xyz, RMSD 0.20310
C -0.804872 -1.001591 0.045124
C 0.704636 -1.100879 0.071521
C 1.468084 -0.062440 0.044230
C 0.819612 1.085876 -0.038305
C -0.681096 1.128607 -0.005403
C -1.569482 0.177577 0.653255
H -1.193044 -1.326424 -0.912647
H 1.101643 -2.304130 0.078609
H 2.512008 -0.008838 0.182776
H 1.368559 2.187189 -0.012104
H -1.068307 1.340559 -0.916866
H -2.657741 -0.115504 0.809810
12
Aligned to gpa_Type_3.xyz, RMSD 0.25576
C -0.852041 -1.023187 0.103215
C 0.578388 -1.012281 -0.344101
C 1.333846 0.065620 0.033390
C 0.768980 1.238635 0.424933
C -0.421433 0.941800 -0.194040
C -1.414204 0.115942 0.431692
H -1.524787 -2.024569 0.045869
H 1.024939 -1.894746 -0.590100
H 2.549795 -0.044320 0.273515
H 1.047710 2.262171 0.416463
H -0.646952 1.129685 -1.261752
H -2.444242 0.245253 0.660918
12
Aligned to gpa_Type_2.xyz, RMSD 0.19058
C -0.823892 -1.110203 -0.549908
C 0.495643 -1.129346 -0.139365
C 1.180228 0.116453 0.341350
C 0.635942 1.356858 -0.062045
C -0.685233 1.245512 -0.085715
C -1.236194 -0.059876 0.383040
H -1.346482 -1.993544 -0.805692
H 0.813285 -1.960916 0.162799
H 2.231489 -0.228656 0.699695
H 1.284725 2.141117 -0.309831
H -0.895714 1.823736 -0.970854
H -1.653798 -0.201135 1.336529
12
Aligned to gpa_Type_2.xyz, RMSD 0.18904
C -0.876021 -1.060202 -0.517751
C 0.475470 -1.096743 0.003216
C 1.231496 0.127395 0.363815
C 0.731174 1.376216 0.022486
C -0.705170 1.219415 -0.113634
C -1.309653 0.006507 0.309769
H -1.397897 -1.930870 -0.885556
H 1.078411 -2.216013 0.152856
H 2.141561 -0.177393 0.640121
H 1.503294 2.184912 -0.342263
H -1.132702 1.772657 -0.954915
H -1.739964 -0.205884 1.321857
12
Aligned to gpa_Type_2.xyz, RMSD 0.15386
C -0.847742 -0.966150 -0.451795
C 0.587039 -1.066976 -0.127840
C 1.229185 0.107539 0.322217
C 0.677964 1.271891 0.149049
C -0.676999 1.261761 -0.173372
C -1.252010 0.032883 0.405292
H -1.300819 -1.906696 -0.713195
H 0.761611 -2.046368 -0.007705
H 2.267985 -0.091559 0.579040
H 1.321953 2.023531 -0.086750
H -0.986613 1.645153 -1.365749
H -1.781553 -0.265009 1.470808
12
Aligned to gpa_Type_2.xyz, RMSD 0.14351
C -0.856225 -0.957826 -0.450378
C 0.497697 -1.084223 -0.047713
C 1.162832 -0.001133 0.407498
C 0.702053 1.303198 0.189725
C -0.698793 1.260996 -0.166154
C -1.282794 0.081475 0.408262
H -1.310552 -1.845661 -0.822530
H 0.999126 -2.148462 0.196303
H 2.220516 -0.142715 0.341160
H 1.359378 2.199819 -0.240928
H -0.971922 1.560777 -1.009816
H -1.821316 -0.226246 1.194571
12
Aligned to gpa_Type_3.xyz, RMSD 0.17029
C -0.896621 -1.041809 -0.168291
C 0.522320 -1.038742 -0.260232
C 1.246603 0.093589 0.020508
C 0.749028 1.263933 0.333212
C -0.786399 1.419912 0.083220
C -1.499744 0.118542 0.183258
H -1.279791 -1.975766 -0.051690
H 1.031691 -2.024598 -0.022110
H 2.356937 -0.087072 -0.185351
H 1.349538 2.154193 0.429658
H -0.404060 1.163576 -0.989544
H -2.389504 -0.045757 0.627363
12
Aligned to gpa_Type_3.xyz, RMSD 0.16232
C -0.843548 -1.139857 -0.230443
C 0.518192 -1.096377 -0.138441
C 1.311593 0.100773 0.069871
C 0.731028 1.253373 0.322376
C -0.793492 1.347214 0.087875
C -1.358942 0.130619 0.188061
H -1.474700 -2.028247 -0.103155
H 1.065505 -2.033662 -0.105108
H 2.372175 0.055071 -0.091928
H 1.423428 2.166280 0.436236
H -0.646150 1.158645 -1.099150
H -2.305090 0.086169 0.663805
12
Aligned to gpa_Type_1.xyz, RMSD 0.25412
C -0.732347 -0.924141 -0.165143
C 0.674620 -1.213586 0.110590
C 1.402821 -0.062195 0.260758
C 0.688327 0.959405 -0.186660
C -0.727325 1.051420 -0.171966
C -1.379930 0.084699 0.657225
H -1.179321 -1.270094 -1.137050
H 1.125427 -2.185973 0.225327
H 2.494671 -0.101703 0.375766
H 1.098199 1.996326 -0.153055
H -1.141485 1.829957 -1.006355
H -2.323659 -0.164114 1.190563
12
Aligned to gpa_Type_2.xyz, RMSD 0.18925
C -0.850595 -1.057354 -0.514132
C 0.479358 -1.114404 -0.006395
C 1.305247 0.034688 0.353813
C 0.768343 1.250035 0.032127
C -0.671242 1.181927 -0.082149
C -1.344586 -0.053074 0.414681
H -1.598760 -1.847772 -0.704451
H 1.068008 -1.947310 -0.074857
H 2.327549 0.208375 0.584721
H 1.597204 1.948718 -0.095974
H -1.092779 1.565950 -1.173410
H -1.987745 -0.169780 1.266026
12
Aligned to gpa_Type_2.xyz, RMSD 0.16780
C -0.867557 -1.034874 -0.494854
C 0.454654 -1.098723 -0.004327
C 1.270969 0.022779 0.288112
C 0.735179 1.222032 -0.012316
C -0.668624 1.143194 -0.170911
C -1.359822 -0.030732 0.330494
H -1.582937 -1.842119 -0.692621
H 1.126825 -1.873527 -0.027301
H 2.330514 0.072108 0.558920
H 1.543034 2.002275 0.087271
H -1.122276 1.506250 -1.161991
H -1.859959 -0.088664 1.299525
12
Aligned to gpa_Type_2.xyz, RMSD 0.17178
C -0.817774 -1.085284 -0.397233
C 0.549535 -1.159358 0.037766
C 1.309417 0.005225 0.058120
C 0.731244 1.233895 -0.052126
C -0.803610 1.295382 -0.127076
C -1.287952 0.021559 0.541583
H -1.342263 -1.892174 -0.898842
H 0.910194 -2.137896 0.220593
H 2.353996 -0.071633 0.450032
H 1.312553 2.236911 -0.034299
H -0.885102 1.705891 -1.056685
H -2.030238 -0.152519 1.258167
12
Aligned to gpa_Type_2.xyz, RMSD 0.22425
C -0.808866 -1.145738 -0.341996
C 0.624742 -1.149817 0.042671
C 1.396955 0.002864 0.102061
C 0.791436 1.310591 0.012996
C -0.764091 1.353677 -0.055554
C -1.312607 0.123080 0.630423
H -1.352943 -1.741084 -1.034407
H 0.909267 -2.157745 0.224745
H 2.326091 -0.124043 0.460939
H 1.331985 2.222467 -0.144171
H -1.031553 1.549186 -1.148036
H -2.110414 -0.243438 1.250329
12
Aligned to gpa_Type_1.xyz, RMSD 0.19312
C -0.817065 -0.986755 -0.206735
C 0.678673 -1.205851 0.178286
C 1.485263 -0.057007 0.098694
C 0.841234 1.166097 -0.036450
C -0.639674 0.983209 -0.032805
C -1.534029 0.171014 0.718056
H -1.071751 -1.780391 -1.040601
H 1.086593 -2.115583 0.176479
H 2.575410 -0.156839 0.135924
H 1.098998 2.128389 -0.110275
H -1.176072 1.605585 -0.595361
H -2.527581 0.248133 0.714788
12
Aligned to gpa_Type_2.xyz, RMSD 0.21907
C -1.018170 -1.009582 -0.498683
C 0.528891 -1.054663 -0.230548
C 1.356687 0.119253 0.270513
C 0.725404 1.340805 0.243305
C -0.740453 1.213849 -0.132197
C -1.395375 -0.038372 0.379862
H -1.511015 -2.085176 -0.447482
H 0.962065 -2.035427 -0.099767
H 2.497412 0.004936 0.343939
H 1.306984 2.159456 0.211521
H -0.667153 1.422058 -1.342407
H -2.045276 -0.037137 1.301945
12
Aligned to gpa_Type_2.xyz, RMSD 0.25180
C -1.076469 -1.141172 -0.360781
C 0.611016 -1.040425 -0.142860
C 1.373742 0.098076 0.253821
C 0.788579 1.395878 0.303088
C -0.629451 1.391519 -0.227762
C -1.348408 0.024982 0.407749
H -1.729091 -2.019059 -0.879699
H 1.021132 -2.040461 -0.051278
H 2.365022 -0.029677 0.456956
H 1.315243 2.277881 0.174279
H -0.888529 1.075095 -1.299720
H -1.802785 0.007361 1.366208
12
Aligned to gpa_Type_2.xyz, RMSD 0.23019
C -0.937973 -1.123736 -0.462148
C 0.638881 -1.174625 0.033455
C 1.275537 -0.004971 0.157445
C 0.775136 1.307520 0.141688
C -0.813640 1.274644 -0.040156
C -1.607783 0.005043 0.368602
H -1.551726 -1.818354 -1.056631
H 1.248490 -2.034794 0.386152
H 2.417905 -0.166162 0.307577
H 1.363028 2.242037 -0.114317
H -0.893666 1.541766 -1.049511
H -1.914186 -0.048370 1.327845
12
Aligned to gpa_Type_2.xyz, RMSD 0.31643
C -0.939929 -1.179151 -0.686486
C 0.492562 -1.115119 -0.053703
C 1.300838 0.076388 0.398621
C 0.671823 1.370443 0.108962
C -0.710125 1.234606 -0.243748
C -1.425222 -0.090628 0.204286
H -1.321435 -2.130863 -0.971185
H 0.776871 -2.153439 0.445124
H 2.321360 -0.116189 0.574934
H 1.218042 2.086149 -0.373687
H -0.979550 2.186652 -0.892712
H -1.405233 -0.168851 1.489595
12
Aligned to gpa_Type_2.xyz, RMSD 0.12884
C -0.843359 -1.034106 -0.527705
C 0.492185 -1.202701 -0.029019
C 1.276886 0.025612 0.221419
C 0.676070 1.212316 0.145387
C -0.637696 1.293659 -0.170959
C -1.243587 0.047411 0.369993
H -1.503149 -1.984991 -0.743070
H 1.108618 -2.086710 0.181349
H 2.275015 -0.102126 0.361201
H 1.414715 2.308566 0.038305
H -1.081279 1.555725 -1.055383
H -1.934419 -0.032656 1.208481
12
Aligned to gpa_Type_2.xyz, RMSD 0.10552
C -0.880550 -1.067968 -0.524874
C 0.491272 -1.172062 -0.083452
C 1.304496 0.056900 0.203321
C 0.698372 1.241039 0.138536
C -0.649295 1.293045 -0.109861
C -1.285753 0.009488 0.364773
H -1.450325 -1.898015 -0.690076
H 1.068157 -2.070560 0.149840
H 2.270982 -0.046247 0.399122
H 1.433504 2.195427 0.047489
H -1.064233 1.502686 -1.098958
H -1.936627 -0.043734 1.204141
12
Aligned to gpa_Type_1.xyz, RMSD 0.18342
C -0.669774 -0.935319 -0.059262
C 0.764782 -1.178602 0.062130
C 1.446150 0.027248 0.113221
C 0.740092 1.156041 -0.034876
C -0.734441 1.067690 -0.135245
C -1.277472 -0.016224 0.678897
H -1.263357 -1.430642 -0.815644
H 0.934041 -2.216504 -0.104933
H 2.656006 -0.198892 0.387828
H 1.116409 2.199902 0.108146
H -1.214335 1.321844 -1.115626
H -2.498103 0.203457 0.915364
12
Aligned to gpa_Type_1.xyz, RMSD 0.13764
C -0.726795 -0.875388 -0.085132
C 0.637138 -1.175388 0.093814
C 1.470111 0.029991 0.196946
C 0.706693 1.111793 0.019890
C -0.671622 1.135393 -0.118739
C -1.395213 0.095619 0.758139
H -1.293383 -1.513110 -0.748202
H 1.119641 -2.141570 -0.145135
H 2.426054 -0.085475 0.292887
H 1.284677 2.004927 0.008958
H -1.177007 1.368316 -1.001143
H -2.380295 0.044893 0.727716
12
Aligned to gpa_Type_1.xyz, RMSD 0.16838
C -0.701673 -0.885659 -0.031411
C 0.698423 -1.255690 -0.005532
C 1.442245 -0.019341 0.121953
C 0.735516 1.102109 -0.089438
C -0.630840 1.140697 -0.178828
C -1.350226 0.133015 0.772321
H -1.380297 -1.415402 -0.685791
H 1.191043 -2.233487 0.056019
H 2.383960 -0.011824 0.216503
H 1.264263 1.971997 0.195581
H -1.270580 1.516207 -0.981697
H -2.381834 -0.042623 0.610318
12
Aligned to gpa_Type_2.xyz, RMSD 0.36495
C -0.861752 -1.075171 -0.695177
C 0.446632 -1.111495 -0.065799
C 1.314587 0.088855 0.342311
C 0.728978 1.206768 -0.103512
C -0.644706 1.208195 -0.259715
C -1.427206 -0.005605 0.220928
H -1.397688 -2.071339 -1.020785
H 0.739986 -2.001730 0.435976
H 2.317868 -0.008874 0.874711
H 1.545641 2.096495 -0.462848
H -1.346097 1.959655 -0.612035
H -1.416243 -0.285754 1.345946
12
Aligned to gpa_Type_3.xyz, RMSD 0.27758
C -0.786883 -1.088248 -0.046815
C 0.624271 -1.085193 -0.267732
C 1.393120 0.070889 0.017900
C 0.599114 1.231404 0.322485
C -0.687215 1.039431 -0.326230
C -1.274417 0.147640 0.548319
H -1.559121 -1.794341 -0.158729
H 1.196964 -2.121110 -0.330821
H 2.459274 -0.069482 0.143872
H 1.104120 2.202821 0.643129
H -0.756655 1.177677 -1.390655
H -2.312574 0.288513 0.845279
12
Aligned to gpa_Type_2.xyz, RMSD 0.31886
C -0.872235 -1.226777 -0.080397
C 0.546635 -1.087645 0.086204
C 1.217110 0.049799 0.133855
C 0.650873 1.269054 0.102660
C -0.815739 1.202411 -0.035373
C -1.485059 0.019588 0.464003
H -0.945788 -1.398206 -1.067394
H 0.900315 -2.209751 0.093847
H 2.210535 -0.108604 0.340539
H 1.349839 2.134915 -0.295243
H -0.726688 1.506161 -1.060627
H -2.029797 -0.150946 1.317928
12
Aligned to gpa_Type_1.xyz, RMSD 0.19656
C -0.674264 -1.002766 -0.068307
C 0.762206 -1.244644 0.087792
C 1.406394 -0.066831 0.178004
C 0.759903 1.062079 0.028294
C -0.746714 1.081216 -0.072715
C -1.524339 0.012539 0.829957
H -1.179153 -1.464044 -0.811393
H 1.160241 -2.169291 0.132900
H 2.453102 0.098384 0.036061
H 1.351126 1.886205 -0.135451
H -1.085488 1.770617 -0.760671
H -2.683016 0.036536 0.555527
12
Aligned to gpa_Type_1.xyz, RMSD 0.22887
C -0.860247 -0.979625 -0.062954
C 0.647272 -1.076685 0.016716
C 1.449399 0.070175 0.142698
C 0.795761 1.266387 0.007878
C -0.596577 1.021019 -0.069518
C -1.549201 0.055114 0.769616
H -1.229294 -1.807709 -0.651440
H 1.173745 -2.170345 -0.153062
H 2.440969 -0.269292 0.144406
H 1.356432 2.333577 0.199497
H -1.111099 1.301186 -0.997729
H -2.517163 0.256199 0.653891
12
Aligned to gpa_Type_1.xyz, RMSD 0.19308
C -0.779490 -1.092261 -0.274561
C 0.631867 -1.141577 0.123191
C 1.426019 -0.059122 0.107419
C 0.745187 1.051308 -0.088897
C -0.779779 1.064956 -0.125249
C -1.523718 -0.030811 0.636187
H -1.251245 -1.612174 -1.031670
H 1.173152 -2.246895 0.199063
H 2.469759 0.125624 0.282933
H 1.393802 2.058117 0.001157
H -1.132553 1.700642 -0.886734
H -2.373003 0.182194 1.057161
12
Aligned to gpa_Type_2.xyz, RMSD 0.21713
C -0.780181 -1.255621 -0.709297
C 0.455552 -1.208393 -0.111477
C 1.314436 -0.017650 0.229692
C 0.717410 1.310832 0.100716
C -0.665360 1.188466 -0.140617
C -1.218747 -0.034927 0.121509
H -1.546424 -2.122018 -0.582870
H 0.851679 -2.077167 0.277807
H 2.346939 0.050001 0.525176
H 1.319107 2.217551 -0.069635
H -1.069206 1.973070 -0.856036
H -1.725206 -0.024144 1.215035
12
Aligned to gpa_Type_2.xyz, RMSD 0.24931
C -0.833847 -1.269713 -0.367122
C 0.501982 -1.071839 -0.087189
C 1.225026 -0.038167 0.254865
C 0.653326 1.182552 0.061605
C -0.666581 1.267963 -0.214098
C -1.183527 -0.021520 0.344246
H -1.481091 -1.912746 -1.146216
H 0.982838 -1.911237 0.208090
H 2.233443 -0.150778 0.730828
H 1.165989 2.078965 -0.191121
H -1.091299 1.803092 -1.108120
H -1.506256 0.043427 1.514232
12
Aligned to gpa_Type_2.xyz, RMSD 0.22001
C -0.881742 -1.179206 -0.454431
C 0.460109 -1.064869 -0.199034
C 1.205872 -0.035736 0.180579
C 0.634172 1.239635 0.090346
C -0.683973 1.297756 -0.177140
C -1.256976 -0.043890 0.328678
H -1.438243 -1.930441 -0.901719
H 0.876583 -1.968033 0.240963
H 2.128158 -0.015928 0.724422
H 1.214970 2.061172 -0.121652
H -0.936120 1.702119 -1.048470
H -1.322808 -0.062579 1.337459
12
Aligned to gpa_Type_2.xyz, RMSD 0.27399
C -0.839499 -1.141673 -0.449868
C 0.542144 -1.259845 -0.034091
C 1.370885 -0.073971 0.166339
C 0.862455 1.268168 -0.075875
C -0.688454 1.023469 -0.212085
C -1.612421 0.004911 0.305755
H -1.326463 -1.700791 -1.080329
H 0.968595 -2.036287 0.412805
H 2.408211 -0.158679 0.605991
H 1.160871 2.259370 -0.179004
H -1.145153 1.822444 -0.862556
H -1.701171 -0.007116 1.402919
12
Aligned to gpa_Type_2.xyz, RMSD 0.29751
C -0.810451 -1.087130 -0.441964
C 0.586955 -1.206154 0.018374
C 1.456314 -0.036938 0.212979
C 0.940190 1.267141 -0.005254
C -0.633947 1.021327 -0.197481
C -1.606320 -0.010749 0.303900
H -1.454557 -1.757876 -1.113605
H 0.939132 -2.189270 0.450397
H 2.454123 -0.095915 0.465172
H 1.183355 2.411931 -0.263325
H -1.142633 1.705794 -0.694412
H -1.912160 -0.022163 1.265220
12
Aligned to gpa_Type_2.xyz, RMSD 0.28290
C -0.896276 -1.230157 -0.090567
C 0.481438 -1.062038 0.091505
C 1.286449 0.056136 0.181519
C 0.662589 1.216964 0.106267
C -0.736052 1.248406 -0.041587
C -1.422368 -0.007723 0.468053
H -1.060724 -1.692744 -1.174029
H 0.856248 -2.013094 0.088562
H 2.391241 -0.016728 0.249148
H 1.237326 1.976593 -0.139726
H -0.729641 1.490836 -1.102620
H -2.070230 0.033547 1.363477
12
Aligned to gpa_Type_3.xyz, RMSD 0.33767
C -0.949321 -1.110191 -0.142745
C 0.488269 -1.117634 -0.172267
C 1.415108 0.035003 0.194143
C 0.853024 1.308521 0.215536
C -0.661818 1.275459 0.225333
C -1.472602 0.054557 0.397607
H -1.392845 -1.855462 -0.614662
H 1.082470 -2.011723 -0.244351
H 2.519674 -0.041640 0.283170
H 1.154592 2.343689 -0.131296
H -0.538633 0.955061 -0.896959
H -2.497919 0.164361 0.886492
12
Aligned to gpa_Type_3.xyz, RMSD 0.32536
C -0.917915 -1.094005 -0.183974
C 0.491539 -1.058847 -0.229602
C 1.407317 0.081686 0.212274
C 0.840388 1.340888 0.236247
C -0.653667 1.258652 0.167147
C -1.456221 0.085363 0.344578
H -1.481760 -1.852949 -0.591338
H 1.158853 -2.043154 -0.120745
H 2.431898 -0.110351 0.193744
H 1.182439 2.322193 -0.067837
H -0.544651 0.997123 -0.891266
H -2.458219 0.073403 0.930774
12
Aligned to gpa_Type_2.xyz, RMSD 0.18234
C -0.880593 -1.035063 -0.413782
C 0.545260 -1.153810 -0.067268
C 1.354524 0.034667 0.112750
C 0.732734 1.305188 0.022667
C -0.697407 1.102677 -0.234095
C -1.359464 -0.028396 0.319268
H -1.316510 -1.942828 -0.818529
H 0.863846 -2.249763 0.038922
H 2.182072 -0.059531 0.572297
H 1.322809 2.344049 0.180302
H -1.063509 1.504895 -1.103679
H -1.683761 0.177912 1.391148
12
Aligned to gpa_Type_3.xyz, RMSD 0.21609
C -0.911954 -1.087060 -0.016338
C 0.578557 -1.127146 -0.088756
C 1.421373 0.098441 0.113913
C 0.755161 1.293558 0.209312
C -0.814982 1.386307 -0.043000
C -1.496995 0.127142 0.256613
H -1.306537 -1.993583 -0.304579
H 0.966799 -2.079517 -0.426044
H 2.420195 -0.085442 0.215242
H 1.227431 2.266061 0.411821
H -0.524029 1.066307 -1.325040
H -2.315020 0.134932 0.996858
12
Aligned to gpa_Type_3.xyz, RMSD 0.22227
C -0.889736 -1.088155 -0.033447
C 0.539486 -1.104918 -0.124823
C 1.342052 0.060702 0.070634
C 0.682511 1.346856 0.126660
C -0.785234 1.463068 -0.121043
C -1.542794 0.111363 0.330724
H -1.270663 -2.091741 -0.388028
H 0.944580 -2.089851 -0.329840
H 2.502287 -0.033353 0.244677
H 1.297036 2.193017 0.354592
H -0.459338 1.112356 -1.121470
H -2.360188 0.120658 0.991364
12
Aligned to gpa_Type_3.xyz, RMSD 0.15135
C -0.809819 -1.092999 -0.047391
C 0.582224 -1.080578 -0.221057
C 1.347418 0.005150 -0.064969
C 0.724679 1.267700 0.360668
C -0.909588 1.456904 -0.105894
C -1.449336 0.183013 0.226030
H -1.299827 -1.947435 -0.072622
H 0.956461 -2.065315 -0.204797
H 2.409346 -0.040747 0.020967
H 1.337173 2.149899 0.577491
H -0.554569 1.155745 -1.242713
H -2.334164 0.008664 0.774286
12
Aligned to gpa_Type_1.xyz, RMSD 0.20516
C -0.595575 -0.928897 -0.090930
C 0.819969 -1.216589 0.138629
C 1.482664 -0.153071 0.021687
C 0.716962 1.098001 -0.019052
C -0.776561 1.057511 -0.226030
C -1.479850 0.081205 0.683652
H -1.135502 -1.664574 -0.803252
H 1.173604 -2.167517 0.224332
H 2.605825 -0.174835 0.010847
H 1.195208 2.016101 0.175610
H -1.316556 1.828430 -0.777880
H -2.690187 0.224236 0.662386
12
Aligned to gpa_Type_3.xyz, RMSD 0.21626
C -0.864750 -1.102207 -0.059376
C 0.498005 -1.034800 -0.295669
C 1.421122 0.098339 0.051004
C 0.671377 1.309031 0.179274
C -0.729308 1.350908 -0.072279
C -1.356861 0.096680 0.270977
H -1.459205 -1.940235 -0.075733
H 1.069856 -1.868900 -0.527802
H 2.495211 -0.032567 0.446234
H 1.258544 2.037679 0.354578
H -0.761444 0.851051 -1.037353
H -2.242547 0.235021 0.766148
12
Aligned to gpa_Type_3.xyz, RMSD 0.29503
C -0.824824 -1.119853 -0.111473
C 0.567479 -1.027035 -0.170764
C 1.342103 0.076778 0.251900
C 0.708258 1.250961 0.127303
C -0.728293 1.363304 -0.022840
C -1.421924 0.145439 0.347034
H -1.409754 -1.960675 -0.223615
H 0.883524 -2.008951 -0.592429
H 2.387858 -0.030698 0.486506
H 1.247204 2.234530 0.226102
H -0.449304 1.082014 -1.396900
H -2.302327 -0.005812 1.079175
12
Aligned to gpa_Type_1.xyz, RMSD 0.21964
C -0.716813 -0.989493 -0.292705
C 0.648582 -1.087948 0.134180
C 1.537572 0.008579 0.144744
C 0.912254 1.101604 -0.170859
C -0.567687 0.885794 0.026915
C -1.393299 -0.016844 0.759976
H -1.290054 -1.597316 -1.011596
H 0.954997 -2.231823 0.126954
H 2.511461 -0.065665 0.494474
H 1.053483 2.171560 -0.390966
H -1.240780 1.664371 -0.482321
H -2.409719 0.157181 0.661201
12
Aligned to gpa_Type_1.xyz, RMSD 0.15362
C -0.710378 -0.887463 0.011950
C 0.708212 -1.198953 0.110740
C 1.631553 -0.132497 0.244713
C 0.743450 1.173831 0.081385
C -0.775017 1.056567 -0.104461
C -1.594409 0.146391 0.709639
H -1.279797 -1.654027 -0.835787
H 1.053621 -2.250384 -0.038940
H 2.664078 -0.058421 0.125635
H 1.333585 2.190136 -0.071440
H -1.181526 1.655842 -0.934596
H -2.593373 -0.041022 0.701162
12
Aligned to gpa_Type_3.xyz, RMSD 0.19692
C -0.766121 -1.088907 -0.060652
C 0.535340 -1.031259 -0.050191
C 1.365873 0.037797 -0.036304
C 0.785223 1.315974 0.235289
C -0.716852 1.393643 0.152038
C -1.466949 0.133323 0.357441
H -1.426195 -1.974043 -0.268870
H 0.838689 -1.962509 -0.317490
H 2.466098 -0.053507 0.195991
H 1.267851 2.246088 0.348647
H -0.551348 1.039309 -1.317901
H -2.331611 -0.055909 0.762003
12
Aligned to gpa_Type_3.xyz, RMSD 0.18288
C -0.797208 -1.044831 -0.120725
C 0.585169 -1.004257 -0.085783
C 1.436486 0.154774 0.005810
C 0.741093 1.382446 0.292621
C -0.762884 1.427472 -0.005120
C -1.507748 0.129305 0.205380
H -1.236245 -1.980336 -0.201878
H 1.025667 -2.071276 -0.261953
H 2.449481 -0.274554 0.061496
H 1.427914 2.212480 0.522039
H -0.800542 0.983189 -1.242923
H -2.561185 0.085590 0.831036
12
Aligned to gpa_Type_3.xyz, RMSD 0.24770
C -0.862637 -1.154770 -0.129213
C 0.572533 -1.057519 -0.231440
C 1.406905 0.011450 0.241842
C 0.738872 1.193116 0.123087
C -0.713148 1.301901 -0.065787
C -1.475649 0.148982 0.324856
H -1.567397 -2.041926 -0.185288
H 0.956390 -1.997072 -0.499853
H 2.540930 0.216826 0.300371
H 1.124626 2.149449 0.195067
H -0.369909 1.043660 -0.979956
H -2.351517 0.185904 0.906315
12
Aligned to gpa_Type_2.xyz, RMSD 0.18352
C -0.909174 -1.018380 -0.549356
C 0.558263 -1.107394 -0.208293
C 1.253020 0.000138 0.279366
C 0.849475 1.438623 0.033034
C -0.680339 1.306319 -0.104623
C -1.301474 0.050910 0.323048
H -1.585246 -1.940068 -0.531590
H 0.949929 -2.049960 0.136341
H 2.289457 -0.078132 0.387127
H 1.407630 2.330108 0.220107
H -0.952641 1.324814 -1.221925
H -1.878899 -0.256980 1.236766
12
Aligned to gpa_Type_2.xyz, RMSD 0.30229
C -0.766964 -1.071539 -0.363054
C 0.613055 -1.150381 0.119311
C 1.412029 0.057270 0.094976
C 0.802093 1.299184 -0.103307
C -0.703753 1.200487 -0.240673
C -1.441918 0.028927 0.263953
H -1.338953 -1.757739 -1.020340
H 0.839430 -2.116823 0.522359
H 2.470326 -0.114848 0.165798
H 1.436681 2.090905 0.329007
H -1.406669 1.604038 -1.019679
H -1.915356 -0.069484 1.251650
12
Aligned to gpa_Type_1.xyz, RMSD 0.15473
C -0.730745 -0.906637 -0.273869
C 0.794924 -1.151472 -0.011975
C 1.541817 -0.016034 0.286852
C 0.818700 1.126707 -0.059816
C -0.828045 1.032901 -0.156886
C -1.544901 -0.030912 0.673090
H -1.255278 -1.727376 -0.723364
H 1.034032 -2.250604 -0.076858
H 2.641787 -0.023911 0.468045
H 1.355511 2.061148 -0.221154
H -1.243106 1.739400 -0.764819
H -2.584698 0.146789 0.860753
12
Aligned to gpa_Type_2.xyz, RMSD 0.19695
C -0.934284 -1.090463 -0.615950
C 0.451065 -1.077519 -0.017513
C 1.330840 0.064082 0.230772
C 0.753437 1.258935 0.075271
C -0.614442 1.247123 -0.100792
C -1.408991 0.021236 0.325547
H -1.570262 -1.916235 -0.704892
H 0.957686 -2.021663 0.046526
H 2.286729 -0.002779 0.822994
H 1.227943 2.134682 -0.345352
H -0.861320 1.732746 -1.029987
H -1.618398 -0.350145 1.313376
12
Aligned to gpa_Type_2.xyz, RMSD 0.25040
C -0.805938 -1.043332 -0.227945
C 0.595678 -1.220377 -0.119570
C 1.238779 -0.108568 0.105471
C 0.680201 1.260661 -0.116437
C -0.826678 1.294090 -0.337522
C -1.232717 0.128920 0.500097
H -1.349508 -1.658855 -0.858213
H 1.153640 -2.087728 0.125807
H 2.246659 -0.241960 0.563300
H 1.228561 2.124946 0.292939
H -1.150910 1.577042 -1.301924
H -1.777767 -0.024840 1.373998
12
Aligned to gpa_Type_2.xyz, RMSD 0.14262
C -0.906952 -0.997667 -0.429073
C 0.524087 -1.106394 -0.199728
C 1.201690 0.007505 0.183352
C 0.712162 1.346566 0.022228
C -0.781303 1.344782 -0.133365
C -1.221217 0.023326 0.385013
H -1.416423 -1.846896 -0.705606
H 0.965754 -2.007455 0.155144
H 2.235618 -0.208811 0.558806
H 1.335823 2.228403 0.082624
H -0.950567 1.404349 -1.191410
H -1.698670 -0.187708 1.272015
12
Aligned to gpa_Type_2.xyz, RMSD 0.24199
C -0.829390 -1.045733 -0.438271
C 0.480503 -1.107488 -0.026433
C 1.261274 0.052259 0.194129
C 0.773479 1.352471 -0.113531
C -0.676921 1.159919 -0.231284
C -1.370472 0.046586 0.302949
H -1.121352 -1.845679 -1.033415
H 0.828086 -2.071524 0.326670
H 2.353075 -0.353739 0.470543
H 1.361279 2.270373 0.095177
H -1.318817 1.494314 -0.967590
H -1.740744 0.048240 1.421058
12
Aligned to gpa_Type_3.xyz, RMSD 0.21948
C -0.857650 -1.065113 -0.035967
C 0.620694 -1.034242 -0.064698
C 1.398190 0.101527 0.029897
C 0.746058 1.318017 0.241118
C -0.743994 1.462630 -0.025012
C -1.550701 0.110030 0.340844
H -1.195425 -2.030881 -0.408019
H 0.843011 -2.103036 -0.326132
H 2.415708 -0.026237 0.210222
H 1.443726 2.215470 0.238494
H -0.538515 1.019348 -1.063683
H -2.581102 0.032487 0.862938
12
Aligned to gpa_Type_3.xyz, RMSD 0.23386
C -0.806818 -1.105955 -0.129436
C 0.486835 -1.080779 -0.440420
C 1.310892 0.097596 -0.057643
C 0.677581 1.317569 0.205249
C -0.774988 1.561694 -0.145502
C -1.419683 0.056188 0.235039
H -1.140524 -2.030782 0.285605
H 1.013911 -2.050757 -0.547066
H 2.190881 -0.116250 0.441672
H 1.288811 2.054932 0.540315
H -0.511741 1.135038 -1.162774
H -2.315157 0.161508 0.774962
12
Aligned to gpa_Type_2.xyz, RMSD 0.21174
C -0.929580 -1.057448 -0.468230
C 0.492901 -1.085823 -0.161743
C 1.256181 0.012053 0.291390
C 0.726705 1.291749 0.019752
C -0.704328 1.309323 -0.280579
C -1.366487 -0.082542 0.468307
H -1.432349 -1.982190 -0.800932
H 1.003974 -2.092562 -0.115932
H 2.178651 0.005866 0.849438
H 1.519388 2.119622 -0.002462
H -1.144710 1.612353 -1.318045
H -1.600345 -0.050401 1.519038
12
Aligned to gpa_Type_1.xyz, RMSD 0.25030
C -0.672705 -0.898487 -0.203125
C 0.644823 -1.172719 -0.171258
C 1.421257 -0.046202 0.045029
C 0.860135 1.253590 -0.083613
C -0.709680 1.153445 -0.023838
C -1.234224 0.041222 0.685540
H -1.316169 -1.432548 -0.794754
H 0.884972 -2.239203 0.060450
H 2.321895 -0.081283 0.550715
H 1.221162 2.261480 0.047785
H -1.181737 1.125622 -1.023422
H -2.239730 0.035083 0.910491
12
Aligned to gpa_Type_2.xyz, RMSD 0.21844
C -0.882726 -1.070790 -0.512374
C 0.602101 -1.171504 0.168888
C 1.338173 0.051663 0.262421
C 0.738273 1.257774 0.010833
C -0.744099 1.358494 -0.199136
C -1.361674 0.015611 0.337874
H -1.452173 -1.790256 -1.059118
H 1.033811 -2.156410 0.341621
H 2.347917 -0.164907 0.392546
H 1.466973 2.194509 0.017860
H -1.346848 1.585872 -1.102100
H -1.739728 -0.110057 1.340688
12
Aligned to gpa_Type_3.xyz, RMSD 0.25440
C -0.809333 -0.974812 -0.324361
C 0.507744 -1.150890 -0.281057
C 1.296982 0.024633 0.042377
C 0.729396 1.252404 0.234423
C -0.760787 1.393047 0.065729
C -1.426754 0.081507 0.327546
H -1.304798 -1.914149 -0.268236
H 0.937631 -2.081153 -0.147013
H 2.339238 0.010798 0.332368
H 1.333694 2.236318 0.119382
H -0.540246 1.152139 -0.991657
H -2.302769 -0.029841 0.890500
12
Aligned to gpa_Type_2.xyz, RMSD 0.23690
C -0.977286 -1.160002 -0.568693
C 0.520505 -1.131599 -0.201125
C 1.091234 0.050262 0.273958
C 0.624769 1.312507 0.205553
C -0.645338 1.319449 -0.200771
C -1.274264 -0.019569 0.222621
H -1.464155 -2.103522 -0.658899
H 0.826831 -1.970143 0.323771
H 2.242370 -0.112214 0.559174
H 1.331284 2.198613 -0.119911
H -0.906080 1.949735 -1.132029
H -1.369869 -0.333518 1.296353
12
Aligned to gpa_Type_3.xyz, RMSD 0.16292
C -0.840564 -1.167100 -0.079957
C 0.590170 -1.043581 -0.295640
C 1.343220 0.180362 -0.019567
C 0.773468 1.352997 0.308207
C -0.756111 1.499210 0.012041
C -1.425177 0.110624 0.291867
H -1.466873 -2.065247 0.002677
H 0.933941 -2.013479 -0.331098
H 2.336307 0.012185 0.232026
H 1.457044 2.092353 0.404365
H -0.518766 1.120148 -1.255313
H -2.426660 -0.078469 0.730393
12
Aligned to gpa_Type_2.xyz, RMSD 0.28443
C -0.844274 -1.028555 -0.493365
C 0.516837 -1.099266 -0.240640
C 1.219881 -0.040079 0.274208
C 0.625749 1.319787 0.117333
C -0.821683 1.454797 -0.327888
C -1.204808 0.072811 0.263219
H -1.159505 -2.004583 -0.210339
H 0.912746 -2.093237 -0.286053
H 2.108202 -0.222358 0.600941
H 1.350475 2.082327 0.365461
H -1.089026 1.521557 -1.362479
H -1.614592 0.036797 1.299603
12
Aligned to gpa_Type_2.xyz, RMSD 0.22532
C -0.886363 -1.182029 -0.452548
C 0.475209 -1.063216 -0.003032
C 1.340755 0.048807 0.269387
C 0.769293 1.287123 -0.183213
C -0.785479 1.189661 -0.225097
C -1.342032 0.005469 0.410323
H -1.214252 -1.927976 -1.112064
H 0.830676 -2.051218 0.267353
H 2.273920 -0.064545 0.585382
H 1.453039 2.055526 -0.088659
H -1.152200 1.756294 -0.940923
H -1.762564 -0.053898 1.473092
12
Aligned to gpa_Type_2.xyz, RMSD 0.27207
C -0.763916 -0.987262 -0.258316
C 0.662675 -1.132138 -0.141781
C 1.393173 -0.042829 0.224405
C 0.662055 1.148817 0.165103
C -0.796023 1.063230 -0.263521
C -1.494221 0.026870 0.493921
H -1.088576 -1.739698 -0.815951
H 0.954837 -2.121910 -0.040166
H 2.532026 -0.171557 0.443415
H 1.299826 2.034365 0.102818
H -1.264448 1.597209 -1.238664
H -2.097407 0.324902 1.328737
12
Aligned to gpa_Type_2.xyz, RMSD 0.22792
C -0.729965 -1.010131 -0.489381
C 0.463848 -1.008117 0.126264
C 1.383120 0.012128 0.169264
C 0.719199 1.198210 -0.001136
C -0.705258 1.176984 -0.146223
C -1.470197 0.030583 0.253170
H -1.266068 -1.933168 -0.840763
H 0.959264 -2.053848 0.393226
H 2.359006 -0.122570 0.085418
H 1.359785 2.047542 0.187410
H -1.122595 1.631160 -0.919875
H -1.950139 0.031226 1.182628
12
Aligned to gpa_Type_2.xyz, RMSD 0.27309
C -0.753049 -1.044143 -0.404612
C 0.500321 -1.072131 0.205107
C 1.343774 -0.008197 0.144844
C 0.687596 1.157312 -0.031765
C -0.711450 1.173587 -0.178177
C -1.478349 0.002184 0.252047
H -1.306984 -1.717731 -0.898980
H 0.941704 -1.904055 0.480563
H 2.476300 -0.265422 0.049721
H 1.231538 2.102859 0.269386
H -1.115438 1.681270 -1.104993
H -1.815961 -0.105534 1.216860
12
Aligned to gpa_Type_2.xyz, RMSD 0.22005
C -1.000959 -1.092929 -0.424513
C 0.513548 -1.015903 -0.126529
C 1.231092 -0.036935 0.320473
C 0.716177 1.305547 0.015164
C -0.706241 1.262786 -0.189656
C -1.277831 0.085688 0.326256
H -1.412410 -2.039615 -0.780530
H 1.026308 -1.938102 -0.163313
H 2.164193 -0.313848 0.835829
H 1.204554 2.271858 -0.018228
H -1.000071 1.494131 -1.249008
H -1.458358 0.017322 1.454055
12
Aligned to gpa_Type_2.xyz, RMSD 0.18216
C -0.885391 -1.150794 -0.503719
C 0.460655 -1.107836 -0.078962
C 1.198080 0.054628 0.359213
C 0.609233 1.339871 0.143861
C -0.631795 1.245588 -0.168535
C -1.316326 -0.067255 0.255113
H -1.509688 -1.994419 -0.767225
H 0.820089 -2.047898 0.169868
H 2.366407 -0.075049 0.573898
H 1.187977 2.198126 -0.242063
H -0.797766 1.844216 -1.045098
H -1.501476 -0.239179 1.303649
12
Aligned to gpa_Type_2.xyz, RMSD 0.28090
C -0.670681 -0.896253 -0.376953
C 0.598187 -1.124105 0.079896
C 1.437370 -0.005176 0.382265
C 0.800389 1.145808 0.085365
C -0.703171 1.019125 -0.112781
C -1.505159 -0.030192 0.442069
H -1.122617 -1.635970 -0.865047
H 0.800325 -2.177291 -0.060284
H 2.415542 -0.029588 0.505971
H 1.131447 2.039771 -0.442457
H -1.028134 1.656864 -0.877251
H -2.153499 0.037007 1.239209
12
Aligned to gpa_Type_2.xyz, RMSD 0.28922
C -0.658940 -0.912730 -0.360423
C 0.628853 -1.123564 0.001444
C 1.414318 0.022259 0.328230
C 0.742181 1.096257 -0.009343
C -0.751170 1.018083 -0.140880
C -1.517637 -0.051611 0.442282
H -1.220578 -1.732945 -1.017319
H 0.846792 -2.163137 -0.062663
H 2.454508 0.025670 0.715744
H 1.153880 1.935182 -0.407984
H -1.066747 1.719568 -0.912365
H -2.025459 0.166966 1.423278
12
Aligned to gpa_Type_2.xyz, RMSD 0.19230
C -0.885733 -1.167023 -0.463004
C 0.528852 -1.139459 -0.127904
C 1.169992 0.090973 0.184562
C 0.633337 1.267705 0.088233
C -0.709398 1.386544 -0.187478
C -1.228559 0.000258 0.194777
H -1.635963 -2.060307 -0.458374
H 1.114372 -2.142075 -0.059160
H 2.248581 -0.027828 0.605230
H 1.183285 2.084538 0.138217
H -0.797837 1.756654 -1.153599
H -1.620928 -0.049981 1.238500
12
Aligned to gpa_Type_2.xyz, RMSD 0.17321
C -0.892706 -1.117244 -0.543115
C 0.509840 -1.119886 -0.251258
C 1.209608 -0.018488 0.301663
C 0.721264 1.371674 0.139592
C -0.737132 1.320789 -0.026805
C -1.288693 0.061425 0.253886
H -1.456165 -1.945837 -0.526067
H 0.899162 -2.043020 0.239832
H 2.208364 -0.170216 0.515671
H 1.294520 2.301992 -0.141758
H -0.864694 1.694356 -1.083319
H -1.603367 -0.335547 1.121678
12
Aligned to gpa_Type_2.xyz, RMSD 0.22331
C -0.856573 -1.046346 -0.485544
C 0.514473 -1.100810 -0.108385
C 1.254029 0.046947 0.527895
C 0.710393 1.349681 0.188444
C -0.751243 1.418004 -0.061768
C -1.318214 0.106213 0.302370
H -1.397577 -2.037639 -0.616341
H 0.958843 -2.181182 -0.344118
H 2.350028 0.023247 0.807324
H 1.359610 1.931746 -0.350841
H -1.100801 1.502329 -1.046466
H -1.722967 -0.012191 1.187431
12
Aligned to gpa_Type_2.xyz, RMSD 0.22863
C -0.913126 -1.032019 -0.488258
C 0.509796 -1.073064 0.043609
C 1.218206 0.007187 0.510720
C 0.757876 1.259856 0.122915
C -0.665143 1.283591 -0.058688
C -1.437521 0.046236 0.347201
H -1.420173 -1.861864 -0.631467
H 1.053739 -1.847524 -0.373731
H 2.171423 -0.137438 0.692663
H 1.334430 2.164086 -0.353457
H -0.785563 1.435432 -1.223307
H -1.823944 -0.244479 1.411803
12
Aligned to gpa_Type_3.xyz, RMSD 0.27132
C -0.846442 -1.091145 -0.222042
C 0.548877 -1.119609 -0.071561
C 1.265200 0.111618 0.051312
C 0.661084 1.390326 0.215281
C -0.692791 1.293268 0.097394
C -1.465980 0.127635 0.340848
H -1.382381 -1.998699 -0.479143
H 1.190427 -1.995142 -0.196789
H 2.414638 -0.067258 0.258155
H 1.423947 2.098253 0.027598
H -0.690561 1.054458 -0.841477
H -2.426020 0.196296 0.820423
12
Aligned to gpa_Type_2.xyz, RMSD 0.31451
C -0.874797 -1.086132 -0.236845
C 0.533774 -1.123549 -0.094858
C 1.268065 0.081256 0.040714
C 0.684441 1.330519 0.208886
C -0.721572 1.276286 0.155021
C -1.445993 0.121303 0.355881
H -1.365206 -1.965287 -0.618922
H 1.139402 -1.982055 -0.161128
H 2.397101 -0.084257 0.328993
H 1.387979 2.151706 -0.002688
H -0.717856 1.069402 -0.880827
H -2.285337 0.210808 0.905773
12
Aligned to gpa_Type_2.xyz, RMSD 0.24860
C -0.772380 -1.033893 -0.412078
C 0.559123 -1.157582 -0.045308
C 1.316033 0.029447 0.275232
C 0.641356 1.229093 -0.042225
C -0.679234 1.032647 -0.317209
C -1.355867 0.084990 0.412141
H -1.424297 -1.582609 -1.058458
H 0.998130 -2.164210 0.169434
H 2.248259 -0.075495 0.762777
H 1.272172 2.131104 -0.290652
H -1.120284 1.609610 -0.881614
H -1.683009 -0.103101 1.427961
12
Aligned to gpa_Type_2.xyz, RMSD 0.29973
C -0.770734 -1.046638 -0.335015
C 0.562557 -1.189404 -0.017081
C 1.356576 0.052319 0.264161
C 0.621950 1.220942 -0.089753
C -0.630907 1.015725 -0.301807
C -1.333166 0.023459 0.486156
H -1.356136 -1.502104 -1.095421
H 0.906683 -2.147815 0.166180
H 2.393717 -0.188281 0.805324
H 1.153997 2.071987 -0.135700
H -1.319206 1.790500 -1.232912
H -1.585330 -0.100691 1.485869
12
Aligned to gpa_Type_1.xyz, RMSD 0.30543
C -0.823949 -1.123164 -0.201871
C 0.606327 -1.213583 0.133172
C 1.383698 -0.060436 0.090436
C 0.810513 1.179787 -0.080029
C -0.808783 1.061654 -0.168689
C -1.547049 -0.029197 0.471106
H -0.979870 -1.618263 -1.187228
H 0.885455 -2.167135 0.361169
H 2.465265 0.021650 0.228868
H 1.464548 2.128441 0.023660
H -1.263998 1.802266 -0.936687
H -2.192158 0.017979 1.266092
12
Aligned to gpa_Type_2.xyz, RMSD 0.29262
C -0.898263 -1.094560 -0.188201
C 0.737735 -1.299189 -0.054428
C 1.373114 -0.091646 0.061828
C 0.658955 1.099478 0.026675
C -0.777118 1.120448 -0.288512
C -1.521833 0.143134 0.433187
H -1.445780 -1.693237 -0.885991
H 1.400124 -2.096070 -0.032750
H 2.303020 -0.136608 0.557572
H 1.099985 2.142184 0.124104
H -0.909087 1.692515 -1.210582
H -2.020851 0.213552 1.457100
12
Aligned to gpa_Type_1.xyz, RMSD 0.19286
C -0.819137 -1.019003 -0.304387
C 0.666929 -1.158387 0.042860
C 1.391295 0.010522 0.104865
C 0.733944 1.183839 0.180906
C -0.649566 1.064215 -0.320568
C -1.371739 0.078795 0.579719
H -1.293510 -1.719363 -0.650833
H 1.099038 -2.179563 0.083785
H 2.582036 0.008506 0.112230
H 1.320780 2.008027 0.276334
H -1.237838 1.522034 -0.992358
H -2.422232 0.200377 0.887448
12
Aligned to gpa_Type_2.xyz, RMSD 0.15035
C -0.891784 -1.081344 -0.544750
C 0.552646 -1.115117 -0.219726
C 1.229220 0.017529 0.305450
C 0.739973 1.286490 0.097047
C -0.685016 1.323897 -0.082545
C -1.234772 0.064982 0.288840
H -1.648033 -2.167199 -0.622111
H 1.036422 -2.008650 -0.013364
H 2.224121 -0.042371 0.622252
H 1.218975 2.202286 -0.024480
H -0.841309 1.519578 -1.061264
H -1.700442 -0.000082 1.254650
12
Aligned to gpa_Type_2.xyz, RMSD 0.11618
C -0.900796 -1.100392 -0.560684
C 0.487401 -1.044687 -0.197965
C 1.201341 0.042552 0.342214
C 0.735663 1.284454 0.054863
C -0.654535 1.269452 0.051051
C -1.348780 0.085407 0.298067
H -1.289200 -2.025482 -0.703761
H 0.855283 -2.092733 0.044802
H 2.257875 -0.044417 0.621516
H 1.356283 2.160177 -0.185920
H -0.955098 1.569263 -1.098033
H -1.745436 -0.103596 1.333852
12
Aligned to gpa_Type_2.xyz, RMSD 0.27286
C -0.809017 -1.044434 -0.625974
C 0.464750 -1.044060 0.040577
C 1.256972 0.035390 0.540129
C 0.789641 1.340545 0.092434
C -0.705703 1.334719 -0.046982
C -1.413040 -0.047312 0.339669
H -1.673520 -1.879042 -0.890232
H 1.025105 -1.881162 0.085282
H 2.290858 -0.034701 0.718316
H 1.361314 1.978993 -0.613312
H -0.929476 1.657660 -0.935656
H -1.657884 -0.416598 1.295750
12
Aligned to gpa_Type_2.xyz, RMSD 0.24835
C -0.817233 -1.022725 -0.663188
C 0.469535 -1.043416 0.075030
C 1.267744 0.022864 0.475558
C 0.811555 1.356285 0.104409
C -0.650921 1.292078 -0.057276
C -1.434507 -0.006524 0.356079
H -1.579319 -1.796377 -0.911208
H 1.117759 -1.988906 0.168376
H 2.314206 -0.223594 0.658332
H 1.225250 2.071126 -0.527502
H -1.011960 1.732864 -1.097430
H -1.712109 -0.393676 1.418820
12
Aligned to gpa_Type_2.xyz, RMSD 0.29834
C -0.868602 -1.195917 -0.562956
C 0.493684 -1.256611 -0.049357
C 1.313343 0.086841 0.139591
C 0.785904 1.315690 -0.066804
C -0.625051 1.187446 -0.035004
C -1.320404 -0.014699 0.340312
H -1.222614 -1.946204 -1.037379
H 0.765586 -2.127965 0.663662
H 2.416415 -0.000457 0.242931
H 1.479081 2.168274 0.023194
H -1.303851 1.795274 -0.821448
H -1.913488 -0.011672 1.163260
12
Aligned to gpa_Type_2.xyz, RMSD 0.22831
C -0.829545 -1.055980 -0.383284
C 0.612303 -1.216794 0.097642
C 1.448928 0.086619 0.299884
C 0.657003 1.201616 0.079404
C -0.687586 0.978291 -0.162551
C -1.478781 -0.045892 0.451582
H -1.437670 -1.721906 -0.749510
H 0.935773 -2.234187 -0.095345
H 2.621879 0.071027 0.389053
H 1.157237 2.123372 0.023429
H -0.931464 1.683990 -1.173499
H -2.068076 0.129844 1.223197
12
Aligned to gpa_Type_2.xyz, RMSD 0.31452
C -0.786826 -1.199879 -0.688883
C 0.487390 -1.083029 -0.104781
C 1.307266 0.097802 0.329583
C 0.691664 1.239988 -0.095367
C -0.634761 1.219248 -0.159769
C -1.296775 0.018586 0.129363
H -1.514355 -2.049050 -0.693637
H 0.616296 -1.906657 0.466028
H 2.323885 0.002988 0.608922
H 1.345883 2.010860 -0.142638
H -1.182657 1.981391 -0.745846
H -1.357008 -0.332249 1.097026
12
Aligned to gpa_Type_2.xyz, RMSD 0.23832
C -0.913340 -1.075297 -0.368835
C 0.533096 -1.041527 0.152797
C 1.416251 0.073444 0.452932
C 0.756794 1.293918 0.145536
C -0.732625 1.185231 -0.016145
C -1.571052 0.029645 0.335957
H -1.267909 -1.770832 -1.127805
H 0.946125 -2.171782 0.167946
H 2.452735 -0.089598 0.287512
H 1.185427 2.046260 -0.357093
H -0.870640 1.633464 -1.080610
H -1.934862 -0.112928 1.407809
12
Aligned to gpa_Type_2.xyz, RMSD 0.18612
C -0.898354 -1.076846 -0.481471
C 0.513435 -1.126425 -0.019275
C 1.397776 -0.001625 0.305184
C 0.674210 1.266148 0.175918
C -0.744582 1.124764 -0.049816
C -1.572244 -0.005703 0.307241
H -1.366430 -1.898954 -1.003900
H 0.933186 -1.979029 0.306016
H 2.502804 -0.082421 0.299716
H 1.307720 2.195423 -0.185962
H -0.888874 1.558170 -0.963023
H -1.858646 0.026497 1.309374
12
Aligned to gpa_Type_1.xyz, RMSD 0.26209
C -0.804159 -0.962130 -0.179008
C 0.640250 -1.163969 0.034590
C 1.359861 -0.086692 0.231106
C 0.828382 1.264128 0.133650
C -0.741619 1.145962 -0.256660
C -1.386529 0.098630 0.640020
H -1.458914 -1.671481 -0.597176
H 1.182901 -2.033995 -0.092607
H 2.509179 -0.081031 0.080232
H 1.401930 2.154861 0.355828
H -1.074227 1.326162 -1.269026
H -2.457055 0.009556 0.919050
12
Aligned to gpa_Type_2.xyz, RMSD 0.27461
C -0.889925 -1.094346 -0.293093
C 0.591242 -1.188600 0.097068
C 1.408768 0.008435 0.069444
C 0.854223 1.212314 -0.019855
C -0.611357 1.113499 -0.313821
C -1.308069 0.066759 0.449110
H -1.517172 -1.751888 -0.874097
H 1.102380 -2.159194 0.078366
H 2.457349 0.013735 0.330875
H 1.195215 2.160454 0.423625
H -1.217746 1.446400 -1.175027
H -2.064908 0.172431 1.227405
12
Aligned to gpa_Type_3.xyz, RMSD 0.14239
C -0.871301 -1.120128 -0.063010
C 0.516701 -1.101471 -0.128476
C 1.326014 0.029582 -0.014348
C 0.784455 1.282663 0.356171
C -0.690776 1.399089 0.089446
C -1.473517 0.107532 0.273197
H -1.346927 -2.049133 0.010037
H 1.052137 -2.014596 -0.364484
H 2.443011 -0.093841 -0.112422
H 1.162144 2.327169 0.361667
H -0.422772 1.061963 -0.837824
H -2.479170 0.171172 0.430046
12
Aligned to gpa_Type_3.xyz, RMSD 0.13920
C -0.849789 -1.118740 -0.076381
C 0.513831 -1.066016 -0.155067
C 1.290136 0.110568 0.050239
C 0.675343 1.336801 0.330448
C -0.723027 1.422735 -0.000196
C -1.494242 0.091029 0.216659
H -1.245859 -2.160468 -0.082123
H 0.975105 -1.997307 -0.203964
H 2.357272 -0.070923 -0.214386
H 1.407646 2.233218 0.529421
H -0.372118 1.063691 -1.043030
H -2.534300 0.155414 0.648382
12
Aligned to gpa_Type_3.xyz, RMSD 0.12575
C -0.900627 -1.107082 0.066124
C 0.545745 -1.044901 -0.219640
C 1.330790 0.122367 -0.018758
C 0.685121 1.294364 0.180375
C -0.779100 1.340111 -0.100422
C -1.441648 0.096219 0.158804
H -1.407637 -2.074355 0.079848
H 1.085543 -1.986653 -0.391334
H 2.356370 0.026100 -0.010431
H 1.259836 2.025681 0.581791
H -0.280809 1.159069 -1.011451
H -2.453583 0.149082 0.685095
12
Aligned to gpa_Type_3.xyz, RMSD 0.19611
C -0.875616 -1.115862 -0.030336
C 0.477752 -1.138216 -0.304668
C 1.205012 0.112598 -0.019192
C 0.692772 1.351832 0.288979
C -0.819413 1.405861 -0.021632
C -1.531651 0.140291 0.225949
H -1.262631 -2.053720 -0.010921
H 1.147378 -2.011353 -0.323881
H 2.215436 -0.239611 0.100870
H 1.330409 2.297690 0.461494
H -0.231502 1.214267 -1.185539
H -2.347947 0.036224 0.818877
12
Aligned to gpa_Type_1.xyz, RMSD 0.21078
C -0.690393 -0.943316 -0.176397
C 0.718975 -1.207414 0.167013
C 1.429935 -0.050062 0.051781
C 0.762716 1.048555 0.019786
C -0.708371 0.998361 -0.117242
C -1.443797 0.036788 0.599953
H -1.132722 -1.464058 -1.000743
H 1.087808 -2.271161 0.375650
H 2.467606 0.027542 0.071078
H 1.124520 1.943098 -0.141279
H -1.083314 1.867545 -0.652359
H -2.532963 0.014123 0.802759
12
Aligned to gpa_Type_3.xyz, RMSD 0.27135
C -0.837152 -1.106085 0.022795
C 0.582270 -1.017589 -0.220904
C 1.480722 0.114302 0.036405
C 0.693104 1.247033 0.113634
C -0.810100 1.305854 -0.123189
C -1.391658 0.040245 0.312075
H -1.454878 -2.014864 -0.301943
H 0.871630 -1.921085 -0.549144
H 2.533709 -0.029867 0.541663
H 1.201496 2.184976 0.231269
H -0.534871 0.961069 -1.031998
H -2.334273 0.236011 0.969337
12
Aligned to gpa_Type_3.xyz, RMSD 0.19504
C -0.761157 -1.088908 0.076630
C 0.542028 -1.020755 -0.173186
C 1.458079 0.083744 -0.058464
C 0.644386 1.313115 0.200340
C -0.777405 1.315221 -0.083224
C -1.447892 0.123404 0.213005
H -1.346555 -2.010946 -0.001080
H 0.899093 -2.025609 -0.517898
H 2.394466 -0.236356 0.175880
H 1.017090 2.268818 0.582064
H -0.376922 1.110697 -1.212882
H -2.245212 0.167575 0.798816
12
Aligned to gpa_Type_3.xyz, RMSD 0.18568
C -0.779124 -1.027548 0.033324
C 0.524434 -1.084775 -0.150820
C 1.402119 0.116361 0.043985
C 0.713987 1.301577 0.180217
C -0.703391 1.412113 -0.112982
C -1.428703 0.173384 0.147521
H -1.272232 -2.044313 -0.015692
H 1.085606 -1.888138 -0.443947
H 2.487963 -0.401233 -0.001534
H 0.986060 2.206357 0.644906
H -0.579374 0.997028 -1.093722
H -2.437345 0.239187 0.768745
12
Aligned to gpa_Type_3.xyz, RMSD 0.26877
C -0.913850 -1.127718 -0.016950
C 0.558636 -1.021732 -0.198672
C 1.277229 0.091227 0.096392
C 0.582532 1.261302 0.187856
C -0.824190 1.347253 -0.191039
C -1.515415 0.116699 0.207766
H -1.201467 -2.232160 -0.205467
H 0.948175 -2.038350 -0.347132
H 2.259601 -0.076810 0.121692
H 1.192301 2.174148 0.520151
H -0.216943 1.200578 -1.239187
H -2.146612 0.305564 1.064593
12
Aligned to gpa_Type_1.xyz, RMSD 0.19270
C -0.736169 -1.020803 -0.063296
C 0.729469 -1.131125 0.029377
C 1.521902 0.014184 -0.037191
C 0.737987 1.135289 -0.061718
C -0.697678 1.192309 0.050536
C -1.520469 0.147520 0.744941
H -1.215796 -1.506425 -0.869527
H 1.036655 -2.134090 0.087353
H 2.641613 -0.162868 0.213095
H 1.170520 2.058781 0.152601
H -1.056906 1.348857 -1.063274
H -2.611128 0.058371 0.817102
12
Aligned to gpa_Type_3.xyz, RMSD 0.27134
C -0.782266 -1.145166 -0.355672
C 0.619379 -1.076091 -0.259299
C 1.236676 0.061044 0.187886
C 0.663509 1.302031 0.329364
C -0.762000 1.390318 0.105593
C -1.427991 0.116330 0.254571
H -1.512734 -1.971321 -0.273208
H 1.105650 -2.144056 -0.158389
H 2.307615 0.135258 0.222354
H 1.386040 2.072715 0.090965
H -0.611178 1.108128 -1.061391
H -2.222701 0.150811 0.917226
12
Aligned to gpa_Type_1.xyz, RMSD 0.18318
C -0.778528 -1.013047 -0.019293
C 0.717412 -1.149529 0.126433
C 1.559146 -0.033154 0.018194
C 0.691851 1.117980 -0.015043
C -0.692407 1.133415 0.016926
C -1.583055 0.175551 0.731831
H -1.214764 -1.418052 -0.825327
H 1.132753 -2.133276 -0.029302
H 2.644514 -0.104840 0.189869
H 1.267375 2.031588 0.068137
H -1.074401 1.372186 -1.027880
H -2.669895 0.021179 0.765451
12
Aligned to gpa_Type_2.xyz, RMSD 0.30074
C -0.885538 -1.034168 -0.704910
C 0.485739 -1.154885 -0.070478
C 1.219186 0.034873 0.480774
C 0.643860 1.195586 -0.098415
C -0.649715 1.352546 -0.140790
C -1.299040 0.040737 0.276671
H -1.373239 -2.035689 -0.868282
H 0.845485 -2.082427 0.207123
H 2.340040 -0.167925 0.901594
H 1.197467 2.111866 -0.451618
H -1.175908 1.965400 -0.892193
H -1.348337 -0.225915 1.360524
12
Aligned to gpa_Type_2.xyz, RMSD 0.32328
C -0.749718 -1.149631 -0.206450
C 0.568260 -1.325126 0.013237
C 1.191814 -0.193952 0.249010
C 0.608059 1.199556 0.033472
C -0.675677 1.142347 -0.574186
C -1.182619 0.181136 0.314395
H -1.410504 -1.997231 -0.549589
H 1.058133 -2.072764 -0.325444
H 2.280666 -0.108221 0.573071
H 1.062543 2.215678 0.423780
H -1.132281 1.826654 -1.224630
H -1.618674 0.281553 1.273334
12
Aligned to gpa_Type_3.xyz, RMSD 0.11726
C -0.760494 -1.140807 -0.122981
C 0.570284 -1.094081 -0.141252
C 1.305328 0.045440 0.131126
C 0.776504 1.310302 0.242220
C -0.669601 1.383520 0.154144
C -1.526371 0.138472 0.264118
H -1.377852 -1.947575 0.015689
H 1.057183 -2.133469 -0.432265
H 2.424806 0.009483 -0.000218
H 1.310275 2.254808 0.393114
H -0.513797 1.074697 -1.105155
H -2.596265 0.099212 0.601462
12
Aligned to gpa_Type_3.xyz, RMSD 0.13530
C -0.845525 -1.044938 0.076603
C 0.590860 -1.077889 -0.284579
C 1.368976 0.147712 -0.123840
C 0.745609 1.386977 0.269150
C -0.808557 1.403185 0.109136
C -1.467878 0.068242 0.306134
H -1.355689 -2.127790 -0.075478
H 0.890128 -2.015376 -0.337618
H 2.442185 -0.154757 0.139160
H 1.408016 2.336845 0.485675
H -0.493247 1.003212 -1.139364
H -2.474879 0.074576 0.575020
12
Aligned to gpa_Type_3.xyz, RMSD 0.24963
C -0.885431 -1.079662 0.015841
C 0.570748 -1.010363 -0.241093
C 1.466071 0.118174 0.062547
C 0.687206 1.252640 0.160667
C -0.801633 1.311728 -0.084040
C -1.419889 0.070216 0.316925
H -1.400943 -2.065427 -0.308322
H 0.978617 -1.892593 -0.511500
H 2.473378 -0.066202 0.486960
H 1.257093 2.148563 0.197700
H -0.593184 0.927386 -0.997185
H -2.332035 0.285541 0.901502
12
Aligned to gpa_Type_2.xyz, RMSD 0.20200
C -0.867310 -0.909071 -0.547095
C 0.523289 -1.085723 -0.087787
C 1.277778 0.132834 0.252780
C 0.769223 1.413986 0.254211
C -0.642812 1.291955 0.022184
C -1.409725 -0.001167 0.273480
H -1.226074 -1.927713 -0.644878
H 0.735656 -2.047627 0.330075
H 2.300712 -0.246531 0.166889
H 1.284501 2.222918 -0.087769
H -0.860632 1.459894 -1.106244
H -1.884604 -0.303756 1.174156
12
Aligned to gpa_Type_2.xyz, RMSD 0.14087
C -0.859253 -1.067546 -0.507838
C 0.577540 -1.090843 -0.069864
C 1.262262 0.077132 0.223577
C 0.714746 1.373026 0.114790
C -0.740858 1.238580 -0.158120
C -1.410055 -0.027568 0.299208
H -1.454950 -1.956884 -0.602104
H 0.930286 -2.145684 0.081718
H 2.313631 -0.124356 0.308691
H 1.449632 2.353536 0.181846
H -0.872627 1.462207 -1.188284
H -1.910352 -0.091601 1.316381
12
Aligned to gpa_Type_2.xyz, RMSD 0.28628
C -0.726929 -1.144019 -0.545700
C 0.539622 -1.055870 0.164052
C 1.413101 0.056349 0.281579
C 0.764411 1.254138 0.161823
C -0.698608 1.149281 -0.095951
C -1.514293 -0.075942 0.218714
H -1.443385 -1.943692 -0.925265
H 0.803843 -1.930914 0.552409
H 2.462441 -0.078706 0.048152
H 1.299289 2.065237 -0.182573
H -0.939608 1.953384 -0.893355
H -1.959883 -0.249248 1.216114
12
Aligned to gpa_Type_3.xyz, RMSD 0.18358
C -0.800320 -1.125981 0.104994
C 0.642629 -1.092841 -0.363955
C 1.384742 0.049812 -0.078628
C 0.612258 1.217785 0.281077
C -0.693543 1.525011 -0.142621
C -1.409556 0.154812 0.290698
H -1.350856 -2.033988 0.052004
H 0.983203 -2.144712 -0.493010
H 2.357942 0.066794 0.236699
H 1.252961 2.162583 0.692109
H -0.645459 0.976378 -1.302229
H -2.334004 0.244349 0.722863
12
Aligned to gpa_Type_1.xyz, RMSD 0.29643
C -0.811353 -1.074519 -0.222846
C 0.680865 -1.289176 0.187779
C 1.355915 -0.061665 0.087245
C 0.772423 1.067743 -0.333113
C -0.704474 1.030461 0.031797
C -1.372328 -0.063464 0.663273
H -1.051577 -1.192624 -1.164242
H 1.136549 -2.296856 0.395688
H 2.343884 0.084652 0.344008
H 1.328666 2.014163 -0.287623
H -1.197597 1.827686 -0.614654
H -2.480975 -0.046400 0.912685
12
Aligned to gpa_Type_3.xyz, RMSD 0.29068
C -0.900824 -1.149414 -0.002448
C 0.525343 -1.129633 -0.153291
C 1.211911 0.021175 0.161518
C 0.674481 1.195667 0.642354
C -0.557510 1.068385 -0.296276
C -1.404855 0.075380 0.071416
H -1.491686 -1.898120 0.375776
H 1.063524 -1.963082 -0.617460
H 2.269042 0.271309 -0.145687
H 1.302939 2.127190 0.536051
H -0.326403 1.282694 -1.210570
H -2.365963 0.098450 0.638617
12
Aligned to gpa_Type_1.xyz, RMSD 0.18765
C -0.817346 -0.940668 0.043911
C 0.678176 -1.190684 0.188364
C 1.474551 0.015474 0.162887
C 0.779296 1.171135 -0.021165
C -0.596830 0.970677 -0.197453
C -1.611020 0.087222 0.572085
H -1.249202 -1.511408 -0.744289
H 1.178696 -2.082038 -0.099679
H 2.534538 -0.102854 0.054924
H 1.324270 2.084977 0.203009
H -1.077034 1.452362 -1.015258
H -2.618096 0.045805 0.852664
12
Aligned to gpa_Type_2.xyz, RMSD 0.24467
C -0.839994 -1.100570 -0.641767
C 0.470643 -1.102097 -0.082399
C 1.164355 -0.031698 0.347550
C 0.743189 1.294205 0.056861
C -0.672915 1.163180 -0.368076
C -1.295525 -0.051968 0.258149
H -1.325344 -1.989628 -0.668001
H 1.114848 -2.050044 0.063113
H 2.143579 -0.337579 0.654213
H 1.149510 2.172029 -0.010573
H -1.208752 1.779088 -0.903630
H -1.443593 0.255082 1.294561
12
Aligned to gpa_Type_3.xyz, RMSD 0.20854
C -0.874117 -1.114970 -0.209700
C 0.611760 -1.064548 -0.242510
C 1.343778 0.090890 -0.093220
C 0.813367 1.324872 0.090920
C -0.674761 1.355418 0.159213
C -1.556878 0.072721 0.176536
H -1.340528 -2.233759 -0.208963
H 1.096105 -2.000573 -0.112471
H 2.375972 -0.157720 0.196113
H 1.243294 2.245932 0.350682
H -0.642386 1.172053 -0.899511
H -2.395605 0.309683 0.792912
12
Aligned to gpa_Type_1.xyz, RMSD 0.18961
C -0.646142 -0.922894 -0.012429
C 0.772131 -1.259083 0.174458
C 1.523885 -0.049509 0.216292
C 0.668632 1.040561 0.096240
C -0.672749 1.088969 -0.191155
C -1.384394 0.151170 0.704407
H -1.245059 -1.161493 -0.873688
H 1.080247 -2.217362 0.039730
H 2.573187 -0.110536 0.154461
H 1.169784 1.966394 -0.050531
H -1.340393 1.569944 -1.036343
H -2.499130 -0.096161 0.778557
12
Aligned to gpa_Type_1.xyz, RMSD 0.18764
C -0.719176 -0.881318 -0.025505
C 0.706473 -1.202335 0.136229
C 1.510098 0.023548 0.306134
C 0.651693 1.023298 0.118559
C -0.725119 1.107980 -0.137897
C -1.487466 0.113404 0.718574
H -1.329758 -1.267069 -0.800144
H 1.298476 -2.104853 -0.082824
H 2.586859 -0.140794 0.163311
H 1.261669 1.855163 -0.107163
H -1.268114 1.445965 -0.971421
H -2.485636 0.027010 0.682146
12
Aligned to gpa_Type_1.xyz, RMSD 0.10608
C -0.712947 -0.890018 -0.126124
C 0.759007 -1.159856 0.046539
C 1.443861 -0.052905 0.140886
C 0.728174 1.121474 -0.021528
C -0.728767 1.081569 -0.168899
C -1.325961 0.144643 0.730190
H -1.353523 -1.642380 -0.876130
H 1.104589 -2.173723 -0.023304
H 2.557039 -0.089963 0.420665
H 1.205334 1.992339 -0.019856
H -1.333517 1.506517 -0.853765
H -2.343289 0.162302 0.751325
12
Aligned to gpa_Type_2.xyz, RMSD 0.15934
C -0.976741 -1.100062 -0.496464
C 0.462968 -1.049134 -0.082542
C 1.260277 0.089393 0.372876
C 0.611128 1.254836 0.266268
C -0.671761 1.313474 -0.238059
C -1.367024 -0.028869 0.364267
H -1.369389 -2.067681 -0.700437
H 0.979214 -2.048783 0.001072
H 2.284449 -0.065163 0.568376
H 1.299197 2.004926 -0.221219
H -0.864822 1.869369 -1.190251
H -1.647493 -0.172308 1.356115
12
Aligned to gpa_Type_3.xyz, RMSD 0.20354
C -0.936621 -1.052492 -0.181902
C 0.679406 -1.096243 -0.171165
C 1.347850 0.119625 0.136741
C 0.774644 1.366510 0.098066
C -0.734206 1.377041 0.134058
C -1.586141 0.134051 0.402676
H -1.530364 -2.026445 -0.210542
H 1.393711 -2.043235 -0.252888
H 2.418435 -0.190652 -0.004839
H 1.307200 2.204230 0.326410
H -0.502228 1.057195 -0.985782
H -2.631687 0.150415 0.709170
12
Aligned to gpa_Type_2.xyz, RMSD 0.24081
C -0.851129 -1.199617 -0.610753
C 0.487674 -1.220842 -0.004134
C 1.224199 0.012933 0.286512
C 0.691457 1.242554 0.093404
C -0.599402 1.227275 -0.275603
C -1.214910 -0.079578 0.154890
H -1.509124 -2.073723 -0.826000
H 0.963577 -2.062452 0.314822
H 2.272113 -0.123354 0.558519
H 1.260420 2.248979 -0.116038
H -1.221466 1.962587 -0.814043
H -1.503407 0.065238 1.238426
12
Aligned to gpa_Type_2.xyz, RMSD 0.28161
C -0.914669 -1.140877 -0.664949
C 0.459762 -1.082643 -0.219231
C 1.225429 0.053650 0.107900
C 0.644625 1.376324 0.097366
C -0.661935 1.211227 -0.163113
C -1.297150 0.003621 0.161211
H -1.637380 -2.009477 -0.407508
H 0.887573 -1.953559 0.248803
H 2.172750 -0.102395 0.794095
H 1.328978 2.199007 -0.099326
H -0.885010 1.873128 -1.004182
H -1.322972 -0.428009 1.148937
12
Aligned to gpa_Type_2.xyz, RMSD 0.25637
C -0.853087 -1.207651 -0.677316
C 0.452284 -1.099839 -0.078552
C 1.334063 0.125105 0.280018
C 0.802485 1.374041 -0.058116
C -0.590834 1.236018 -0.099532
C -1.378042 -0.019843 0.285804
H -1.517348 -2.051082 -0.687848
H 0.819980 -2.066075 0.472720
H 2.412229 -0.128154 0.428893
H 1.263067 2.258528 -0.204872
H -0.899692 2.011504 -0.846934
H -1.845102 -0.432552 1.185736
12
Aligned to gpa_Type_2.xyz, RMSD 0.27142
C -0.854997 -1.160442 -0.647824
C 0.439993 -1.100372 0.018051
C 1.343918 0.175691 0.355176
C 0.835735 1.381837 -0.009490
C -0.540192 1.254975 -0.073533
C -1.420589 -0.009879 0.256047
H -1.368185 -2.103656 -0.741542
H 0.739915 -2.015103 0.431405
H 2.303398 -0.142302 0.299007
H 1.469384 2.295925 -0.282030
H -1.001069 1.859479 -0.729721
H -1.947311 -0.436154 1.124455
12
Aligned to gpa_Type_1.xyz, RMSD 0.15537
C -0.781758 -0.878467 -0.091623
C 0.610472 -1.165138 0.045293
C 1.522227 0.022543 0.014179
C 0.855563 1.192146 -0.034972
C -0.597130 1.008744 0.057022
C -1.526803 0.026083 0.729042
H -1.424538 -1.535736 -0.700020
H 1.179328 -2.146553 0.042794
H 2.671870 -0.111298 0.276922
H 1.314096 2.136028 -0.034181
H -1.184657 1.468767 -0.844195
H -2.638670 -0.017120 0.539738
12
Aligned to gpa_Type_2.xyz, RMSD 0.29765
C -0.767626 -1.053868 -0.208239
C 0.614259 -1.267899 0.040624
C 1.361775 -0.072075 0.107664
C 0.650985 1.274736 -0.191724
C -0.848483 1.207450 -0.317543
C -1.404435 0.138704 0.476971
H -1.181376 -1.663581 -0.945069
H 0.949847 -2.237796 0.250860
H 2.477755 -0.183430 0.333527
H 1.192334 2.097301 0.380656
H -1.166392 1.783304 -1.314750
H -1.878642 -0.022847 1.387022
12
Aligned to gpa_Type_2.xyz, RMSD 0.25658
C -1.103276 -1.090338 -0.463475
C 0.532323 -1.029387 -0.221590
C 1.256214 0.107912 0.143536
C 0.650236 1.385103 0.242976
C -0.684612 1.290278 -0.131507
C -1.402337 0.040014 0.266631
H -1.623737 -2.027329 -0.449976
H 1.196197 -2.010357 -0.002757
H 2.366876 -0.026233 0.295634
H 1.389814 2.156999 0.342936
H -0.670206 1.220186 -1.213703
H -1.907491 -0.016849 1.191295
12
Aligned to gpa_Type_2.xyz, RMSD 0.15830
C -0.947380 -1.122922 -0.541867
C 0.560628 -1.154119 -0.131279
C 1.231534 0.053510 0.137821
C 0.688837 1.289485 0.340347
C -0.692400 1.298736 -0.146754
C -1.327951 0.006349 0.256004
H -1.462825 -2.096158 -0.480458
H 1.083977 -2.087425 0.047097
H 2.196938 -0.094152 0.385088
H 1.297778 2.201904 0.120191
H -0.850507 1.691590 -1.241196
H -1.778628 0.013201 1.255007
12
Aligned to gpa_Type_2.xyz, RMSD 0.31438
C -0.771274 -1.248679 -0.060158
C 0.691073 -1.177370 -0.043910
C 1.283340 -0.075374 0.180481
C 0.575533 1.156125 0.258075
C -0.740040 1.258711 -0.433584
C -1.330456 0.073566 0.482671
H -1.450576 -1.970691 -0.716534
H 1.138286 -2.054931 -0.228167
H 2.260895 -0.044148 0.241031
H 1.141692 2.073487 0.410322
H -0.839150 1.686115 -1.382988
H -1.959322 0.323187 1.292763
12
Aligned to gpa_Type_2.xyz, RMSD 0.32948
C -0.774782 -0.930521 -0.282433
C 0.494848 -1.266276 0.080364
C 1.128475 -0.066669 0.333663
C 0.645162 1.221065 -0.006025
C -0.687221 0.984720 -0.493660
C -1.424489 0.050382 0.435425
H -1.268019 -1.666665 -0.918378
H 1.089954 -2.147424 -0.156504
H 2.219121 -0.259194 0.567208
H 1.126969 2.299726 0.277474
H -1.156758 1.526848 -1.354836
H -1.393259 0.254007 1.517702
12
Aligned to gpa_Type_2.xyz, RMSD 0.37314
C -0.768278 -0.984640 -0.196764
C 0.516519 -1.210312 0.025748
C 1.269672 -0.060382 0.301972
C 0.608178 1.280606 0.061093
C -0.658649 0.981119 -0.499030
C -1.315393 0.184265 0.471177
H -1.298263 -1.482401 -1.088243
H 0.913457 -2.262985 -0.086396
H 2.239925 -0.124234 0.581975
H 0.956042 2.175115 0.257475
H -1.120597 1.338627 -1.405794
H -1.342612 0.165221 1.576786
12
Aligned to gpa_Type_2.xyz, RMSD 0.40460
C -0.853554 -1.093686 -0.184335
C 0.537228 -1.238761 0.009952
C 1.298014 -0.092143 0.322711
C 0.544968 1.212192 0.127652
C -0.699721 0.985022 -0.487059
C -1.311439 0.172882 0.465220
H -1.385908 -1.400379 -1.122630
H 0.870270 -2.280390 -0.113490
H 2.386812 -0.047762 0.645839
H 1.037821 2.331761 0.248946
H -1.155547 1.276307 -1.481024
H -1.268944 0.174956 1.568219
12
Aligned to gpa_Type_2.xyz, RMSD 0.43445
C -0.912916 -1.056638 -0.404681
C 0.442408 -1.114513 0.290693
C 1.278134 0.003229 0.364473
C 0.749668 1.163652 -0.063764
C -0.904481 1.254268 -0.209323
C -1.433023 0.050932 0.486807
H -1.183497 -1.330022 -1.499266
H 0.888920 -2.170578 0.357747
H 2.315835 -0.122728 0.665841
H 1.427575 2.073706 -0.284734
H -1.410511 1.533206 -1.264315
H -1.258112 -0.284516 1.560522
12
Aligned to gpa_Type_2.xyz, RMSD 0.38668
C -1.020129 -1.179576 -0.146423
C 0.668317 -1.242539 -0.045763
C 1.227907 -0.089023 0.324644
C 0.543129 1.057604 0.183650
C -0.863767 1.146394 -0.458467
C -1.503616 0.079621 0.477242
H -1.445040 -1.522188 -0.981693
H 1.296368 -2.007417 -0.207520
H 2.318788 -0.089845 0.587402
H 1.133923 2.072146 0.292132
H -1.019773 1.399390 -1.464102
H -1.336105 0.375432 1.438899
12
Aligned to gpa_Type_2.xyz, RMSD 0.30726
C -0.727970 -1.037315 -0.439022
C 0.557493 -1.189721 0.061603
C 1.391265 -0.013125 0.168573
C 0.720819 1.165504 0.016495
C -0.753217 1.112774 -0.259705
C -1.412859 -0.002609 0.328174
H -1.236717 -1.836422 -1.099936
H 0.531831 -2.254515 0.536072
H 2.483253 0.171001 0.327630
H 1.323453 2.178642 -0.143373
H -1.070514 1.902343 -0.848125
H -1.806836 -0.196559 1.351615
12
Aligned to gpa_Type_3.xyz, RMSD 0.20784
C -0.895204 -1.076612 -0.031636
C 0.588572 -1.088341 -0.203761
C 1.368759 0.079102 -0.125069
C 0.786207 1.360525 0.086240
C -0.794962 1.452161 0.036623
C -1.533236 0.110461 0.278131
H -1.418232 -1.992710 -0.336755
H 1.158353 -1.982694 0.069454
H 2.400661 -0.074626 -0.043364
H 1.379960 2.057927 0.624406
H -0.606468 1.123917 -1.172665
H -2.434411 0.030891 0.818397
12
Aligned to gpa_Type_3.xyz, RMSD 0.22525
C -0.915126 -1.108871 -0.055656
C 0.553377 -1.036646 -0.196936
C 1.369320 0.085512 -0.020312
C 0.782930 1.300044 0.052121
C -0.839566 1.445682 -0.005860
C -1.544957 0.141968 0.146328
H -1.432927 -1.979983 -0.356209
H 1.151406 -1.895585 0.014610
H 2.489959 -0.137904 0.059030
H 1.437121 2.087841 0.434181
H -0.635022 1.148632 -0.940519
H -2.416515 -0.050689 0.869223
12
Aligned to gpa_Type_1.xyz, RMSD 0.28177
C -0.707796 -0.934021 -0.190498
C 0.727157 -1.196618 0.167689
C 1.541784 -0.030124 0.201572
C 0.805057 1.049678 -0.106097
C -0.709850 1.086786 0.011553
C -1.648351 0.019927 0.497021
H -1.171526 -1.274040 -1.074220
H 0.996835 -2.154046 0.398025
H 2.575106 0.023664 0.115566
H 1.301070 1.893049 -0.288534
H -1.094177 1.803963 -0.714310
H -2.615309 -0.288220 0.982230
12
Aligned to gpa_Type_2.xyz, RMSD 0.28471
C -0.866030 -1.162590 -0.111164
C 0.588052 -1.112570 0.017675
C 1.395375 0.087056 0.135380
C 0.755189 1.252288 0.065257
C -0.658361 1.126586 -0.267160
C -1.245474 0.081029 0.486901
H -1.337613 -1.579372 -1.200895
H 0.929771 -2.162507 0.292784
H 2.438651 -0.174135 0.375709
H 1.213495 2.130218 0.095902
H -1.298059 1.483897 -1.127972
H -1.914994 0.030098 1.237585
12
Aligned to gpa_Type_3.xyz, RMSD 0.26382
C -0.886559 -1.075935 -0.282774
C 0.559872 -1.042748 -0.339369
C 1.344636 0.046769 0.224521
C 0.770216 1.290620 0.192546
C -0.752765 1.330720 0.106643
C -1.466167 0.134423 0.198566
H -1.512986 -1.960014 -0.186512
H 1.044249 -2.144976 -0.293297
H 2.421067 0.074725 0.356268
H 1.291803 2.212255 0.053483
H -0.589147 1.102801 -0.897645
H -2.224221 0.031359 0.867572
12
Aligned to gpa_Type_3.xyz, RMSD 0.27692
C -0.890747 -1.068359 -0.280406
C 0.552994 -1.058771 -0.326611
C 1.345963 0.044879 0.237983
C 0.784029 1.298685 0.206867
C -0.745747 1.310516 0.143620
C -1.492806 0.133088 0.231496
H -1.537687 -1.913278 -0.220262
H 1.060800 -2.172662 -0.292963
H 2.452300 0.072091 0.355555
H 1.269346 2.241064 0.032497
H -0.608428 1.098190 -0.948752
H -2.190019 0.014557 0.860978
12
Aligned to gpa_Type_1.xyz, RMSD 0.30478
C -0.816575 -1.102342 -0.159091
C 0.529249 -1.050015 0.220009
C 1.379067 0.016371 0.157876
C 0.794179 1.205606 0.084454
C -0.675669 1.196403 0.154683
C -1.462219 0.039238 0.594955
H -1.043222 -1.635602 -1.114705
H 0.956771 -2.019925 -0.092281
H 2.434735 -0.077070 0.229285
H 1.348566 2.081460 -0.090932
H -0.960194 1.225707 -1.182733
H -2.484689 0.120168 1.198479
12
Aligned to gpa_Type_1.xyz, RMSD 0.26248
C -0.845243 -1.096434 -0.187516
C 0.497934 -1.030748 0.225667
C 1.345948 0.000714 0.151405
C 0.777940 1.155117 0.080180
C -0.718477 1.204792 0.061149
C -1.470736 0.035301 0.583514
H -1.102580 -1.544069 -1.102104
H 1.014324 -2.138797 0.065521
H 2.465264 -0.013652 0.151841
H 1.347184 2.063262 -0.041912
H -1.044725 1.272863 -1.044831
H -2.266835 0.091650 1.057087
12
Aligned to gpa_Type_3.xyz, RMSD 0.20141
C -0.875193 -0.992459 -0.156614
C 0.567788 -1.058396 -0.211909
C 1.405076 0.074038 0.057162
C 0.742100 1.224752 0.135199
C -0.775815 1.394390 -0.016057
C -1.462673 0.128524 0.295378
H -1.318050 -1.881743 -0.200751
H 0.958271 -2.036187 -0.353207
H 2.425651 -0.052628 0.363280
H 1.356618 2.204575 0.357808
H -0.647618 1.023657 -1.194958
H -2.376155 -0.028520 0.924671
12
Aligned to gpa_Type_2.xyz, RMSD 0.29370
C -0.896117 -1.018487 -0.179118
C 0.677525 -1.182681 -0.126200
C 1.411429 0.020412 0.206438
C 0.811362 1.239359 -0.040626
C -0.697023 1.133842 -0.239886
C -1.451650 0.061978 0.506021
H -1.339318 -1.592598 -0.819755
H 1.207256 -2.082853 -0.217439
H 2.319405 -0.176665 0.573660
H 1.229927 2.183125 0.112854
H -1.002089 1.272775 -1.220196
H -2.270704 0.141791 1.444248
12
Aligned to gpa_Type_3.xyz, RMSD 0.19079
C -0.817959 -1.084441 -0.141591
C 0.523292 -1.069941 -0.222959
C 1.387079 0.076436 -0.037990
C 0.751410 1.362931 0.247610
C -0.794105 1.541375 -0.028905
C -1.536360 0.171141 0.236525
H -1.274061 -2.121432 -0.040035
H 1.105721 -2.038701 -0.069419
H 2.413688 -0.188276 -0.110762
H 1.295355 2.067662 0.726443
H -0.635029 1.204475 -1.347811
H -2.419033 0.078772 0.788895
12
Aligned to gpa_Type_3.xyz, RMSD 0.20983
C -0.789536 -1.162789 -0.051912
C 0.617546 -1.157001 -0.174851
C 1.406653 0.002937 -0.120673
C 0.851962 1.316419 0.164470
C -0.723137 1.500744 -0.178347
C -1.470758 0.041629 0.102483
H -1.471380 -2.060352 -0.107358
H 0.976624 -2.118421 -0.289360
H 2.415075 0.241816 0.087589
H 1.275696 2.153187 0.790170
H -0.732136 0.913482 -1.080061
H -2.356608 0.328350 0.857850
12
Aligned to gpa_Type_3.xyz, RMSD 0.19454
C -0.794293 -1.108412 0.029946
C 0.528279 -1.026675 -0.334897
C 1.321781 -0.031884 -0.021721
C 0.860098 1.295135 0.192678
C -0.739728 1.215703 0.110847
C -1.497549 0.057658 0.390579
H -1.337403 -2.056229 0.000851
H 0.980388 -1.941376 -0.408360
H 2.387975 0.065138 0.050615
H 1.240682 2.278128 0.346267
H -0.192174 1.014822 -0.855401
H -2.758058 0.237994 0.498599
12
Aligned to gpa_Type_1.xyz, RMSD 0.22151
C -0.683326 -0.934990 -0.070680
C 0.670523 -1.243570 0.242567
C 1.405069 -0.050978 0.280260
C 0.831824 1.070967 -0.079113
C -0.634540 0.976539 -0.105701
C -1.425592 0.124056 0.773367
H -1.267879 -1.174576 -0.925875
H 1.203955 -2.113976 0.064936
H 2.510119 -0.168881 0.236788
H 1.084563 2.005035 -0.369770
H -1.191403 1.661280 -0.615316
H -2.503315 -0.150907 0.568536
12
Aligned to gpa_Type_2.xyz, RMSD 0.29047
C -0.759170 -1.064761 -0.329788
C 0.572469 -1.272488 -0.212634
C 1.177478 0.019281 0.086164
C 0.724215 1.202523 0.152167
C -0.845751 1.343503 0.043772
C -1.337700 0.028958 0.354945
H -1.479525 -1.974030 -0.456100
H 1.032898 -2.148599 0.018970
H 2.325615 0.105866 0.152525
H 1.167481 2.217532 0.307729
H -0.535169 1.370341 -1.112696
H -2.042841 0.171874 0.994945
12
Aligned to gpa_Type_2.xyz, RMSD 0.25175
C -0.745406 -0.926782 -0.355453
C 0.636279 -1.142420 -0.111122
C 1.395435 -0.061918 0.244578
C 0.824431 1.119946 -0.034328
C -0.549628 1.035576 -0.327311
C -1.531838 0.149045 0.403590
H -1.392869 -1.659469 -0.819616
H 0.830159 -2.255167 0.270879
H 2.415802 0.088841 0.521656
H 1.290787 2.237500 -0.064792
H -1.241739 1.701438 -0.967157
H -1.931411 -0.286591 1.239078
12
Aligned to gpa_Type_1.xyz, RMSD 0.15602
C -0.783105 -0.939444 -0.206391
C 0.750400 -1.117246 -0.043663
C 1.448862 -0.029931 0.273470
C 0.859523 1.114902 -0.055426
C -0.700955 0.999122 -0.061133
C -1.428389 0.044697 0.709717
H -1.216074 -1.679240 -0.872504
H 1.157666 -2.185308 0.130102
H 2.547773 -0.120459 0.205475
H 1.312379 2.067085 0.004929
H -1.476601 1.502286 -0.761133
H -2.471479 0.343535 0.676556
12
Aligned to gpa_Type_3.xyz, RMSD 0.29508
C -0.875349 -1.098376 -0.160097
C 0.604463 -1.015524 -0.343443
C 1.399181 0.068524 0.069960
C 0.777221 1.244057 0.185587
C -0.677162 1.390657 -0.011104
C -1.298507 0.102141 0.426573
H -1.560342 -1.862347 -0.460443
H 0.849054 -1.989446 -0.128208
H 2.444889 -0.010073 0.340700
H 1.157296 2.293426 0.212244
H -0.607789 0.923538 -1.073498
H -2.212957 -0.046575 0.941731
12
Aligned to gpa_Type_3.xyz, RMSD 0.19887
C -0.814743 -1.075233 -0.127004
C 0.575888 -1.142488 -0.281158
C 1.318914 0.044011 -0.096926
C 0.779449 1.279817 0.339437
C -0.681031 1.472594 0.118545
C -1.446069 0.149660 0.300502
H -1.490140 -1.919936 -0.181012
H 0.987215 -2.138293 -0.006799
H 2.429097 0.134649 -0.063219
H 1.327850 2.192878 0.311386
H -0.473162 1.119304 -0.890645
H -2.513269 -0.116961 0.576895
12
Aligned to gpa_Type_2.xyz, RMSD 0.24826
C -0.755076 -0.981628 -0.259166
C 0.605304 -1.189719 0.041708
C 1.341285 -0.106492 0.249812
C 0.641477 1.206896 0.084255
C -0.672747 1.013511 -0.439285
C -1.503107 0.072884 0.289049
H -1.401515 -1.745673 -0.574961
H 1.096533 -2.129274 -0.094888
H 2.318033 0.018439 0.241856
H 1.218128 2.107561 0.360860
H -0.961071 1.636604 -1.187296
H -1.927245 0.096890 1.288056
12
Aligned to gpa_Type_2.xyz, RMSD 0.21135
C -0.881329 -1.180890 -0.663681
C 0.533918 -1.177651 -0.154449
C 1.165556 0.043772 0.486274
C 0.704729 1.275416 0.004425
C -0.643538 1.214942 -0.333652
C -1.388710 -0.089364 0.320570
H -1.522092 -2.024996 -0.740337
H 1.041679 -2.090146 0.288504
H 2.241807 -0.067750 0.457959
H 1.350883 2.222284 -0.080795
H -0.979644 1.990144 -0.985212
H -1.623258 -0.115762 1.400393
12
Aligned to gpa_Type_2.xyz, RMSD 0.18221
C -0.898272 -1.095652 -0.599317
C 0.512168 -1.198746 -0.033004
C 1.208884 0.060548 0.503332
C 0.740368 1.235765 0.128735
C -0.599071 1.307155 -0.235943
C -1.270278 0.015199 0.166876
H -1.550665 -2.057562 -0.681595
H 0.896136 -2.152604 0.145515
H 2.302949 0.146075 0.388494
H 1.297441 2.071141 0.027826
H -1.114734 1.751919 -1.044817
H -1.524925 -0.083239 1.233899
12
Aligned to gpa_Type_2.xyz, RMSD 0.23502
C -0.924895 -1.097285 -0.457921
C 0.481105 -1.185594 0.020272
C 1.319656 -0.021071 0.315164
C 0.632033 1.226324 0.202122
C -0.646164 1.288507 -0.232090
C -1.152571 0.053929 0.165093
H -1.356688 -2.024856 -0.809013
H 0.790470 -2.218040 0.122199
H 2.364269 0.173232 0.607507
H 1.261596 1.933217 -0.148842
H -1.278405 1.870381 -0.937042
H -1.490406 0.001255 1.152553
12
Aligned to gpa_Type_1.xyz, RMSD 0.16945
C -0.838805 -0.939714 -0.069499
C 0.559067 -1.051740 0.217840
C 1.625625 0.017452 0.101996
C 0.877147 1.097316 -0.043208
C -0.656690 1.000110 -0.102790
C -1.512166 -0.025109 0.645592
H -1.130244 -1.516854 -0.946687
H 1.051047 -2.049879 -0.123363
H 2.610876 -0.198982 0.415172
H 1.174902 2.085794 -0.138234
H -1.224864 1.434668 -0.885131
H -2.535896 0.146940 0.928310
12
Aligned to gpa_Type_2.xyz, RMSD 0.36303
C -0.979236 -1.177814 -0.512944
C 0.507682 -1.204031 -0.121859
C 1.294528 0.033074 0.235624
C 0.643017 1.193433 0.123213
C -0.651937 1.177366 -0.244599
C -1.381945 -0.059842 0.340898
H -1.438649 -1.760218 -1.262177
H 0.743117 -1.983950 0.618463
H 2.284878 0.128340 0.677724
H 1.312725 2.009679 -0.310029
H -1.143056 1.866982 -0.960293
H -1.191124 -0.223019 1.415979
12
Aligned to gpa_Type_2.xyz, RMSD 0.35283
C -0.910981 -1.188706 -0.541886
C 0.542397 -1.200602 -0.074131
C 1.291688 0.025142 0.290541
C 0.641343 1.264150 0.113755
C -0.658787 1.154495 -0.222001
C -1.381196 -0.062822 0.355073
H -1.513089 -1.838583 -1.226442
H 0.626202 -1.927435 0.656649
H 2.338797 0.173114 0.498656
H 1.307454 2.023343 -0.278274
H -0.987905 1.902332 -0.967782
H -1.295921 -0.324428 1.395844
12
Aligned to gpa_Type_2.xyz, RMSD 0.15982
C -0.857483 -1.052257 -0.472821
C 0.448214 -1.188780 -0.127992
C 1.294481 0.014533 0.373492
C 0.602705 1.203637 0.158766
C -0.744244 1.393346 -0.097917
C -1.267483 0.046543 0.288563
H -1.384647 -1.985788 -0.558475
H 0.911108 -2.127740 -0.196280
H 2.344854 0.022253 0.728870
H 1.224209 2.103538 -0.242035
H -0.861419 1.669362 -1.112064
H -1.710293 -0.098648 1.257893
12
Aligned to gpa_Type_2.xyz, RMSD 0.19127
C -0.866890 -1.032044 -0.544588
C 0.492747 -1.119779 -0.219671
C 1.266339 0.063941 0.386989
C 0.615726 1.263922 0.230875
C -0.752384 1.361176 -0.017515
C -1.292994 0.042774 0.271428
H -1.405928 -1.965672 -0.484404
H 0.935345 -2.199988 -0.170702
H 2.313530 0.081140 0.682117
H 1.193474 1.996142 -0.303295
H -0.731568 1.602101 -1.073695
H -1.767396 -0.093714 1.242462
12
Aligned to gpa_Type_2.xyz, RMSD 0.18016
C -0.955822 -1.181646 -0.636004
C 0.512388 -1.056400 -0.235375
C 1.256549 0.102382 0.287108
C 0.738544 1.389942 0.166569
C -0.671680 1.239482 -0.136555
C -1.327712 -0.015427 0.223487
H -1.457368 -2.163620 -0.586237
H 0.907605 -2.005545 0.176690
H 2.172278 -0.222612 0.594856
H 1.313643 2.215757 -0.023777
H -0.998860 1.781722 -1.117872
H -1.489563 -0.084037 1.287111
12
Aligned to gpa_Type_2.xyz, RMSD 0.21243
C -0.924834 -1.035425 -0.722012
C 0.423767 -1.074694 -0.225738
C 1.218089 0.015386 0.228705
C 0.798093 1.384816 0.072062
C -0.615872 1.295259 -0.104541
C -1.423701 0.061553 0.171843
H -1.253539 -1.997095 -0.448001
H 0.865804 -1.954081 0.329665
H 2.254183 -0.237311 0.521223
H 1.451376 2.216697 -0.032147
H -1.145745 1.653606 -0.973558
H -1.647618 -0.328712 1.182500
12
Aligned to gpa_Type_1.xyz, RMSD 0.15267
C -0.789061 -0.944182 -0.046617
C 0.600689 -1.090590 0.227421
C 1.636175 0.004095 0.088578
C 0.841274 1.084606 -0.048908
C -0.666183 0.991983 -0.088555
C -1.511925 -0.017126 0.670600
H -1.157816 -1.495362 -0.848111
H 0.921200 -2.099728 -0.136853
H 2.685443 -0.116448 0.360047
H 1.205041 2.151830 -0.111542
H -1.162116 1.480175 -0.887648
H -2.602721 0.050748 0.821588
12
Aligned to gpa_Type_1.xyz, RMSD 0.23432
C -0.736971 -1.000970 -0.095986
C 0.798935 -1.328632 -0.019723
C 1.473085 -0.046812 0.311294
C 0.688641 1.043981 -0.110282
C -0.760138 0.949718 -0.257095
C -1.387593 0.058107 0.745200
H -1.464960 -1.462634 -0.834386
H 1.283635 -2.247736 -0.254166
H 2.590324 0.082316 0.776177
H 1.291775 2.004775 -0.354123
H -1.309430 1.758447 -0.780847
H -2.467306 0.189441 0.873936
12
Aligned to gpa_Type_1.xyz, RMSD 0.21220
C -0.756964 -0.870943 -0.127038
C 0.744447 -1.219254 0.032119
C 1.407364 -0.048656 0.297585
C 0.714670 1.044024 -0.220071
C -0.693001 0.978554 -0.255642
C -1.303758 0.183561 0.684473
H -1.297973 -1.495570 -0.745544
H 1.175790 -2.188955 -0.259032
H 2.284847 0.019111 0.685371
H 1.240771 1.942530 -0.184627
H -1.191717 1.677506 -0.841657
H -2.324477 -0.021908 0.934060
12
Aligned to gpa_Type_1.xyz, RMSD 0.18082
C -0.649758 -0.921556 -0.321497
C 0.605609 -1.130485 -0.012196
C 1.409317 -0.034642 0.222933
C 0.809676 1.124984 -0.160328
C -0.650146 1.060776 -0.246814
C -1.289943 -0.034253 0.625208
H -1.271771 -1.572954 -0.858959
H 1.059295 -2.165466 0.097192
H 2.358957 -0.137026 0.496759
H 1.137728 2.086093 -0.019303
H -1.244016 1.639318 -0.919421
H -2.274949 0.085212 1.096426
12
Aligned to gpa_Type_2.xyz, RMSD 0.34302
C -0.807421 -1.054432 -0.214034
C 0.689636 -1.178102 -0.026314
C 1.419322 -0.110918 0.202903
C 0.726531 1.147641 -0.029368
C -0.616819 1.001427 -0.435384
C -1.398391 0.055340 0.409989
H -1.487544 -1.713590 -0.732703
H 1.059711 -2.117455 -0.496172
H 2.291180 -0.008076 0.964476
H 1.051819 2.129707 0.133852
H -1.191911 1.491759 -1.179227
H -1.736112 0.356697 1.401983
12
Aligned to gpa_Type_2.xyz, RMSD 0.24925
C -0.759904 -1.096810 -0.635308
C 0.479730 -1.196205 0.185668
C 1.208343 0.019090 0.507478
C 0.647653 1.253424 0.029350
C -0.681883 1.345519 -0.143908
C -1.324184 -0.037581 0.235841
H -1.257112 -2.082714 -0.790294
H 1.012034 -2.162370 0.302663
H 2.101903 -0.065202 0.038879
H 1.375056 2.065812 -0.031468
H -1.026290 1.969854 -0.949167
H -1.775346 -0.012819 1.250266
12
Aligned to gpa_Type_3.xyz, RMSD 0.20814
C -0.808727 -1.001484 0.023094
C 0.618809 -1.035592 -0.300634
C 1.306872 0.046004 0.104353
C 0.758456 1.298000 0.118811
C -0.806191 1.415157 -0.037865
C -1.440649 0.142232 0.231535
H -1.331984 -1.858719 0.304510
H 1.003576 -1.960204 -0.731169
H 2.232807 0.027611 0.313747
H 1.394838 2.007149 0.514956
H -0.501085 0.944226 -1.105454
H -2.426723 -0.024377 0.564116
12
Aligned to gpa_Type_3.xyz, RMSD 0.27407
C -0.883695 -1.174024 -0.022869
C 0.523898 -1.085100 -0.151586
C 1.369015 0.152328 0.126593
C 0.709132 1.333760 0.264020
C -0.702075 1.401698 0.022159
C -1.430561 0.167259 0.427048
H -1.216469 -2.158909 -0.480843
H 1.014032 -2.016713 -0.396418
H 2.541369 -0.261285 0.243737
H 1.136618 2.324256 0.104158
H -0.621251 0.940574 -0.914213
H -2.440015 0.376158 0.778215
12
Aligned to gpa_Type_2.xyz, RMSD 0.23841
C -0.723792 -0.912033 -0.256105
C 0.696564 -1.116267 -0.190352
C 1.371572 -0.124226 0.306576
C 0.670996 1.174079 0.188653
C -0.709183 1.145718 -0.352771
C -1.456043 0.154837 0.474673
H -1.273265 -1.828066 -0.663867
H 1.058442 -2.091475 -0.205725
H 2.351886 -0.250629 0.540487
H 1.088003 2.131894 0.054572
H -1.081882 1.518013 -1.227073
H -1.993297 0.198153 1.330932
12
Aligned to gpa_Type_3.xyz, RMSD 0.15993
C -0.855950 -1.029999 -0.142405
C 0.492815 -0.966276 -0.211842
C 1.435513 0.069539 0.016155
C 0.705190 1.229735 0.273356
C -0.817134 1.413489 -0.012189
C -1.572333 0.123184 0.184136
H -1.306808 -2.016339 0.105332
H 1.025692 -1.875923 -0.422768
H 2.449867 -0.112087 0.222975
H 1.377711 2.052233 0.408861
H -0.476513 1.130387 -1.233351
H -2.458051 -0.017944 0.811743
12
Aligned to gpa_Type_3.xyz, RMSD 0.29955
C -0.724105 -1.087689 0.008693
C 0.670353 -1.070901 -0.129423
C 1.317588 0.045846 0.018775
C 0.620946 1.257768 0.361796
C -0.648558 1.116088 -0.280474
C -1.293322 0.144872 0.584909
H -1.525399 -1.722552 -0.336744
H 1.116157 -2.143502 -0.467311
H 2.414917 -0.035837 0.125731
H 0.989904 2.268821 0.572683
H -0.603530 0.857565 -1.356597
H -2.334951 0.369522 0.897963
12
Aligned to gpa_Type_2.xyz, RMSD 0.16316
C -0.775628 -0.937892 -0.391453
C 0.562863 -1.081642 -0.065135
C 1.343204 0.041080 0.163824
C 0.618121 1.330553 0.003123
C -0.876065 1.343485 -0.048910
C -1.460290 0.064705 0.278981
H -1.339748 -1.933463 -0.648497
H 0.839436 -2.147032 -0.052822
H 2.411317 -0.180920 0.565576
H 1.199057 2.157422 0.032360
H -0.731073 1.482488 -1.225258
H -1.791192 -0.138785 1.388213
12
Aligned to gpa_Type_1.xyz, RMSD 0.26473
C -0.844813 -1.046933 -0.107142
C 0.600440 -1.130669 0.083555
C 1.328104 -0.048138 0.248174
C 0.754227 1.175284 0.044859
C -0.709648 0.989636 -0.205090
C -1.634324 0.027307 0.497061
H -1.153836 -1.571180 -1.009048
H 1.322335 -1.997036 -0.034729
H 2.497078 -0.018203 0.264494
H 1.541495 1.888726 0.044844
H -1.265500 1.472121 -1.070875
H -2.435561 0.259084 1.243896
12
Aligned to gpa_Type_2.xyz, RMSD 0.30759
C -0.819620 -1.192166 -0.405491
C 0.459293 -1.075719 0.178256
C 1.279564 0.059566 0.292545
C 0.776506 1.270612 0.014937
C -0.676300 1.183311 -0.110543
C -1.373167 -0.012650 0.317449
H -1.309169 -1.522631 -1.293205
H 1.014977 -2.039605 0.322689
H 2.444515 -0.224195 0.554503
H 1.333742 2.063562 -0.353183
H -1.363228 1.499994 -0.846517
H -1.767112 -0.010078 1.328560
12
Aligned to gpa_Type_3.xyz, RMSD 0.15533
C -0.818856 -1.135764 0.026748
C 0.625185 -1.127045 -0.187791
C 1.340046 0.170747 -0.070126
C 0.743874 1.389845 0.162455
C -0.764733 1.499035 -0.053255
C -1.342886 0.092230 0.262285
H -1.373816 -1.979777 0.010288
H 0.886678 -2.058803 -0.438069
H 2.327701 -0.101047 0.182205
H 1.235736 2.146113 0.653349
H -0.567142 1.047329 -1.251130
H -2.291788 0.057137 0.703043
12
Aligned to gpa_Type_3.xyz, RMSD 0.30861
C -0.859015 -1.092933 -0.034106
C 0.396554 -1.054095 -0.082603
C 1.329338 0.056885 0.086499
C 0.818922 1.370700 0.154953
C -0.710581 1.311043 0.182925
C -1.443248 0.030606 0.511002
H -1.301207 -1.947805 -0.423930
H 1.093386 -1.808833 -0.482099
H 2.304729 -0.203709 0.464879
H 1.339413 2.235779 -0.066389
H -0.458041 1.063892 -1.091503
H -2.510252 0.038471 0.780374
12
Aligned to gpa_Type_3.xyz, RMSD 0.32516
C -0.893132 -1.120725 -0.114162
C 0.465459 -1.045727 -0.052834
C 1.292364 0.050905 0.114483
C 0.863224 1.383552 0.129636
C -0.698242 1.316098 0.164779
C -1.450873 0.023342 0.510541
H -1.490043 -2.036573 -0.422568
H 1.115528 -1.797922 -0.509940
H 2.419165 -0.146803 0.538383
H 1.455290 2.319743 -0.007294
H -0.591583 1.033956 -1.213604
H -2.487158 0.020154 0.862581
12
Aligned to gpa_Type_2.xyz, RMSD 0.15183
C -0.771776 -0.992725 -0.648973
C 0.562270 -1.065038 -0.134578
C 1.360810 0.080954 0.124950
C 0.631027 1.213538 0.107149
C -0.746180 1.295893 -0.079649
C -1.367591 0.079124 0.285746
H -1.447775 -1.946328 -0.623239
H 1.047307 -2.054422 0.102004
H 2.376642 -0.196527 0.712042
H 1.375728 2.016474 -0.064660
H -1.192797 1.604460 -1.109387
H -1.827664 -0.035403 1.328594
12
Aligned to gpa_Type_2.xyz, RMSD 0.33508
C -0.821955 -1.106417 -0.567167
C 0.562409 -1.076926 -0.279882
C 1.226078 0.063907 0.207922
C 0.665255 1.399396 0.036091
C -0.646529 1.282728 -0.365571
C -1.114543 -0.013185 0.197667
H -1.637862 -2.075910 -0.560113
H 1.009840 -2.019084 0.030334
H 1.971419 -0.276426 1.005748
H 1.380535 2.121064 0.087269
H -1.387446 1.723786 -1.090905
H -1.207200 -0.022932 1.298609
12
Aligned to gpa_Type_2.xyz, RMSD 0.25812
C -0.861179 -1.075948 -0.508514
C 0.517024 -1.178568 -0.331326
C 1.173557 -0.058978 0.219289
C 0.617228 1.362068 0.019005
C -0.730478 1.227431 -0.321663
C -1.072285 0.017172 0.309319
H -1.321693 -1.865150 -0.558951
H 0.849605 -2.002514 0.256400
H 2.037925 -0.201404 0.758612
H 1.378651 2.187275 -0.054996
H -1.131498 1.873735 -1.043793
H -1.456855 -0.285119 1.256619
12
Aligned to gpa_Type_2.xyz, RMSD 0.23794
C -0.841010 -1.118111 -0.277069
C 0.591553 -1.158922 0.161364
C 1.334361 0.037024 0.242320
C 0.687170 1.211635 0.124746
C -0.838332 1.133121 -0.029266
C -1.366387 0.013885 0.377002
H -1.201010 -1.604233 -1.014445
H 1.025180 -2.138868 0.202273
H 2.342552 -0.275065 0.220630
H 1.230123 2.266858 -0.182339
H -0.929860 1.609113 -1.049801
H -2.034340 0.023563 1.224586
12
Aligned to gpa_Type_2.xyz, RMSD 0.19304
C -0.976881 -1.030493 -0.516041
C 0.528893 -1.099917 -0.084978
C 1.354607 0.005607 0.162358
C 0.726271 1.342253 0.170148
C -0.712593 1.264666 -0.166704
C -1.422993 0.033318 0.300701
H -1.448100 -2.082074 -0.525799
H 1.005668 -2.103982 0.033496
H 2.299735 -0.065959 0.258895
H 1.430405 2.383143 0.306812
H -0.831492 1.368206 -1.200721
H -1.953518 -0.014770 1.261835
12
Aligned to gpa_Type_2.xyz, RMSD 0.25040
C -0.724882 -0.936986 -0.302707
C 0.598426 -1.117869 0.098356
C 1.424491 -0.017046 0.167417
C 0.673956 1.192239 0.068299
C -0.651707 1.178403 -0.343883
C -1.520851 0.168977 0.303088
H -1.168489 -1.885707 -0.865857
H 0.885620 -2.220368 0.200027
H 2.479910 -0.162770 0.241449
H 1.147386 2.010687 0.245653
H -1.257102 1.717414 -1.120306
H -1.886758 0.073025 1.308464
12
Aligned to gpa_Type_2.xyz, RMSD 0.27122
C -0.879749 -1.235092 -0.340556
C 0.521533 -1.235863 -0.039092
C 1.280854 -0.032884 0.021462
C 0.757225 1.251111 -0.002544
C -0.699879 1.132881 -0.328251
C -1.303497 0.015983 0.397929
H -1.235026 -1.827809 -1.078389
H 0.875349 -2.297159 0.193867
H 2.304016 0.066672 0.736169
H 1.405359 2.224784 -0.005635
H -1.320944 1.778808 -0.960867
H -1.705239 0.158567 1.405908
12
Aligned to gpa_Type_1.xyz, RMSD 0.16664
C -0.720936 -0.899683 -0.139906
C 0.723469 -1.133398 0.032209
C 1.575358 0.022604 0.123818
C 0.722448 1.094196 -0.092979
C -0.793972 1.068698 0.010808
C -1.647675 0.049274 0.714178
H -0.998894 -1.577027 -0.841777
H 1.073830 -2.270812 -0.035171
H 2.614916 -0.136753 0.381444
H 1.311713 2.027658 -0.178643
H -1.218764 1.558433 -0.797754
H -2.641493 0.196810 0.823772
12
Aligned to gpa_Type_1.xyz, RMSD 0.18082
C -0.819268 -0.957862 0.022650
C 0.774208 -1.140360 -0.023716
C 1.564950 -0.015915 0.013018
C 0.925360 1.126576 0.065208
C -0.601941 0.905912 -0.110334
C -1.575811 0.009557 0.688672
H -1.342709 -1.632331 -0.734519
H 1.008732 -2.249264 -0.170953
H 2.585481 0.157381 0.452812
H 1.163607 2.063213 -0.090323
H -0.983340 1.620501 -0.961250
H -2.699271 0.112592 0.848734
12
Aligned to gpa_Type_3.xyz, RMSD 0.14943
C -0.826141 -1.058525 -0.178397
C 0.631343 -1.026877 -0.331385
C 1.384452 0.044700 0.054401
C 0.753311 1.278191 0.287792
C -0.661675 1.395381 0.070943
C -1.539366 0.115559 0.247307
H -1.429681 -2.037946 -0.008165
H 1.000506 -1.917794 -0.322756
H 2.488614 -0.119915 0.081499
H 1.099511 2.230629 0.363676
H -0.381203 0.939995 -1.041581
H -2.519672 0.156604 0.776669
12
Aligned to gpa_Type_3.xyz, RMSD 0.15038
C -0.805010 -1.182356 0.033281
C 0.459630 -1.137892 -0.289235
C 1.337768 0.069158 -0.144871
C 0.731052 1.327670 0.205085
C -0.865727 1.353457 0.032793
C -1.473666 0.102881 0.355710
H -1.271883 -2.193353 -0.058765
H 0.979384 -1.951547 -0.317289
H 2.440434 -0.074953 0.159153
H 1.298050 2.233932 0.541939
H -0.396172 1.170200 -1.185890
H -2.433862 0.282805 0.668091
12
Aligned to gpa_Type_3.xyz, RMSD 0.15219
C -0.897129 -1.155494 -0.189471
C 0.487019 -1.035633 -0.286967
C 1.333010 0.102715 -0.006792
C 0.728443 1.353871 0.226212
C -0.780135 1.357800 -0.031364
C -1.451192 0.064636 0.253542
H -1.356180 -2.062971 0.075005
H 1.085284 -2.070051 -0.191825
H 2.400511 -0.095524 -0.093273
H 1.201589 2.187553 0.600362
H -0.267193 1.207425 -1.109724
H -2.484030 0.145674 0.754294
12
Aligned to gpa_Type_3.xyz, RMSD 0.18016
C -0.859160 -1.083939 -0.058040
C 0.580075 -1.081147 -0.008566
C 1.440399 0.126578 0.025475
C 0.763196 1.340956 0.025328
C -0.736538 1.299707 0.025102
C -1.464681 0.053606 0.325540
H -1.499224 -2.084432 -0.228533
H 0.880757 -1.994418 -0.410316
H 2.501535 0.009961 0.177070
H 1.227136 2.215097 0.436804
H -0.420494 1.099739 -1.127874
H -2.413003 0.098294 0.818011
12
Aligned to gpa_Type_2.xyz, RMSD 0.17372
C -0.893047 -1.125319 -0.491762
C 0.577531 -1.179394 0.070333
C 1.378147 0.067531 0.060107
C 0.753428 1.249620 0.069304
C -0.687871 1.194310 -0.067381
C -1.315383 0.042338 0.369811
H -1.644552 -1.799844 -0.834115
H 1.049266 -2.177969 0.180062
H 2.421932 0.009469 0.558513
H 1.110928 2.184547 -0.094810
H -0.866392 1.664556 -1.057121
H -1.883987 -0.129847 1.237058
12
Aligned to gpa_Type_2.xyz, RMSD 0.17058
C -0.855376 -1.144611 -0.441929
C 0.528665 -1.124340 0.039019
C 1.384066 0.092293 0.123564
C 0.704457 1.278006 0.173761
C -0.711422 1.143429 -0.015075
C -1.331842 0.027695 0.366771
H -1.541119 -1.871470 -0.803134
H 1.043121 -2.127356 0.067789
H 2.410248 0.019868 0.431216
H 1.254412 2.173363 -0.176444
H -0.755309 1.577509 -1.001174
H -2.129900 -0.044385 1.235637
12
Aligned to gpa_Type_1.xyz, RMSD 0.20859
C -0.767616 -0.980540 -0.259081
C 0.737282 -1.175197 0.111960
C 1.409301 -0.017672 0.116795
C 0.685946 1.089777 -0.050977
C -0.725515 1.114216 -0.271707
C -1.315720 0.112367 0.578280
H -1.286638 -1.794597 -0.869751
H 1.014337 -2.162713 0.108974
H 2.563900 0.095150 0.188821
H 1.275502 1.918099 0.309426
H -1.182562 1.614925 -1.004882
H -2.408220 0.186186 1.042143
12
Aligned to gpa_Type_2.xyz, RMSD 0.25603
C -0.792683 -1.052326 -0.330236
C 0.619297 -1.114778 -0.030345
C 1.485050 -0.094372 0.120896
C 0.761333 1.130493 -0.025514
C -0.670408 1.011819 -0.422350
C -1.462220 0.080137 0.403352
H -1.322879 -1.909095 -0.800433
H 1.030634 -2.023059 0.223904
H 2.429102 -0.251604 0.442341
H 1.143503 2.211251 0.118238
H -1.178936 1.966919 -0.997446
H -2.041793 0.044614 1.297592
12
Aligned to gpa_Type_1.xyz, RMSD 0.19322
C -0.619615 -0.825077 -0.098480
C 0.800676 -1.249414 0.109735
C 1.555185 -0.172269 0.188125
C 0.761783 1.123585 0.089948
C -0.716933 0.969782 -0.192818
C -1.569902 0.066349 0.519784
H -1.111960 -1.646243 -0.600055
H 0.951158 -2.314386 -0.124781
H 2.593718 0.000851 0.104411
H 1.095769 2.203729 0.117061
H -1.154685 1.566786 -0.918278
H -2.585195 0.276308 0.805348
12
Aligned to gpa_Type_2.xyz, RMSD 0.25419
C -0.861657 -1.255628 -0.518362
C 0.511724 -1.206031 -0.018317
C 1.175241 0.008556 0.337696
C 0.712195 1.204650 -0.087728
C -0.578415 1.184521 -0.416598
C -1.107884 -0.033196 0.370425
H -1.607662 -1.917868 -0.912475
H 1.090835 -1.983625 0.176294
H 2.208216 -0.111703 0.682695
H 1.304474 2.229899 -0.035463
H -1.268698 1.825058 -0.846221
H -1.578367 0.055367 1.268054
12
Aligned to gpa_Type_2.xyz, RMSD 0.26220
C -0.825679 -1.034448 -0.341581
C 0.688786 -1.175540 -0.180581
C 1.291189 -0.022502 0.317569
C 0.763176 1.233504 -0.036428
C -0.760016 1.054601 -0.388891
C -1.567391 0.029782 0.446441
H -1.305094 -1.862653 -0.948980
H 0.994462 -2.244575 0.003986
H 2.230461 0.072852 0.802213
H 1.478139 2.054783 -0.171821
H -1.225109 1.819158 -0.971833
H -1.762922 0.075036 1.469906
12
Aligned to gpa_Type_2.xyz, RMSD 0.26769
C -0.819171 -1.012102 -0.278074
C 0.703878 -1.162241 -0.143864
C 1.368357 0.041569 0.352748
C 0.809125 1.194782 -0.077758
C -0.759705 0.985463 -0.395570
C -1.667037 -0.003585 0.365231
H -1.202656 -1.803082 -0.868407
H 0.955154 -2.128467 0.022900
H 2.458844 -0.181442 0.659847
H 1.326451 2.151243 -0.177555
H -1.155473 1.873957 -0.907023
H -2.017766 0.043902 1.447525
12
Aligned to gpa_Type_2.xyz, RMSD 0.28231
C -0.943826 -1.090328 -0.681776
C 0.521312 -1.121770 -0.197234
C 1.116978 0.065078 0.556090
C 0.716395 1.351519 -0.032361
C -0.541140 1.279044 -0.264229
C -1.301436 -0.036595 0.320703
H -1.540993 -1.978990 -0.848572
H 0.952923 -2.083838 0.318367
H 2.084331 -0.183862 0.658927
H 1.230976 2.236911 -0.182445
H -1.087703 1.780796 -1.006442
H -1.207815 -0.217964 1.358973
12
Aligned to gpa_Type_2.xyz, RMSD 0.27863
C -0.894182 -1.148719 -0.674315
C 0.486214 -1.096544 -0.089140
C 1.142537 0.019196 0.489706
C 0.739163 1.280068 -0.025411
C -0.551688 1.191504 -0.248673
C -1.287098 0.005355 0.261739
H -1.644281 -1.926054 -0.841269
H 0.832653 -1.957808 0.265235
H 2.290171 -0.051555 0.762233
H 1.276797 2.227205 -0.282047
H -1.100745 1.817083 -0.962339
H -1.289540 -0.359732 1.344283
12
Aligned to gpa_Type_2.xyz, RMSD 0.26425
C -0.844825 -1.131137 -0.612054
C 0.456544 -1.059964 -0.015917
C 1.217432 0.039326 0.389679
C 0.739115 1.279743 -0.018406
C -0.641499 1.158471 -0.238232
C -1.276494 0.042737 0.216004
H -1.528442 -1.959356 -0.843061
H 0.875329 -2.110681 0.185427
H 2.185559 0.027881 0.813681
H 1.356624 2.091954 -0.360541
H -1.143202 1.893434 -0.819022
H -1.396142 -0.272410 1.302444
12
Aligned to gpa_Type_2.xyz, RMSD 0.22909
C -0.817209 -1.255013 -0.647314
C 0.479524 -1.062267 0.075363
C 1.189308 0.100777 0.141145
C 0.656373 1.332717 0.072958
C -0.774550 1.330346 -0.127455
C -1.411672 -0.066378 0.121077
H -1.345732 -2.208278 -0.638569
H 0.848326 -2.029686 0.234702
H 2.293430 -0.108141 0.478307
H 1.569671 2.061666 0.008855
H -1.101254 2.002355 -0.984858
H -1.586215 -0.098099 1.265790
12
Aligned to gpa_Type_2.xyz, RMSD 0.23886
C -0.836068 -1.135580 -0.621045
C 0.440410 -1.063801 -0.006998
C 1.253782 -0.023091 0.257236
C 0.749684 1.323519 0.023448
C -0.671005 1.345536 -0.170790
C -1.420196 0.034935 0.203071
H -1.390160 -2.032966 -0.738165
H 0.760250 -1.871115 0.475195
H 2.238888 -0.147124 0.372000
H 1.371815 2.153431 -0.034992
H -1.042383 1.812282 -0.946766
H -1.455017 -0.396027 1.187807
12
Aligned to gpa_Type_3.xyz, RMSD 0.16352
C -0.817834 -1.151702 0.018546
C 0.563380 -1.056898 -0.288329
C 1.344067 0.039055 0.085423
C 0.735943 1.231077 0.293382
C -0.738181 1.321826 0.022334
C -1.404797 0.096695 0.278570
H -1.457317 -2.176918 0.126625
H 1.077361 -1.906950 -0.564321
H 2.360804 0.051639 0.031699
H 1.193269 2.213448 0.434077
H -0.307855 0.961078 -0.985555
H -2.548841 0.377653 0.547551
12
Aligned to gpa_Type_2.xyz, RMSD 0.33332
C -0.779544 -1.219696 -0.467594
C 0.540728 -1.222110 -0.189949
C 1.200664 -0.064977 0.282668
C 0.745263 1.267612 -0.122762
C -0.609940 1.273738 -0.255725
C -0.972372 -0.042753 0.334014
H -1.482557 -1.977095 -0.854840
H 0.992542 -2.059760 0.022387
H 2.150472 -0.136228 1.077059
H 1.327965 2.193290 -0.311090
H -1.461702 1.858324 -0.736959
H -1.651517 0.129653 1.222792
12
Aligned to gpa_Type_2.xyz, RMSD 0.30233
C -0.788436 -1.066278 -0.577927
C 0.451299 -1.065740 0.223039
C 1.408345 0.094749 0.239525
C 0.764251 1.235872 -0.010461
C -0.642648 1.166097 -0.016421
C -1.528315 -0.041437 0.272140
H -1.177116 -2.167127 -1.003730
H 0.863497 -2.131346 0.476245
H 2.330441 -0.266983 0.088884
H 1.206291 2.301786 -0.174642
H -0.905922 1.929202 -0.761070
H -1.981685 0.011205 1.244420
12
Aligned to gpa_Type_2.xyz, RMSD 0.25061
C -0.802736 -1.044086 -0.541547
C 0.530446 -1.173005 -0.184015
C 1.151971 0.097426 0.506518
C 0.684979 1.455230 -0.082779
C -0.625190 1.276360 -0.177987
C -1.105261 0.000054 0.351707
H -1.396326 -2.008801 -0.535348
H 1.081723 -2.109986 -0.056132
H 2.024249 -0.316414 0.753808
H 1.425650 2.176663 -0.313964
H -1.149253 1.837437 -0.891846
H -1.820250 -0.190879 1.171586
12
Aligned to gpa_Type_2.xyz, RMSD 0.24819
C -0.848998 -1.060722 -0.649365
C 0.525673 -1.184315 -0.129516
C 1.105233 0.096962 0.637702
C 0.695303 1.370012 0.023178
C -0.591817 1.273853 -0.196808
C -1.267529 0.007444 0.335251
H -1.432915 -1.897755 -0.518786
H 1.024727 -2.206648 -0.132383
H 2.283650 -0.097157 0.782959
H 1.358093 2.099399 -0.445292
H -1.098024 1.851607 -0.937679
H -1.753396 -0.252681 1.230741
12
Aligned to gpa_Type_2.xyz, RMSD 0.17450
C -1.034610 -1.131315 -0.459994
C 0.451452 -0.921804 -0.150561
C 1.208263 0.101156 0.315758
C 0.710877 1.350783 0.259387
C -0.712393 1.234648 -0.076620
C -1.374605 0.019711 0.367354
H -1.332669 -2.157683 -0.590910
H 0.933556 -2.036208 -0.136014
H 2.219756 0.090094 0.492322
H 1.507944 1.976110 -0.072956
H -0.776596 1.575009 -1.208337
H -1.800974 -0.100503 1.260572
12
Aligned to gpa_Type_2.xyz, RMSD 0.32170
C -0.828410 -1.155990 -0.204345
C 0.662790 -1.251860 0.068788
C 1.370753 -0.095404 0.239153
C 0.703765 1.105118 0.089173
C -0.648629 1.111560 -0.340792
C -1.463394 0.084987 0.499443
H -1.461346 -1.742201 -1.050545
H 1.264877 -2.061290 -0.122560
H 2.445487 -0.019806 0.395091
H 1.241845 2.128632 0.258828
H -1.221105 1.463448 -1.266327
H -2.066633 0.432806 1.434094
12
Aligned to gpa_Type_2.xyz, RMSD 0.23377
C -0.773789 -1.075158 -0.597898
C 0.489990 -1.124631 -0.061440
C 1.331729 0.046430 0.207094
C 0.698813 1.265464 0.068777
C -0.619669 1.263720 -0.282986
C -1.249993 -0.016664 0.167096
H -1.405943 -2.054472 -0.645511
H 0.795067 -2.079213 0.303871
H 2.209051 -0.162913 0.608094
H 1.173936 2.086781 -0.048709
H -1.173384 2.055861 -1.013862
H -1.475806 -0.205205 1.295475
12
Aligned to gpa_Type_2.xyz, RMSD 0.29408
C -0.832370 -1.012988 -0.174470
C 0.646509 -1.230884 0.025795
C 1.275619 -0.043796 0.234282
C 0.590830 1.101898 0.111512
C -0.694146 1.053340 -0.236080
C -1.418232 0.104433 0.524883
H -1.334182 -1.448479 -0.856223
H 1.190777 -2.194274 -0.184545
H 2.336769 0.113161 0.468717
H 1.057462 1.935641 -0.047232
H -0.802223 1.480269 -1.162886
H -2.016813 0.141677 1.296248
12
Aligned to gpa_Type_2.xyz, RMSD 0.24069
C -0.865499 -1.118315 -0.498058
C 0.508964 -1.137489 -0.172959
C 1.164946 0.027860 0.318879
C 0.665006 1.202579 0.097380
C -0.760668 1.365003 -0.238406
C -1.179610 0.027315 0.283392
H -1.266297 -2.032808 -0.586281
H 0.921676 -2.105208 -0.170436
H 2.088549 0.023810 0.905080
H 1.387704 1.929993 -0.242225
H -1.116355 1.837451 -0.995398
H -1.548415 -0.020191 1.299033
12
Aligned to gpa_Type_2.xyz, RMSD 0.25340
C -0.863846 -1.063464 -0.546017
C 0.536145 -1.105225 -0.237650
C 1.153090 0.053671 0.359440
C 0.733681 1.290900 0.129848
C -0.716899 1.285351 -0.201921
C -1.134132 0.026090 0.229038
H -1.392721 -2.083398 -0.376793
H 0.849118 -2.134351 -0.234631
H 2.078446 0.025184 0.904876
H 1.452241 2.069878 -0.170451
H -1.097323 1.841791 -1.181887
H -1.597802 -0.206428 1.326149
12
Aligned to gpa_Type_2.xyz, RMSD 0.32854
C -0.733710 -1.046769 -0.604950
C 0.556029 -1.302532 -0.068810
C 1.377566 0.110391 0.385175
C 0.743396 1.352932 -0.086003
C -0.575177 1.238241 -0.102914
C -1.258347 -0.024794 0.331369
H -1.498041 -1.808051 -1.136010
H 0.642768 -2.252311 0.499354
H 2.432993 0.196463 0.598628
H 1.495180 2.100452 -0.351166
H -1.375768 1.717274 -0.803169
H -1.806888 -0.281296 1.338497
12
Aligned to gpa_Type_2.xyz, RMSD 0.18240
C -0.975657 -1.201482 -0.412983
C 0.517801 -1.081748 -0.060867
C 1.348052 0.072237 0.260230
C 0.782713 1.230296 0.179725
C -0.690414 1.128049 -0.208931
C -1.313211 -0.029388 0.396138
H -1.308471 -2.175853 -0.929887
H 0.837775 -2.088602 0.005163
H 2.387527 0.019792 0.494997
H 1.259427 2.161963 -0.044646
H -0.932291 1.797879 -1.158933
H -1.913249 0.166855 1.479993
12
Aligned to gpa_Type_3.xyz, RMSD 0.13718
C -0.870170 -1.017448 -0.108001
C 0.527295 -0.994879 -0.233830
C 1.315990 0.048846 0.075723
C 0.759495 1.265769 0.244682
C -0.734414 1.467196 0.032979
C -1.483558 0.147404 0.295292
H -1.411811 -1.934278 0.129052
H 1.139349 -1.928346 -0.405726
H 2.450722 -0.070227 0.089448
H 1.364018 2.035626 0.333609
H -0.516195 1.090548 -0.971167
H -2.540722 -0.110211 0.517939
12
Aligned to gpa_Type_3.xyz, RMSD 0.31273
C -0.892939 -1.199468 -0.084549
C 0.520369 -1.152820 -0.092463
C 1.396766 0.179454 0.086219
C 0.644581 1.406256 0.112819
C -0.729875 1.270417 0.069846
C -1.455904 0.083416 0.364431
H -1.239035 -2.061619 -0.602879
H 1.003996 -2.045141 -0.277908
H 2.454746 -0.268622 0.351311
H 1.297940 2.382655 0.138968
H -0.685670 1.088918 -1.012220
H -2.314974 0.316556 0.946426
12
Aligned to gpa_Type_3.xyz, RMSD 0.17282
C -0.954341 -1.042021 -0.067687
C 0.464132 -1.039454 -0.170561
C 1.351590 0.117845 0.035946
C 0.678666 1.225764 0.275001
C -0.869742 1.400355 -0.120009
C -1.474788 0.172914 0.282781
H -1.097097 -2.059452 -0.117475
H 0.969153 -2.050325 -0.347560
H 2.402525 -0.123468 0.151796
H 1.342569 2.149995 0.453334
H -0.483975 1.160013 -1.209021
H -2.328692 0.087833 0.833457
12
Aligned to gpa_Type_3.xyz, RMSD 0.17223
C -0.954075 -1.069692 -0.124409
C 0.568957 -1.068453 -0.178086
C 1.391559 0.111263 0.083074
C 0.737211 1.257786 0.227329
C -0.834952 1.375961 -0.124297
C -1.400101 0.169362 0.285789
H -1.375731 -2.123964 -0.075253
H 0.935160 -1.951349 -0.433721
H 2.429497 0.031485 0.269282
H 1.357878 2.096752 0.322247
H -0.457902 1.143810 -1.091885
H -2.397501 0.027040 0.839930
12
Aligned to gpa_Type_2.xyz, RMSD 0.30620
C -0.880299 -1.065300 -0.140882
C 0.495745 -1.098050 -0.129316
C 1.252041 0.078089 0.254124
C 0.808739 1.343342 0.085881
C -0.638842 1.343227 0.140741
C -1.425091 0.206493 0.424405
H -1.033166 -1.981705 -0.677778
H 0.958291 -1.978827 -0.314466
H 2.209025 -0.255537 0.419709
H 1.433070 2.260637 -0.094774
H -0.886745 1.103009 -1.067333
H -2.292768 0.044620 1.099690
12
Aligned to gpa_Type_2.xyz, RMSD 0.27150
C -0.857884 -1.260977 -0.616761
C 0.423691 -1.180046 -0.164521
C 1.256280 0.046971 0.187848
C 0.681304 1.175046 -0.012059
C -0.649931 1.251204 -0.110321
C -1.274543 -0.085212 0.146991
H -1.441039 -2.204528 -0.706060
H 0.780588 -1.943664 0.393476
H 2.264925 -0.018413 0.561927
H 1.171984 2.202279 -0.120950
H -0.841045 2.087195 -0.800596
H -1.514329 -0.069854 1.241027
12
Aligned to gpa_Type_3.xyz, RMSD 0.12323
C -0.886697 -1.093439 -0.076907
C 0.557929 -1.059672 -0.149868
C 1.324004 0.154636 -0.132947
C 0.743048 1.321459 0.227394
C -0.797889 1.355065 0.068201
C -1.455810 0.105156 0.298541
H -1.422338 -1.963568 -0.051964
H 1.085427 -1.948293 -0.140294
H 2.458405 -0.140316 -0.087452
H 1.353551 2.132215 0.525503
H -0.438197 1.158953 -1.059037
H -2.521433 -0.022196 0.578830
12
Aligned to gpa_Type_3.xyz, RMSD 0.15905
C -0.851392 -1.169948 0.048985
C 0.530651 -1.051973 -0.256781
C 1.311441 0.114426 0.090143
C 0.730684 1.313619 0.257398
C -0.842098 1.351941 -0.119578
C -1.453595 0.122675 0.234884
H -1.377748 -2.101227 0.129808
H 1.111958 -1.981045 -0.623286
H 2.411757 -0.162334 0.108591
H 1.206057 2.247192 0.495417
H -0.306027 1.064480 -1.048156
H -2.471689 0.252195 0.682575
12
Aligned to gpa_Type_1.xyz, RMSD 0.20942
C -0.757280 -0.960196 0.015691
C 0.738037 -1.216974 0.024704
C 1.455258 -0.027234 0.154828
C 0.807483 1.160459 0.156113
C -0.629816 1.012009 -0.044723
C -1.454387 0.028528 0.756845
H -1.443426 -1.472220 -0.664311
H 0.997807 -2.261053 -0.067981
H 2.560260 0.146620 0.055546
H 1.246599 2.200052 0.073696
H -0.941210 1.340978 -1.014061
H -2.579324 0.049030 0.553653
12
Aligned to gpa_Type_2.xyz, RMSD 0.33720
C -0.911439 -1.046844 -0.203667
C 0.588848 -1.258684 0.031754
C 1.349084 -0.017307 0.318280
C 0.754702 1.123774 -0.107995
C -0.636351 0.994950 -0.232416
C -1.300267 -0.032502 0.609704
H -1.564504 -1.431590 -0.929153
H 1.268790 -1.950395 -0.314819
H 2.288898 0.094154 0.849593
H 1.397503 2.088289 -0.191375
H -1.135014 1.423684 -1.128682
H -2.100248 0.012470 1.298776
12
Aligned to gpa_Type_2.xyz, RMSD 0.23062
C -0.851755 -1.057421 -0.328410
C 0.645071 -1.076058 -0.094213
C 1.379120 0.009967 0.346769
C 0.704831 1.276120 0.304632
C -0.608363 1.043112 -0.284646
C -1.550460 0.134186 0.503610
H -1.333381 -1.809385 -0.889389
H 1.065987 -2.019865 -0.180069
H 2.427197 -0.217009 0.567825
H 1.209990 2.135711 -0.212617
H -1.039074 1.438269 -1.143552
H -2.049162 0.142373 1.410062
12
Aligned to gpa_Type_2.xyz, RMSD 0.23080
C -0.800290 -1.150825 -0.707834
C 0.427059 -1.183079 -0.026903
C 1.199072 -0.033486 0.334730
C 0.703672 1.288158 0.033934
C -0.726240 1.441606 -0.029021
C -1.306807 0.045771 0.230940
H -1.198967 -2.126219 -0.646376
H 0.861499 -2.100389 0.179716
H 2.283951 -0.059691 0.610758
H 1.456504 2.073519 -0.328309
H -1.182629 1.930954 -0.809548
H -1.716822 -0.126321 1.157914
12
Aligned to gpa_Type_1.xyz, RMSD 0.26798
C -0.739021 -1.047202 -0.194599
C 0.610870 -1.150745 0.298362
C 1.419818 -0.001993 0.163997
C 0.769718 1.136421 -0.080354
C -0.756196 0.990020 -0.088061
C -1.440336 -0.066179 0.476607
H -1.083523 -1.285822 -1.139781
H 0.985340 -2.120058 0.451810
H 2.548428 -0.169029 -0.046896
H 1.321623 2.107709 -0.019038
H -1.262172 1.624970 -0.761527
H -2.374550 -0.018090 0.939478
12
Aligned to gpa_Type_2.xyz, RMSD 0.27403
C -0.909959 -0.990659 -0.316850
C 0.620675 -1.119660 -0.078493
C 1.408226 -0.045314 0.246222
C 0.774820 1.119631 -0.092471
C -0.644281 1.065241 -0.397440
C -1.426542 0.174400 0.345959
H -1.446253 -1.723092 -0.877343
H 1.196046 -2.073393 -0.007535
H 2.522622 -0.154179 0.689308
H 1.169759 2.064003 0.190957
H -1.389603 1.507713 -1.085986
H -1.875508 0.175308 1.383672
12
Aligned to gpa_Type_1.xyz, RMSD 0.23664
C -0.768226 -1.020059 -0.048963
C 0.741811 -1.190172 0.068924
C 1.494655 -0.070874 0.268953
C 0.768253 1.089514 0.078956
C -0.701289 0.975098 -0.069056
C -1.609871 0.078336 0.706248
H -1.164719 -1.461489 -0.944749
H 1.187456 -2.093951 -0.295468
H 2.528415 0.038226 0.495199
H 1.158864 1.939601 -0.398294
H -0.949152 1.474941 -0.886129
H -2.686198 0.240829 1.024378
12
Aligned to gpa_Type_1.xyz, RMSD 0.22483
C -0.754968 -0.950177 -0.197726
C 0.730330 -1.157741 0.078945
C 1.513102 -0.066430 0.330745
C 0.786890 1.096102 0.146043
C -0.754470 1.002794 -0.072239
C -1.645857 0.091343 0.689562
H -1.145463 -1.636408 -0.893375
H 1.114226 -2.107921 -0.247006
H 2.581958 0.054622 0.420536
H 1.221203 1.908345 -0.418984
H -0.989122 1.569688 -0.851478
H -2.657829 0.195783 1.014978
12
Aligned to gpa_Type_1.xyz, RMSD 0.23676
C -0.773144 -1.040176 -0.071998
C 0.691683 -1.146533 0.137944
C 1.508735 -0.039665 0.163641
C 0.745499 1.127323 -0.085202
C -0.803381 1.091519 -0.239714
C -1.655129 -0.045760 0.493691
H -1.175877 -1.490986 -1.041457
H 1.153144 -2.130934 0.079850
H 2.575715 -0.116312 0.358073
H 1.343308 1.989274 -0.020344
H -1.189352 1.772108 -1.062265
H -2.421202 0.030143 1.287781
12
Aligned to gpa_Type_1.xyz, RMSD 0.23616
C -0.753305 -1.043430 -0.118405
C 0.693379 -1.140611 0.074797
C 1.526416 -0.074183 0.142702
C 0.737020 1.127617 -0.098598
C -0.786509 1.074987 -0.282041
C -1.629316 -0.009331 0.392683
H -1.173416 -1.483805 -0.896259
H 1.103927 -2.030203 0.095510
H 2.526588 -0.148139 0.331491
H 1.304384 1.985519 0.154116
H -1.258804 1.639991 -1.053452
H -2.290366 0.101590 1.257456
12
Aligned to gpa_Type_2.xyz, RMSD 0.22849
C -0.806193 -1.000553 -0.230494
C 0.614130 -1.046266 -0.089767
C 1.416016 -0.007439 0.306424
C 0.684770 1.233644 0.205295
C -0.680203 1.004656 -0.283601
C -1.585113 0.112393 0.458741
H -1.295223 -1.793068 -0.816392
H 1.121480 -2.028662 -0.122806
H 2.429463 -0.168785 0.474378
H 1.260182 2.020372 -0.134780
H -0.988626 1.614448 -1.146117
H -2.170682 0.059261 1.379119
12
Aligned to gpa_Type_2.xyz, RMSD 0.33435
C -0.895347 -1.184947 -0.226011
C 0.539227 -0.992642 -0.083608
C 1.336458 0.120953 0.232170
C 0.627780 1.350916 0.190618
C -0.725614 1.176283 0.023687
C -1.515196 0.048733 0.453876
H -1.443585 -2.044898 -0.734576
H 1.299803 -1.912214 -0.338259
H 2.361431 -0.407077 0.419183
H 1.141646 2.264038 -0.084102
H -0.514154 1.237351 -1.045024
H -2.212448 0.343504 1.192046
12
Aligned to gpa_Type_2.xyz, RMSD 0.26429
C -0.778072 -1.068372 -0.506759
C 0.589015 -1.096026 -0.032603
C 1.173106 0.009938 0.465616
C 0.663850 1.194177 -0.030220
C -0.812336 1.270543 -0.239647
C -1.324255 -0.032568 0.458055
H -1.141042 -1.836804 -1.060497
H 0.989079 -1.967575 0.126617
H 2.085788 -0.340864 0.626793
H 1.416141 2.050237 -0.227042
H -1.271605 1.741683 -1.108726
H -1.589668 0.075630 1.528411
12
Aligned to gpa_Type_3.xyz, RMSD 0.28233
C -0.930087 -1.090957 -0.177666
C 0.497585 -1.173323 -0.094536
C 1.447463 0.120932 0.048676
C 0.883262 1.248441 0.102281
C -0.698539 1.376358 0.125239
C -1.471641 0.128741 0.341446
H -1.572422 -1.979861 -0.507320
H 1.039243 -2.016451 -0.017903
H 2.552959 0.093726 0.166718
H 1.444999 2.257559 0.270099
H -0.839000 1.111551 -1.065250
H -2.353823 -0.076716 0.808217
12
Aligned to gpa_Type_2.xyz, RMSD 0.28591
C -0.626787 -1.058555 -0.389518
C 0.758270 -1.056781 -0.032977
C 1.482173 0.055462 0.297362
C 0.693618 1.164663 -0.048807
C -0.717425 1.040515 -0.398983
C -1.391690 0.029131 0.594066
H -1.279182 -1.854879 -0.950573
H 0.830159 -2.130768 -0.023666
H 2.429235 -0.182359 0.621766
H 1.193055 1.987621 -0.100857
H -1.227519 1.844711 -1.042187
H -2.143907 0.161238 1.474375
12
Aligned to gpa_Type_2.xyz, RMSD 0.12669
C -0.986191 -1.035716 -0.418132
C 0.543191 -1.095715 -0.074224
C 1.382150 0.026948 0.225977
C 0.722442 1.316261 0.155918
C -0.723157 1.377756 -0.160025
C -1.383898 0.093951 0.318540
H -1.379131 -2.014539 -0.771581
H 0.863876 -2.153219 -0.005505
H 2.439542 -0.079648 0.594206
H 1.336627 2.199322 0.043052
H -1.075887 1.479415 -1.276162
H -1.739563 -0.114816 1.367938
12
Aligned to gpa_Type_3.xyz, RMSD 0.19291
C -0.830252 -1.093112 -0.195149
C 0.523040 -1.021325 -0.253474
C 1.367127 0.043552 -0.235335
C 0.664395 1.284235 0.202469
C -0.695883 1.525789 -0.021503
C -1.516540 0.045458 0.269768
H -1.317518 -2.012770 0.252062
H 1.039526 -2.029414 -0.388111
H 2.426445 -0.151562 0.322373
H 1.362514 2.173017 0.589849
H -0.550146 1.278336 -1.270497
H -2.472709 -0.042204 0.727548
12
Aligned to gpa_Type_3.xyz, RMSD 0.15686
C -0.801283 -1.120024 -0.205214
C 0.643828 -1.055238 -0.266377
C 1.348383 0.078194 -0.071789
C 0.698226 1.277290 0.259435
C -0.666978 1.565720 -0.035322
C -1.481823 0.104565 0.250710
H -1.299312 -1.978826 0.089824
H 1.008774 -1.999608 -0.292779
H 2.256578 -0.213550 0.167258
H 1.250342 2.169076 0.406361
H -0.503176 1.200169 -1.015327
H -2.453560 -0.027768 0.713221
12
Aligned to gpa_Type_3.xyz, RMSD 0.22286
C -0.821934 -1.133194 0.015631
C 0.490202 -1.200035 -0.103814
C 1.319033 0.003541 0.268625
C 0.721181 1.340384 0.199008
C -0.857663 1.314646 -0.042796
C -1.401956 0.151847 0.255808
H -1.497254 -1.912815 -0.331650
H 1.155298 -2.047440 -0.440920
H 2.458402 0.242590 0.103640
H 1.418777 2.077180 0.330503
H -0.631997 0.918951 -1.052570
H -2.352090 0.244347 0.798535
12
Aligned to gpa_Type_1.xyz, RMSD 0.23326
C -0.754683 -0.986850 -0.021744
C 0.775506 -1.215969 0.210560
C 1.513446 -0.063186 0.229725
C 0.828687 1.171861 0.111928
C -0.738183 1.031991 -0.043274
C -1.542287 0.108301 0.620729
H -0.905875 -1.464101 -1.051727
H 0.975889 -2.255388 -0.041868
H 2.492265 -0.193939 0.114998
H 1.242422 2.250829 -0.149845
H -1.330000 1.316851 -0.842360
H -2.557189 0.299601 0.862879
12
Aligned to gpa_Type_3.xyz, RMSD 0.17875
C -0.858017 -1.130665 -0.036653
C 0.556744 -1.000935 -0.199372
C 1.379401 0.138940 -0.136099
C 0.739442 1.318353 0.158309
C -0.765179 1.443983 -0.038160
C -1.372698 0.133033 0.301244
H -1.283524 -2.048227 -0.057201
H 0.908503 -2.000625 -0.397152
H 2.364474 -0.177107 0.347183
H 1.195015 2.115063 0.509989
H -0.585959 1.127740 -1.244080
H -2.278203 0.080447 0.791993
12
Aligned to gpa_Type_1.xyz, RMSD 0.21390
C -0.792056 -1.035743 0.032423
C 0.741131 -1.231627 0.291013
C 1.596576 -0.100852 0.222640
C 0.724039 1.142890 0.062934
C -0.692679 1.013180 -0.148299
C -1.588449 0.132016 0.690284
H -1.221082 -1.582804 -0.774537
H 1.078642 -2.092105 -0.274700
H 2.574174 0.014777 0.045286
H 1.170170 2.066736 0.148947
H -1.031929 1.445682 -1.070153
H -2.558538 0.227850 0.774160
12
Aligned to gpa_Type_1.xyz, RMSD 0.29028
C -0.873676 -1.108300 -0.247951
C 0.629017 -1.193882 -0.069438
C 1.530994 -0.026068 0.204839
C 0.792153 1.107324 -0.019955
C -0.598131 1.085005 -0.244398
C -1.513289 0.041774 0.450793
H -1.515831 -1.674516 -1.023481
H 0.985236 -2.211084 0.109376
H 2.666920 0.171470 0.443082
H 1.206630 2.227139 0.135398
H -1.071781 1.461466 -1.113544
H -2.238242 0.119673 1.375277
12
Aligned to gpa_Type_1.xyz, RMSD 0.20456
C -0.843129 -1.050110 -0.074457
C 0.736059 -1.140798 0.070949
C 1.577485 -0.081203 0.039813
C 0.723134 1.013647 -0.090249
C -0.718975 0.986012 -0.286914
C -1.531347 0.068403 0.613627
H -1.347523 -1.713776 -0.855785
H 1.276106 -2.093375 0.052626
H 2.645046 0.043659 0.240871
H 1.277896 1.975605 0.288163
H -1.161214 1.722408 -0.997332
H -2.633540 0.269530 0.998687
12
Aligned to gpa_Type_1.xyz, RMSD 0.27209
C -0.792624 -1.199245 -0.010131
C 0.638788 -1.173949 0.241602
C 1.454778 -0.026601 0.075937
C 0.646705 1.064685 -0.063944
C -0.824228 1.154801 -0.244352
C -1.453278 -0.066668 0.657694
H -1.042728 -1.283214 -1.101193
H 1.112038 -2.071425 0.022296
H 2.451227 -0.149761 0.406465
H 1.170076 1.946425 -0.079530
H -1.089608 1.741097 -1.097428
H -2.271147 0.063854 1.192585
12
Aligned to gpa_Type_1.xyz, RMSD 0.27152
C -0.865735 -1.104508 -0.189267
C 0.800017 -1.313728 0.184296
C 1.457325 0.021875 0.229410
C 0.741110 1.171184 0.181028
C -0.708774 1.171868 -0.155538
C -1.565627 0.127929 0.473922
H -1.507122 -1.494051 -0.941700
H 1.357037 -2.166320 -0.017696
H 2.507832 -0.092281 0.135493
H 1.214940 2.152638 0.102373
H -1.011166 1.366642 -1.181577
H -2.419838 0.158752 1.179254
12
Aligned to gpa_Type_2.xyz, RMSD 0.20560
C -0.852480 -1.069435 -0.520507
C 0.541805 -1.140216 0.092379
C 1.259084 0.004521 0.305087
C 0.723528 1.181210 0.074679
C -0.717327 1.199344 -0.389193
C -1.462956 -0.045625 0.365944
H -1.259446 -1.961249 -0.727193
H 1.013245 -2.128275 0.181460
H 2.298156 -0.014940 0.188642
H 1.440076 2.078051 0.212985
H -1.103953 1.896364 -1.156216
H -1.879731 0.000248 1.371935
12
Aligned to gpa_Type_3.xyz, RMSD 0.12690
C -0.883757 -1.063527 -0.053082
C 0.510379 -1.051533 -0.243315
C 1.508967 0.110013 -0.107272
C 0.773709 1.278823 0.243774
C -0.746032 1.398843 0.031882
C -1.544921 0.149861 0.197064
H -1.368684 -2.038164 -0.115622
H 1.111621 -1.948610 -0.149426
H 2.581122 -0.066244 0.008338
H 1.277987 2.058675 0.522907
H -0.621916 1.029877 -1.060575
H -2.598478 0.141986 0.725328
12
Aligned to gpa_Type_3.xyz, RMSD 0.17552
C -0.906935 -1.193976 -0.082538
C 0.479390 -1.095576 -0.177530
C 1.382846 0.145129 -0.060052
C 0.705404 1.335774 0.161411
C -0.737931 1.401861 -0.029572
C -1.515970 0.079124 0.279810
H -1.357036 -2.288306 -0.144278
H 1.028071 -1.984094 -0.214347
H 2.377899 -0.092796 0.051610
H 1.392933 2.289945 0.515809
H -0.340984 1.252060 -1.120943
H -2.507687 0.150856 0.820621
12
Aligned to gpa_Type_3.xyz, RMSD 0.13688
C -0.779448 -1.049686 0.055221
C 0.625404 -1.018834 -0.159720
C 1.369075 0.089027 -0.011124
C 0.731272 1.266741 0.252101
C -0.727177 1.354009 0.053575
C -1.458352 0.194672 0.213958
H -1.289240 -1.938069 -0.005887
H 0.922107 -2.046352 -0.558473
H 2.494076 -0.056831 0.206031
H 1.221732 2.118162 0.310749
H -0.531398 0.992038 -0.948930
H -2.578053 0.095123 0.592500
12
Aligned to gpa_Type_3.xyz, RMSD 0.10831
C -0.825333 -1.021840 -0.036183
C 0.624456 -1.078836 -0.226054
C 1.374288 0.044451 0.125664
C 0.724077 1.212057 0.316022
C -0.746464 1.373831 0.091717
C -1.520187 0.158218 0.200437
H -1.377677 -2.031740 0.068450
H 1.014392 -1.991146 -0.448244
H 2.411512 0.036338 0.003560
H 1.366749 2.200252 0.533000
H -0.602376 0.932799 -1.246581
H -2.443439 0.165617 0.618213
12
Aligned to gpa_Type_3.xyz, RMSD 0.22174
C -0.902613 -1.107893 -0.016131
C 0.611434 -1.060764 -0.194592
C 1.388046 0.079401 0.219754
C 0.744147 1.316063 0.259919
C -0.892268 1.439485 -0.075832
C -1.510683 0.093416 0.233946
H -1.336764 -1.993551 -0.175902
H 0.939995 -2.056327 -0.483863
H 2.466030 -0.083048 0.263513
H 1.341516 2.197085 0.302284
H -0.471477 1.156566 -1.305265
H -2.377363 0.019568 0.972169
12
Aligned to gpa_Type_3.xyz, RMSD 0.25167
C -0.877532 -1.028308 -0.127933
C 0.563542 -1.032358 -0.325429
C 1.409088 0.147132 0.175158
C 0.704411 1.331132 0.297713
C -0.849431 1.457519 -0.075491
C -1.570304 0.098313 0.229090
H -1.503385 -2.050737 -0.193605
H 0.979468 -2.052071 -0.342372
H 2.426543 -0.131071 0.271519
H 1.285177 2.242005 0.151335
H -0.325433 1.095427 -1.022469
H -2.242145 -0.076982 0.962485
12
Aligned to gpa_Type_3.xyz, RMSD 0.24763
C -0.825851 -1.086843 -0.071723
C 0.562615 -1.079551 0.023387
C 1.345342 0.187819 0.088579
C 0.734938 1.325179 0.057491
C -0.673721 1.326525 0.064444
C -1.396786 0.112222 0.399162
H -1.360730 -2.049359 -0.497508
H 1.042718 -1.986076 -0.314705
H 2.379464 -0.067198 0.207106
H 1.340082 2.138042 0.408976
H -0.836797 0.878179 -1.189884
H -2.311276 0.301060 0.824676
12
Aligned to gpa_Type_2.xyz, RMSD 0.27642
C -0.813319 -0.985418 -0.185138
C 0.532530 -1.135852 -0.043893
C 1.399893 0.055611 0.237215
C 0.728282 1.388511 0.299428
C -0.817675 1.303538 0.071078
C -1.390354 0.111042 0.287451
H -1.411871 -1.882580 -0.557659
H 0.796961 -2.206584 -0.199995
H 2.494018 -0.020993 0.328867
H 1.380486 2.367087 -0.101662
H -0.754207 1.155663 -1.071410
H -2.144744 -0.150024 0.935718
12
Aligned to gpa_Type_2.xyz, RMSD 0.30048
C -0.800660 -1.023140 -0.254701
C 0.615415 -1.107575 -0.147521
C 1.409259 0.058105 0.196159
C 0.713837 1.312616 0.307202
C -0.832901 1.259055 -0.033769
C -1.446365 0.061259 0.317466
H -1.252589 -1.910012 -0.466188
H 0.852800 -2.102327 -0.378378
H 2.441555 -0.110471 0.401408
H 1.047042 2.149354 -0.021840
H -0.542154 1.228100 -1.112277
H -2.205238 0.185034 1.192441
12
Aligned to gpa_Type_1.xyz, RMSD 0.24752
C -0.777464 -1.013163 -0.074605
C 0.655994 -1.282821 0.320619
C 1.543339 0.020662 0.025232
C 0.740720 1.042590 -0.015694
C -0.610127 0.971523 -0.126096
C -1.578421 0.064531 0.663257
H -1.072560 -1.556646 -0.981340
H 1.331841 -2.141240 0.219084
H 2.554352 -0.287398 -0.037664
H 1.012217 2.126630 -0.020453
H -1.141119 1.799828 -0.650818
H -2.658772 0.255504 0.678476
12
Aligned to gpa_Type_2.xyz, RMSD 0.31056
C -0.733028 -1.023509 -0.243882
C 0.614143 -1.259070 -0.143995
C 1.436679 -0.192290 -0.143116
C 0.591516 1.175534 0.265052
C -0.778192 1.292347 -0.383223
C -1.293233 0.114002 0.390167
H -1.398675 -1.884333 -0.636754
H 1.106590 -2.330898 0.251748
H 2.366522 0.036322 0.260433
H 1.225781 2.164445 0.437910
H -1.096315 1.797463 -1.277461
H -2.041787 0.109985 1.223122
12
Aligned to gpa_Type_2.xyz, RMSD 0.24447
C -0.891090 -1.061461 -0.420544
C 0.437332 -1.049678 0.024925
C 1.269870 -0.054828 0.403911
C 0.690730 1.212543 0.084647
C -0.619954 1.075937 -0.306453
C -1.470314 0.051086 0.398804
H -1.132208 -1.729076 -1.134451
H 0.975300 -1.943740 0.189303
H 2.306147 -0.195868 0.476690
H 1.332738 2.072395 -0.144863
H -1.220343 1.624366 -1.142783
H -1.678207 -0.001678 1.570815
12
Aligned to gpa_Type_2.xyz, RMSD 0.27691
C -0.953191 -1.000331 -0.487003
C 0.457373 -1.058153 0.189497
C 1.303208 -0.010050 0.185870
C 0.771517 1.269553 0.013341
C -0.694961 1.278782 -0.176779
C -1.486110 0.134240 0.433210
H -1.203622 -1.846407 -1.194717
H 0.986633 -1.974487 0.277887
H 2.160846 -0.282165 0.629191
H 1.379851 2.116302 -0.185349
H -1.240776 1.627104 -1.197127
H -1.480767 -0.254389 1.511980
12
Aligned to gpa_Type_2.xyz, RMSD 0.29022
C -0.755043 -1.109362 -0.494286
C 0.618512 -1.258827 0.167422
C 1.350398 0.044605 0.125433
C 0.744189 1.274695 -0.069333
C -0.797221 1.239131 -0.052778
C -1.421223 -0.101454 0.301178
H -1.567113 -1.732614 -1.156507
H 0.724786 -2.276361 0.446494
H 2.393761 0.161539 0.546505
H 1.258558 2.166195 -0.178657
H -1.021433 1.763278 -0.949559
H -1.528170 -0.170825 1.314090
12
Aligned to gpa_Type_2.xyz, RMSD 0.24349
C -0.858192 -1.006743 -0.396489
C 0.612138 -0.989809 -0.098247
C 1.509116 0.028133 0.118019
C 0.743349 1.301113 0.045837
C -0.760301 1.244543 -0.182627
C -1.498920 0.049260 0.369129
H -1.521506 -1.829330 -0.787420
H 0.985453 -2.025743 0.134865
H 2.571789 -0.312198 0.417673
H 1.298514 2.313136 0.312437
H -1.116248 1.204393 -1.245615
H -1.965191 0.023245 1.312437
12
Aligned to gpa_Type_2.xyz, RMSD 0.24459
C -0.861228 -1.011728 -0.397151
C 0.576099 -0.917552 -0.092303
C 1.488270 0.112222 0.159846
C 0.673070 1.394761 0.045143
C -0.742542 1.159349 -0.219297
C -1.477229 -0.009936 0.334578
H -1.474460 -1.910910 -0.606590
H 0.923883 -2.022144 -0.102930
H 2.440870 -0.376321 0.494000
H 1.347505 2.320949 0.352600
H -1.025939 1.196681 -1.278226
H -1.868295 0.064629 1.310331
12
Aligned to gpa_Type_2.xyz, RMSD 0.26943
C -0.878404 -1.241857 -0.456219
C 0.472340 -1.235358 0.024121
C 1.308247 -0.064194 0.420311
C 0.755824 1.204270 0.012387
C -0.625438 1.339884 -0.095963
C -1.196391 0.039943 0.307360
H -1.444765 -1.948587 -1.193475
H 0.975664 -2.056882 0.452783
H 2.335011 -0.003293 0.321649
H 1.001239 2.093515 -0.228393
H -0.976206 1.891873 -0.925495
H -1.727121 -0.019315 1.360933
12
Aligned to gpa_Type_2.xyz, RMSD 0.19680
C -0.964422 -1.202179 -0.533472
C 0.411344 -1.244199 0.016832
C 1.200312 -0.109438 0.479825
C 0.680460 1.253619 0.033593
C -0.687488 1.382686 -0.052378
C -1.268281 -0.018828 0.265871
H -1.437196 -2.043360 -0.874761
H 1.014488 -2.166170 0.189762
H 2.360996 -0.039486 0.476151
H 1.275077 2.379129 -0.198666
H -1.017176 1.851374 -1.023401
H -1.568112 -0.043149 1.220644
12
Aligned to gpa_Type_2.xyz, RMSD 0.15783
C -0.906455 -0.991963 -0.432963
C 0.460832 -1.103908 0.043241
C 1.235467 0.004225 0.224679
C 0.744124 1.351067 0.349627
C -0.703602 1.208725 -0.072160
C -1.273871 -0.013632 0.382059
H -1.326039 -2.023754 -0.810004
H 0.884790 -2.101163 0.082059
H 2.309517 0.111418 0.313106
H 1.280976 2.014770 -0.207648
H -0.796125 1.605521 -1.052188
H -1.909612 -0.061307 1.180194
12
Aligned to gpa_Type_3.xyz, RMSD 0.23394
C -0.845857 -1.168808 -0.014205
C 0.612195 -1.054890 -0.173901
C 1.301042 0.095414 0.193617
C 0.748038 1.277636 0.127544
C -0.768052 1.351514 0.040519
C -1.475414 0.197866 0.444168
H -1.529556 -1.920715 -0.381613
H 1.066376 -2.002364 -0.406632
H 2.562744 0.030451 0.275213
H 1.287702 2.125673 0.158880
H -0.490228 1.017092 -1.106001
H -2.468992 0.051131 0.842411
12
Aligned to gpa_Type_2.xyz, RMSD 0.24030
C -0.800335 -0.968369 -0.384538
C 0.529069 -1.065888 -0.019940
C 1.256387 0.051760 0.289823
C 0.860058 1.325728 0.268818
C -0.705571 1.172568 -0.089017
C -1.288058 0.005304 0.435729
H -1.417283 -1.666634 -0.739710
H 1.136612 -1.973744 -0.188216
H 2.269106 -0.307718 0.625067
H 1.415490 2.243593 -0.265760
H -1.180237 1.212218 -1.134201
H -2.075235 -0.028817 1.201946
12
Aligned to gpa_Type_2.xyz, RMSD 0.28139
C -0.675570 -1.006926 -0.352958
C 0.690851 -1.199874 0.098733
C 1.341071 0.038713 0.357036
C 0.719255 1.127170 0.070187
C -0.797295 1.186102 -0.145590
C -1.549245 -0.082295 0.449394
H -1.290261 -1.479326 -1.081257
H 0.981260 -2.328547 0.219233
H 2.369517 -0.135665 0.412301
H 1.361690 2.267961 -0.340179
H -1.166846 1.660137 -1.012615
H -1.984427 -0.047451 1.325716
12
Aligned to gpa_Type_2.xyz, RMSD 0.27978
C -0.967436 -1.038500 -0.621185
C 0.468177 -1.061835 -0.130719
C 1.175333 0.069036 0.671295
C 0.597158 1.342123 -0.092601
C -0.709948 1.316956 -0.106542
C -1.371730 0.038305 0.280226
H -1.349806 -1.963723 -0.857991
H 1.069589 -2.122794 0.029791
H 2.251626 -0.134998 0.840319
H 1.431278 1.943109 -0.445819
H -1.176945 1.728873 -0.894263
H -1.417292 -0.116553 1.327493
12
Aligned to gpa_Type_2.xyz, RMSD 0.36679
C -0.975230 -1.065518 -0.306308
C 0.597205 -1.220916 -0.142001
C 1.187207 -0.103793 0.491365
C 0.615781 1.124437 -0.017371
C -0.856768 1.183064 -0.312762
C -1.535151 0.130938 0.505560
H -1.440466 -1.519220 -1.097475
H 1.253981 -2.179219 -0.098981
H 2.127399 0.029435 0.901857
H 1.324280 2.095892 -0.157413
H -1.108596 1.446896 -1.235939
H -1.189642 0.078001 1.469468
12
Aligned to gpa_Type_2.xyz, RMSD 0.40294
C -0.905472 -0.975011 -0.240141
C 0.685791 -1.164430 -0.201129
C 1.230840 -0.109291 0.309867
C 0.623781 1.125960 0.076324
C -0.757612 1.154305 -0.254983
C -1.398282 0.114685 0.474460
H -1.392058 -1.372712 -1.152027
H 1.180837 -2.024657 -0.136627
H 2.269080 -0.055878 0.858443
H 1.176835 1.947081 0.041112
H -1.234162 1.075731 -1.415786
H -1.479576 0.284216 1.640488
12
Aligned to gpa_Type_2.xyz, RMSD 0.33042
C -0.761630 -1.087045 -0.632786
C 0.520429 -1.115089 0.000521
C 1.175733 0.160061 0.619009
C 0.789968 1.303194 -0.193697
C -0.554989 1.172982 -0.199094
C -1.253063 0.000759 0.260674
H -1.517880 -1.950843 -1.008258
H 0.757912 -2.060367 0.255211
H 2.324632 -0.096300 0.783136
H 1.342255 2.094075 -0.509351
H -1.268627 1.926723 -0.748129
H -1.554740 -0.348152 1.372764
12
Aligned to gpa_Type_2.xyz, RMSD 0.38975
C -0.732925 -1.131192 -0.034496
C 0.589670 -1.275609 0.078860
C 1.313863 -0.054339 0.234929
C 0.538781 1.247893 0.261282
C -0.763924 1.054174 -0.362617
C -1.318382 0.068346 0.599998
H -1.243233 -1.329581 -0.945200
H 0.941020 -2.132507 -0.224098
H 2.524460 -0.141034 0.257543
H 1.060415 2.208529 0.264111
H -0.896310 1.310792 -1.591515
H -2.013434 0.174526 1.461203
12
Aligned to gpa_Type_3.xyz, RMSD 0.28654
C -0.816319 -1.149443 0.023651
C 0.588860 -1.142895 -0.241260
C 1.273502 -0.027454 0.263671
C 0.761265 1.316663 0.236940
C -0.832623 1.287868 0.036647
C -1.455075 0.077541 0.438145
H -1.609938 -1.852175 -0.285483
H 1.252594 -1.944804 -0.531023
H 2.271393 0.126854 0.246773
H 1.458044 2.217420 -0.019153
H -0.371190 0.972901 -0.819626
H -2.520514 0.117527 0.650718
12
Aligned to gpa_Type_2.xyz, RMSD 0.26386
C -0.780901 -1.162471 -0.642421
C 0.518288 -1.124016 0.161587
C 1.337593 0.042592 0.243305
C 0.770297 1.280717 0.086740
C -0.657367 1.262564 -0.265564
C -1.371771 0.039686 0.257015
H -1.366188 -1.997045 -0.652764
H 0.761790 -2.241404 0.434060
H 2.400430 0.039958 0.133254
H 1.329240 2.146031 0.009783
H -1.044586 2.047110 -0.904663
H -1.896825 -0.333723 1.139670
12
Aligned to gpa_Type_2.xyz, RMSD 0.29462
C -0.855301 -1.216347 -0.346547
C 0.569772 -1.297135 0.103105
C 1.316514 -0.018782 0.203227
C 0.789516 1.203423 -0.108794
C -0.674201 1.275220 -0.173807
C -1.108693 0.000446 0.573094
H -1.383738 -1.617776 -1.168130
H 0.945556 -2.265272 0.211232
H 2.265864 0.084544 0.683906
H 1.381965 2.168888 -0.191766
H -1.387816 1.757824 -1.032173
H -1.859438 -0.075034 1.246655
12
Aligned to gpa_Type_2.xyz, RMSD 0.34659
C -0.832958 -1.252268 -0.436950
C 0.532712 -1.214268 0.195695
C 1.167546 0.103569 0.431760
C 0.726299 1.371918 0.081797
C -0.616225 1.298449 -0.103129
C -1.175631 -0.085705 0.524056
H -1.446449 -1.541654 -1.288052
H 1.160156 -2.181356 0.175109
H 2.225527 -0.002764 0.582189
H 1.509346 1.974718 -0.592921
H -1.273685 1.650208 -0.886233
H -1.976638 -0.120850 1.316680
12
Aligned to gpa_Type_2.xyz, RMSD 0.28890
C -0.749294 -0.979866 -0.380088
C 0.603184 -1.156626 0.184107
C 1.495602 0.030364 0.224028
C 0.851970 1.204515 0.052024
C -0.645847 1.163297 -0.123171
C -1.659275 -0.076923 0.285538
H -1.198444 -1.783258 -0.901322
H 0.794836 -2.313477 0.103261
H 2.587889 0.063984 0.155916
H 1.250219 2.175395 0.106273
H -1.108519 1.509404 -1.049557
H -2.222320 0.163189 1.342993
12
Aligned to gpa_Type_2.xyz, RMSD 0.27387
C -1.071978 -1.213925 -0.365222
C 0.571650 -1.155583 -0.213025
C 1.081757 -0.034365 0.460683
C 0.582786 1.261160 0.150429
C -0.776033 1.290509 -0.165029
C -1.271278 -0.042933 0.315284
H -1.596486 -2.000188 -0.749029
H 1.333850 -2.001709 -0.274575
H 2.142587 -0.046142 0.808658
H 1.370631 2.131068 -0.130096
H -0.860816 1.638858 -1.258110
H -1.506670 0.173249 1.420034
12
Aligned to gpa_Type_2.xyz, RMSD 0.32309
C -0.666156 -0.979079 -0.373843
C 0.748137 -1.136526 -0.124840
C 1.457410 -0.073388 0.003179
C 0.741805 1.082055 -0.226938
C -0.724061 1.075637 -0.364025
C -1.524495 0.055984 0.281758
H -1.367262 -1.715722 -0.847079
H 0.947346 -2.093434 0.496126
H 2.453650 -0.142430 0.380398
H 1.097494 2.058175 0.324353
H -1.202447 1.802209 -0.900806
H -1.961418 0.066518 1.351717
12
Aligned to gpa_Type_1.xyz, RMSD 0.23306
C -0.762357 -0.985956 -0.199752
C 0.739705 -1.130900 -0.050578
C 1.570366 -0.063733 0.002381
C 0.851379 1.110441 0.146374
C -0.592999 0.964299 -0.283490
C -1.499845 0.054361 0.530185
H -1.533603 -1.815346 -0.604756
H 1.165252 -2.231313 0.141030
H 2.638603 0.112012 0.090198
H 1.234563 2.130395 0.362165
H -1.156564 1.608048 -0.955049
H -2.654502 0.247693 0.821291
12
Aligned to gpa_Type_1.xyz, RMSD 0.31228
C -0.743896 -1.103495 0.053193
C 0.824602 -1.366801 0.248972
C 1.464225 -0.154998 0.066903
C 0.718377 1.029823 0.017515
C -0.798005 1.182480 -0.335134
C -1.560638 0.091382 0.454219
H -0.943757 -1.101441 -1.017753
H 1.233086 -2.460207 0.049590
H 2.504493 0.041728 0.257436
H 1.232326 1.982845 0.035914
H -1.440163 1.655757 -0.992949
H -2.490650 0.202926 1.162093
12
Aligned to gpa_Type_2.xyz, RMSD 0.25029
C -0.792920 -1.102122 -0.599316
C 0.464828 -1.068771 0.061118
C 1.347528 0.026554 0.338304
C 0.706914 1.278403 0.150602
C -0.642563 1.128266 -0.292056
C -1.366633 -0.035435 0.157571
H -1.289259 -1.992482 -0.694139
H 0.799061 -2.080846 0.334450
H 2.278225 -0.280787 0.413793
H 1.192058 2.201460 -0.162638
H -1.196406 2.032983 -0.840461
H -1.500832 -0.107226 1.132773
12
Aligned to gpa_Type_2.xyz, RMSD 0.16967
C -0.909427 -1.197737 -0.564009
C 0.561349 -1.098557 -0.088294
C 1.256447 0.051233 0.278188
C 0.670048 1.281507 0.276760
C -0.748884 1.256643 -0.173448
C -1.309951 0.008015 0.244258
H -1.574033 -2.047358 -0.494638
H 0.882957 -1.994820 0.139082
H 2.461398 0.053692 0.375702
H 1.420509 2.065125 0.048397
H -0.959365 1.834326 -1.190683
H -1.751046 -0.212071 1.148685
12
Aligned to gpa_Type_2.xyz, RMSD 0.25732
C -0.891583 -1.131601 -0.565779
C 0.549329 -1.253646 -0.085671
C 1.176052 0.100436 0.250402
C 0.744804 1.321715 -0.067441
C -0.652180 1.355793 -0.160802
C -1.179936 0.047477 0.319493
H -1.468027 -2.081122 -0.886202
H 0.878561 -2.224618 0.100792
H 2.260873 -0.050244 0.966035
H 1.389954 2.233881 -0.336725
H -1.203549 1.867257 -0.920839
H -1.604296 -0.185328 1.386737
12
Aligned to gpa_Type_2.xyz, RMSD 0.21367
C -0.900918 -1.073745 -0.644461
C 0.459433 -1.109828 -0.017529
C 1.165300 -0.032819 0.298649
C 0.654549 1.385737 0.105993
C -0.648070 1.251720 -0.121089
C -1.246652 -0.009826 0.266342
H -1.448848 -1.935430 -0.810609
H 0.922975 -1.989871 0.332594
H 2.231872 -0.187306 0.604834
H 1.362062 2.157912 -0.185296
H -1.183356 1.776950 -1.053776
H -1.368346 -0.233495 1.224349
12
Aligned to gpa_Type_2.xyz, RMSD 0.24144
C -0.845937 -1.052893 -0.678814
C 0.403197 -1.043054 0.001574
C 1.177547 -0.050962 0.315856
C 0.609548 1.381883 0.140222
C -0.678124 1.196603 -0.238001
C -1.346371 -0.018161 0.126804
H -1.494386 -1.973953 -0.828637
H 0.916198 -1.925844 0.402693
H 2.429681 -0.259225 0.540788
H 1.299602 2.177686 -0.173244
H -1.111743 1.778796 -0.938554
H -1.359212 -0.210877 1.329314
12
Aligned to gpa_Type_2.xyz, RMSD 0.15409
C -0.838145 -1.116498 -0.467927
C 0.520608 -1.109789 0.023068
C 1.252942 -0.006248 0.315486
C 0.621110 1.236920 0.265562
C -0.754781 1.298602 -0.222559
C -1.217689 -0.031480 0.198823
H -1.496214 -1.977089 -0.804720
H 0.982559 -2.194089 0.174244
H 2.387076 -0.077750 0.392131
H 1.145252 2.139973 -0.090223
H -0.969308 1.801922 -1.051076
H -1.633410 0.035526 1.267191
12
Aligned to gpa_Type_1.xyz, RMSD 0.30745
C -0.761813 -1.053962 -0.051365
C 0.673232 -1.181797 0.232109
C 1.533522 -0.090657 -0.014055
C 0.646213 1.063109 0.058433
C -0.706975 1.048500 -0.278213
C -1.644677 0.125960 0.286590
H -0.931738 -1.613087 -0.931932
H 0.909634 -2.182578 0.182199
H 2.470256 -0.113425 0.034827
H 1.107330 2.167122 0.287587
H -1.117801 1.683977 -0.994163
H -2.177183 0.146837 1.187983
12
Aligned to gpa_Type_1.xyz, RMSD 0.18204
C -0.762870 -0.938110 0.139571
C 0.686805 -1.063224 0.142142
C 1.564218 -0.090001 0.049420
C 0.804723 1.098694 0.033126
C -0.649147 0.900295 -0.177219
C -1.593353 0.067057 0.660336
H -1.163489 -1.595908 -0.699922
H 1.088241 -2.048486 -0.058121
H 2.566563 -0.112162 0.059303
H 1.114469 2.007980 0.126331
H -1.051304 1.673803 -0.894265
H -2.604856 0.100061 0.619297
12
Aligned to gpa_Type_3.xyz, RMSD 0.29374
C -0.842562 -1.075278 -0.273058
C 0.544858 -1.103851 -0.226088
C 1.342232 -0.005518 0.168020
C 0.717144 1.239762 0.258728
C -0.809554 1.322254 -0.009561
C -1.484060 0.135530 0.213449
H -1.493085 -1.948125 -0.296858
H 1.093561 -1.934317 -0.138272
H 2.376501 -0.139483 0.173256
H 1.133312 2.235251 0.137206
H -0.325649 1.299062 -1.114002
H -2.252700 -0.025287 1.107181
12
Aligned to gpa_Type_3.xyz, RMSD 0.16647
C -0.856544 -1.031811 0.016863
C 0.551066 -1.000584 -0.124977
C 1.374709 0.161030 0.052463
C 0.761511 1.356133 0.242666
C -0.790665 1.350159 0.117426
C -1.488569 0.156118 0.302165
H -1.278990 -1.915846 -0.166320
H 1.097033 -1.801774 -0.291286
H 2.362873 -0.356840 -0.028886
H 1.392831 2.154712 0.412056
H -0.618777 0.923827 -1.091068
H -2.506478 0.004876 0.558899
12
Aligned to gpa_Type_1.xyz, RMSD 0.25705
C -0.768139 -1.034704 -0.256948
C 0.689946 -1.129211 0.120348
C 1.580923 0.018141 0.122078
C 0.714353 1.047223 -0.015409
C -0.706924 0.998034 -0.242961
C -1.548490 0.029364 0.479030
H -1.041449 -1.850951 -1.012145
H 0.844325 -2.253006 0.190769
H 2.704358 -0.007277 0.183080
H 1.122627 2.119955 0.111705
H -1.128020 1.790156 -0.882800
H -2.463512 0.272274 1.203251
12
Aligned to gpa_Type_1.xyz, RMSD 0.30412
C -0.818124 -0.973011 -0.183287
C 0.640895 -1.226969 0.004156
C 1.561219 0.000710 0.253861
C 0.732136 1.074563 -0.118855
C -0.602527 1.057928 -0.328037
C -1.617767 0.034181 0.403895
H -1.349318 -1.567238 -0.993862
H 0.979694 -2.353118 -0.049777
H 2.599730 0.265900 0.637716
H 1.290287 2.012977 -0.067438
H -1.171586 1.659407 -1.007290
H -2.244639 0.014670 1.448918
12
Aligned to gpa_Type_3.xyz, RMSD 0.15728
C -0.892794 -1.092200 -0.114729
C 0.514062 -1.071694 -0.163720
C 1.416216 0.017286 0.184527
C 0.733249 1.203177 0.240073
C -0.798991 1.405660 -0.111836
C -1.455107 0.165742 0.216467
H -1.345106 -2.096522 0.062423
H 1.127287 -1.967399 -0.476575
H 2.442229 -0.048124 -0.005146
H 1.170833 2.164107 0.598189
H -0.463086 1.076098 -1.270229
H -2.448792 0.243870 0.840557
12
Aligned to gpa_Type_3.xyz, RMSD 0.15843
C -0.882407 -1.101313 0.029205
C 0.519972 -1.052219 -0.408520
C 1.302710 0.179631 -0.245837
C 0.707727 1.317637 0.175382
C -0.710590 1.440727 0.033508
C -1.431762 0.173448 0.334601
H -1.247168 -2.122078 0.008208
H 1.056865 -2.103834 -0.334375
H 2.377690 0.021920 0.329558
H 1.362413 2.034008 0.563086
H -0.604801 0.987806 -1.106001
H -2.450650 0.224267 0.621186
12
Aligned to gpa_Type_1.xyz, RMSD 0.27382
C -0.775832 -1.020075 -0.202485
C 0.625828 -1.235267 0.099102
C 1.446324 -0.054882 0.211831
C 0.774879 1.091982 -0.068656
C -0.767066 1.073206 -0.139794
C -1.670194 -0.021520 0.447304
H -1.121832 -1.479253 -1.100826
H 1.034811 -2.181714 0.114522
H 2.559933 -0.006565 0.453356
H 1.148090 2.063789 -0.229451
H -1.019544 1.751231 -0.946735
H -2.235398 0.019070 1.361831
12
Aligned to gpa_Type_3.xyz, RMSD 0.20947
C -0.916208 -1.064280 -0.127206
C 0.561562 -1.097860 -0.355273
C 1.395867 0.112478 0.071868
C 0.724158 1.263261 0.179143
C -0.715638 1.514733 -0.119040
C -1.458115 0.284008 0.223269
H -1.352105 -1.978584 0.097506
H 1.188595 -2.074101 -0.480680
H 2.422288 0.049221 0.370033
H 1.476988 1.990887 0.526256
H -0.809633 0.991549 -1.217770
H -2.517759 0.008689 0.831894
12
Aligned to gpa_Type_2.xyz, RMSD 0.33045
C -0.982454 -1.127802 -0.231085
C 0.537184 -1.158507 0.144149
C 1.374482 0.000552 0.281852
C 0.760595 1.228481 0.178148
C -0.551414 1.213819 0.183937
C -1.605602 0.197935 0.412353
H -1.333401 -1.795340 -1.064908
H 1.088753 -1.980941 -0.072002
H 2.536205 0.126830 0.233038
H 1.388829 2.084338 -0.161662
H -0.949463 1.078026 -0.999638
H -2.263712 0.132608 1.095820
12
Aligned to gpa_Type_2.xyz, RMSD 0.17023
C -0.827382 -1.066957 -0.560646
C 0.565505 -1.101584 -0.122474
C 1.226515 0.056242 0.340762
C 0.671720 1.279724 0.238894
C -0.838585 1.338661 -0.157772
C -1.266473 -0.000638 0.219868
H -1.301203 -1.909710 -0.437954
H 0.976484 -2.140011 0.044195
H 2.277061 -0.278609 0.472401
H 1.245291 2.072290 -0.003531
H -1.127938 1.723813 -1.118807
H -1.600994 0.026779 1.085065
12
Aligned to gpa_Type_2.xyz, RMSD 0.21423
C -0.906339 -1.124939 -0.552313
C 0.511008 -1.036589 -0.188219
C 1.195814 -0.022614 0.223168
C 0.767686 1.408038 0.221557
C -0.761292 1.371341 -0.190465
C -1.207644 0.084178 0.265358
H -1.440404 -2.165588 -0.393492
H 1.017248 -1.984380 -0.162769
H 2.245187 -0.080191 0.485304
H 1.576885 2.180949 0.224457
H -1.014883 1.422420 -1.280955
H -1.983265 -0.052625 1.348369
12
Aligned to gpa_Type_1.xyz, RMSD 0.18678
C -0.692649 -0.978342 -0.257892
C 0.568818 -1.238644 0.252646
C 1.485354 -0.047619 0.144228
C 0.746684 1.203638 0.011951
C -0.645214 0.972591 -0.309403
C -1.530812 0.041450 0.598007
H -1.130027 -1.715917 -0.795974
H 1.126803 -2.151750 -0.083448
H 2.510750 -0.263359 0.305220
H 1.252432 2.307716 0.025436
H -1.252209 1.707180 -0.940416
H -2.439931 0.163056 1.049646
12
Aligned to gpa_Type_1.xyz, RMSD 0.28162
C -0.683862 -1.111987 -0.109404
C 0.769830 -1.325895 0.045570
C 1.337719 -0.121118 0.370933
C 0.582184 1.100834 0.004334
C -0.683984 1.028221 -0.506415
C -1.418585 0.178029 0.539160
H -1.359652 -1.518640 -0.870389
H 1.355135 -2.114130 -0.173899
H 2.325307 -0.025975 0.434901
H 1.360382 2.042836 0.070418
H -1.252509 1.687305 -1.096562
H -2.331968 0.180522 1.291353
12
Aligned to gpa_Type_1.xyz, RMSD 0.19623
C -0.802953 -0.983504 -0.159578
C 0.771950 -1.210493 0.121448
C 1.464702 -0.127876 0.305801
C 0.798848 1.129060 0.025186
C -0.744981 1.061707 -0.301822
C -1.386992 0.093073 0.673537
H -1.233053 -1.824070 -0.682522
H 1.291091 -2.228202 -0.135066
H 2.605394 -0.251738 0.196191
H 1.090680 2.238162 0.086881
H -1.322169 1.737658 -0.874975
H -2.532516 0.366222 0.744919
12
Aligned to gpa_Type_1.xyz, RMSD 0.15766
C -0.776926 -0.981644 -0.171564
C 0.712598 -1.190311 0.112796
C 1.572659 -0.151826 0.377075
C 0.847446 1.129705 0.092189
C -0.696137 1.012301 -0.298104
C -1.423802 0.106057 0.659115
H -1.226928 -1.767867 -0.739453
H 1.066311 -2.121367 -0.168553
H 2.580727 -0.118050 0.266866
H 1.138256 2.147689 -0.047802
H -1.393397 1.684131 -0.872641
H -2.400809 0.251184 0.790076
12
Aligned to gpa_Type_1.xyz, RMSD 0.19566
C -0.632532 -1.050008 0.112690
C 0.826179 -1.222876 0.154014
C 1.568764 -0.108158 0.236660
C 0.748229 1.105428 -0.033293
C -0.664356 0.933428 -0.087227
C -1.520360 0.111096 0.835192
H -1.113634 -1.324311 -0.854950
H 0.984871 -2.131610 -0.235492
H 2.496849 -0.109764 0.337362
H 1.131326 2.067278 -0.217652
H -1.315382 1.521652 -0.821798
H -2.509955 0.207845 0.574494
12
Aligned to gpa_Type_2.xyz, RMSD 0.27412
C -0.703316 -0.919363 -0.271050
C 0.763366 -1.217983 -0.128910
C 1.440371 -0.074927 0.118975
C 0.648630 1.159223 0.141734
C -0.773378 1.128025 -0.354605
C -1.539067 0.059276 0.300416
H -1.552065 -1.705695 -0.542432
H 1.113489 -2.308378 -0.077471
H 2.430580 0.058011 0.560254
H 1.253003 2.058424 0.243637
H -1.123370 1.757242 -1.370279
H -1.958242 0.006145 1.379733
12
Aligned to gpa_Type_2.xyz, RMSD 0.26666
C -0.922484 -1.121981 -0.629165
C 0.390388 -1.167888 0.015251
C 1.239125 0.057186 0.346115
C 0.690999 1.410783 -0.113903
C -0.685005 1.325331 -0.213178
C -1.278999 -0.053713 0.297630
H -1.415150 -2.040730 -0.810738
H 0.968809 -2.249311 0.239951
H 2.221883 -0.045119 0.747866
H 1.576270 2.199450 -0.284258
H -1.226864 1.975983 -0.833348
H -1.558969 -0.289992 1.237777
12
Aligned to gpa_Type_2.xyz, RMSD 0.29751
C -0.809982 -1.119468 -0.693207
C 0.438985 -1.217427 0.028195
C 1.244916 0.096510 0.365974
C 0.781550 1.355062 -0.146463
C -0.527203 1.321516 -0.171952
C -1.362966 -0.038116 0.286886
H -1.197229 -2.149873 -0.919768
H 0.783840 -2.102806 0.313340
H 2.283174 -0.185161 0.645682
H 1.293293 2.165570 -0.413295
H -1.154887 2.054305 -0.685861
H -1.773491 -0.180111 1.390471
12
Aligned to gpa_Type_2.xyz, RMSD 0.23952
C -0.843720 -0.977563 -0.617984
C 0.411013 -1.007159 0.044703
C 1.294570 0.067392 0.249342
C 0.786801 1.337547 0.019109
C -0.699668 1.188616 0.083335
C -1.506582 0.077038 0.300521
H -1.326995 -1.919891 -0.742153
H 1.052591 -2.038574 0.336669
H 2.349348 -0.120238 0.356104
H 1.612415 2.115192 -0.297812
H -1.066845 1.603760 -0.801694
H -2.062926 -0.326121 1.069859
12
Aligned to gpa_Type_2.xyz, RMSD 0.30148
C -0.900212 -1.114119 -0.344081
C 0.527009 -1.170970 0.030255
C 1.334011 -0.047530 0.075482
C 0.667554 1.251090 -0.012007
C -0.733553 1.257665 -0.414846
C -1.532341 0.043118 0.395655
H -1.262170 -1.924685 -0.875291
H 1.170961 -2.080880 0.332876
H 2.402364 -0.212427 0.126634
H 1.293102 2.101863 0.556711
H -1.126719 1.749540 -1.270966
H -1.840005 0.147334 1.399580
12
Aligned to gpa_Type_2.xyz, RMSD 0.26754
C -0.878705 -1.071836 -0.378676
C 0.563923 -1.162843 0.023207
C 1.276417 -0.026567 0.094071
C 0.786971 1.301213 -0.059514
C -0.747752 1.259732 -0.332639
C -1.510491 -0.024480 0.416631
H -1.389635 -1.947524 -0.810376
H 1.206910 -1.967797 0.249662
H 2.318223 -0.104371 0.172304
H 1.370089 1.986859 0.502112
H -1.042701 1.692743 -1.273865
H -1.953248 0.064869 1.397083
12
Aligned to gpa_Type_2.xyz, RMSD 0.24394
C -0.890867 -1.102257 -0.624806
C 0.524924 -1.170393 -0.240560
C 1.233502 0.004383 0.338025
C 0.696579 1.333469 0.045198
C -0.705547 1.195420 -0.212413
C -1.256228 -0.029490 0.284989
H -1.449818 -1.917358 -0.476218
H 0.910903 -2.082286 -0.123386
H 2.158824 -0.216851 0.982029
H 1.310633 2.388019 -0.223738
H -1.061448 1.697476 -1.028060
H -1.471456 -0.100133 1.278940
12
Aligned to gpa_Type_2.xyz, RMSD 0.23938
C -0.850653 -1.080217 -0.325170
C 0.568477 -1.144458 -0.107274
C 1.398449 0.027836 0.184446
C 0.715442 1.235435 -0.011380
C -0.644293 0.987801 -0.330132
C -1.631546 0.010288 0.311728
H -1.370078 -1.865501 -1.009147
H 0.910969 -2.033873 0.193215
H 2.541014 0.105197 0.540268
H 1.408454 2.001894 0.027483
H -1.117709 1.698726 -0.971757
H -1.928525 0.056870 1.497722
12
Aligned to gpa_Type_2.xyz, RMSD 0.28356
C -0.751468 -1.105345 -0.364596
C 0.649484 -1.192344 -0.054278
C 1.388677 -0.077897 0.193564
C 0.611533 1.162120 0.069285
C -0.780768 1.070873 -0.430629
C -1.521453 0.054631 0.404920
H -1.301935 -1.904716 -0.843447
H 1.007597 -2.161459 0.206360
H 2.665453 -0.119970 0.296502
H 1.150260 2.084916 0.241241
H -1.094755 1.959480 -1.147943
H -2.022624 0.229710 1.429023
12
Aligned to gpa_Type_3.xyz, RMSD 0.19695
C -0.809966 -1.056021 -0.002566
C 0.624798 -1.126417 -0.265536
C 1.368224 0.030864 0.044652
C 0.715985 1.209942 0.231849
C -0.766968 1.452678 -0.103638
C -1.371152 0.164981 0.334770
H -1.325913 -1.900411 -0.091239
H 1.124447 -1.916994 -0.407508
H 2.516503 -0.181253 0.121640
H 1.083783 2.138631 0.656377
H -0.661936 0.915687 -1.388217
H -2.497806 0.268315 0.869417
12
Aligned to gpa_Type_3.xyz, RMSD 0.16520
C -0.775879 -1.024299 0.124794
C 0.564257 -1.030073 -0.247707
C 1.388900 0.105732 0.032270
C 0.637220 1.239029 0.158026
C -0.811133 1.453153 -0.114514
C -1.424936 0.185119 0.330209
H -1.294188 -2.023521 -0.075084
H 1.036239 -2.127532 -0.495813
H 2.486465 0.004756 0.184328
H 1.220433 1.991688 0.619462
H -0.681958 0.941307 -1.201465
H -2.345420 0.284643 0.685494
12
Aligned to gpa_Type_3.xyz, RMSD 0.31798
C -0.893043 -1.162274 -0.161847
C 0.497914 -1.047950 -0.274482
C 1.266451 0.090960 0.244980
C 0.684854 1.283958 0.185187
C -0.854784 1.362465 -0.135471
C -1.399223 0.022457 0.251406
H -1.345523 -1.998766 -0.023209
H 1.149814 -1.977406 -0.752483
H 2.358376 -0.062443 0.648904
H 1.310699 2.100779 0.119498
H -0.549516 1.092017 -1.092303
H -2.226021 0.296205 0.989821
12
Aligned to gpa_Type_3.xyz, RMSD 0.27125
C -0.853204 -1.115354 -0.021345
C 0.545379 -1.046928 -0.252503
C 1.417980 0.115270 0.054850
C 0.774239 1.309962 0.114521
C -0.729295 1.331533 0.077137
C -1.491062 0.060393 0.395600
H -1.160083 -2.288690 -0.256209
H 0.810476 -1.944057 -0.532166
H 2.298662 -0.108327 0.479378
H 1.419572 2.393511 0.174151
H -0.595176 0.959589 -0.920587
H -2.437489 0.333099 0.687174
12
Aligned to gpa_Type_1.xyz, RMSD 0.23158
C -0.792710 -0.882373 -0.078826
C 0.713493 -1.108074 0.007688
C 1.434707 -0.058235 0.233835
C 0.729787 1.167957 0.190900
C -0.732259 1.163725 -0.210269
C -1.447231 0.217354 0.589013
H -1.247445 -1.591520 -0.697815
H 1.159008 -2.198680 -0.174072
H 2.411623 -0.070880 0.197678
H 1.280914 1.978599 0.182769
H -1.123835 1.339885 -1.256079
H -2.386054 0.042244 1.015177
12
Aligned to gpa_Type_3.xyz, RMSD 0.16862
C -0.915162 -1.073799 -0.231596
C 0.556312 -1.053802 -0.077324
C 1.329814 0.081333 0.072819
C 0.757485 1.314930 0.284601
C -0.749133 1.325638 0.105345
C -1.509234 0.092640 0.240121
H -1.346797 -2.064740 -0.185147
H 0.936813 -2.014555 -0.330526
H 2.533230 0.024598 0.167125
H 1.347719 2.191114 0.253870
H -0.572612 1.034511 -1.091756
H -2.368436 0.142134 0.792469
12
Aligned to gpa_Type_2.xyz, RMSD 0.20019
C -0.909431 -1.046826 -0.385718
C 0.518542 -1.022309 -0.261508
C 1.340385 0.112697 0.284338
C 0.746222 1.418620 0.119455
C -0.619142 1.147704 -0.216632
C -1.340540 -0.010272 0.406549
H -1.303745 -1.923126 -0.721308
H 0.783037 -2.108343 -0.186288
H 2.208911 -0.099247 0.770769
H 1.477589 2.232189 -0.040474
H -1.092160 1.327100 -1.208292
H -1.809668 -0.028188 1.439110
12
Aligned to gpa_Type_2.xyz, RMSD 0.15817
C -0.957951 -1.140807 -0.409384
C 0.547418 -1.065297 -0.168333
C 1.228952 0.126196 0.337659
C 0.707256 1.422551 0.193036
C -0.617123 1.094998 -0.169827
C -1.304677 -0.025386 0.431064
H -1.485945 -2.061375 -0.769672
H 0.885984 -2.061164 -0.147720
H 2.328546 -0.108171 0.602000
H 1.282338 2.287531 -0.086432
H -0.816534 1.463575 -1.149138
H -1.798263 0.067347 1.336748
12
Aligned to gpa_Type_2.xyz, RMSD 0.18627
C -0.960264 -1.207137 -0.476798
C 0.523898 -1.131575 -0.081526
C 1.208656 0.028755 0.379751
C 0.726495 1.316156 0.237890
C -0.578853 1.119684 -0.152900
C -1.266600 -0.007937 0.366529
H -1.622835 -1.965664 -0.746349
H 1.217229 -2.041484 -0.030849
H 2.219682 -0.076273 0.384049
H 1.140777 2.281189 -0.082540
H -0.713311 1.589751 -1.121098
H -1.894873 0.094533 1.323842
12
Aligned to gpa_Type_2.xyz, RMSD 0.23078
C -0.848736 -1.015971 -0.430294
C 0.642022 -1.180986 -0.146700
C 1.448702 -0.015150 0.288929
C 0.696628 1.168317 0.149233
C -0.772804 1.124043 -0.287028
C -1.407578 0.012122 0.421886
H -1.409852 -1.825545 -0.780891
H 1.065385 -2.209337 -0.044378
H 2.554059 -0.171813 0.654260
H 1.018562 2.117064 0.026590
H -1.177528 1.674058 -1.185312
H -1.808857 0.323196 1.333705
12
Aligned to gpa_Type_2.xyz, RMSD 0.18351
C -0.935750 -1.049811 -0.509809
C 0.498325 -1.087792 -0.012946
C 1.290995 0.054727 0.503376
C 0.741989 1.281491 0.063690
C -0.777748 1.314337 0.011637
C -1.416132 0.107639 0.392508
H -1.285609 -2.035286 -0.626093
H 0.959355 -2.102538 -0.246177
H 2.511256 0.002257 0.461930
H 1.420586 2.092138 -0.163349
H -0.906533 1.439039 -1.077627
H -2.100734 -0.016201 1.202861
12
Aligned to gpa_Type_3.xyz, RMSD 0.21784
C -0.796911 -1.076274 -0.213085
C 0.511137 -1.075015 -0.149573
C 1.331837 0.098533 -0.028649
C 0.712904 1.410668 0.163158
C -0.703888 1.487727 0.007658
C -1.445933 0.081710 0.216520
H -1.458312 -2.192629 -0.266161
H 0.892641 -2.058929 -0.118532
H 2.465381 -0.056627 0.189628
H 1.483114 2.281574 0.418599
H -0.688138 1.138255 -1.077372
H -2.303832 -0.038992 0.857812
12
Aligned to gpa_Type_2.xyz, RMSD 0.31323
C -0.894704 -1.281026 -0.491302
C 0.463311 -1.220787 0.025903
C 1.228498 0.081670 0.151309
C 0.776321 1.403238 0.082482
C -0.630773 1.347719 -0.265793
C -1.243298 -0.037989 0.228719
H -1.298204 -2.172268 -1.012167
H 0.955713 -2.183627 0.537631
H 2.252077 -0.270701 0.422283
H 1.407698 2.287743 -0.150829
H -1.318110 2.073468 -0.722668
H -1.698528 -0.027443 1.194433
12
Aligned to gpa_Type_1.xyz, RMSD 0.18383
C -0.641636 -0.907440 -0.027154
C 0.773738 -1.264830 0.208741
C 1.491235 -0.130378 0.090013
C 0.794536 1.140277 -0.164317
C -0.661091 1.052685 -0.217504
C -1.385824 0.204458 0.709094
H -1.272201 -1.591256 -0.693065
H 1.051754 -2.272960 -0.044556
H 2.522479 -0.156726 0.260245
H 1.174284 2.174540 0.189712
H -1.503819 1.708971 -0.858477
H -2.343457 0.042659 0.547267
12
Aligned to gpa_Type_1.xyz, RMSD 0.22566
C -0.701959 -1.027632 -0.091856
C 0.728623 -1.232258 0.097818
C 1.426840 -0.101078 0.089050
C 0.686568 1.121598 -0.123334
C -0.696993 0.993207 -0.250525
C -1.463272 0.046720 0.613916
H -1.189736 -1.666312 -0.900806
H 1.180598 -2.190561 0.151532
H 2.469621 -0.023483 0.114925
H 1.212518 1.995787 0.394605
H -1.337078 1.717443 -1.044070
H -2.315730 0.366568 0.948745
12
Aligned to gpa_Type_2.xyz, RMSD 0.40477
C -0.867741 -0.986433 -0.255017
C 0.470921 -1.162469 0.021746
C 1.065514 -0.085521 0.415745
C 0.607766 1.197943 -0.035440
C -0.851648 1.022492 -0.360806
C -1.472258 0.023214 0.491234
H -1.264199 -1.272748 -1.105532
H 1.260269 -2.033760 -0.124557
H 2.117128 -0.218568 0.665908
H 1.161425 2.097131 0.047119
H -0.960506 1.265095 -1.376721
H -1.266671 0.153622 1.616321
12
Aligned to gpa_Type_3.xyz, RMSD 0.16166
C -0.835878 -1.049258 -0.152931
C 0.556776 -1.074380 -0.129504
C 1.478661 0.126733 -0.063384
C 0.784736 1.290664 0.197945
C -0.730471 1.395559 0.151003
C -1.539836 0.074127 0.236962
H -1.509474 -1.878284 -0.155384
H 1.135012 -2.226849 -0.130207
H 2.499884 0.076745 -0.024623
H 1.348110 2.136466 0.456749
H -0.660515 1.092816 -1.042268
H -2.527005 0.035663 0.655644
12
Aligned to gpa_Type_3.xyz, RMSD 0.17985
C -0.823447 -1.048894 -0.113653
C 0.607748 -1.059637 -0.066531
C 1.431850 0.093598 -0.025080
C 0.802007 1.365787 0.258325
C -0.734221 1.431031 0.065459
C -1.579917 0.028094 0.282528
H -1.465257 -1.902867 -0.266349
H 0.985053 -1.987400 -0.132145
H 2.546706 -0.122555 -0.087242
H 1.398195 2.269090 0.413108
H -0.562799 1.003862 -1.025659
H -2.605920 -0.070106 0.697240
12
Aligned to gpa_Type_3.xyz, RMSD 0.19195
C -0.841097 -1.110377 -0.011262
C 0.493299 -1.086603 -0.013574
C 1.349625 0.146912 -0.047027
C 0.813026 1.329497 0.300885
C -0.811690 1.521566 0.085941
C -1.584169 0.117985 0.279750
H -1.137731 -2.131495 -0.210746
H 1.059156 -2.035212 -0.122941
H 2.417897 -0.115585 -0.215399
H 1.459918 2.073392 0.453650
H -0.544937 1.190821 -1.053438
H -2.673299 0.099100 0.554161
12
Aligned to gpa_Type_3.xyz, RMSD 0.16408
C -0.830655 -1.057883 -0.062611
C 0.571404 -1.026168 -0.059874
C 1.343244 0.133786 -0.006944
C 0.773613 1.328002 0.292410
C -0.795521 1.494337 0.009979
C -1.585021 0.110253 0.262495
H -1.276135 -2.027449 -0.162069
H 1.104779 -2.122289 -0.208469
H 2.329915 -0.151303 -0.123380
H 1.521484 2.216305 0.405985
H -0.594620 1.099735 -0.883083
H -2.562488 0.002674 0.535560
12
Aligned to gpa_Type_2.xyz, RMSD 0.33277
C -0.855336 -1.178301 -0.116777
C 0.595810 -1.120269 0.053068
C 1.276042 0.049505 0.307166
C 0.709067 1.215715 -0.006461
C -0.703101 1.025983 -0.196731
C -1.357878 -0.043109 0.587067
H -1.293772 -1.332642 -1.176744
H 1.158790 -1.907416 -0.069149
H 2.257593 -0.119932 0.580713
H 1.405322 1.983356 -0.262838
H -1.071717 1.417282 -1.116260
H -2.120820 0.009828 1.416947
12
Aligned to gpa_Type_2.xyz, RMSD 0.26867
C -0.834203 -1.048629 -0.174182
C 0.557636 -1.163592 0.130851
C 1.365800 -0.074207 0.252848
C 0.708065 1.150970 -0.029097
C -0.660566 1.112464 -0.292107
C -1.410790 0.112905 0.575224
H -1.228758 -1.672340 -1.054553
H 1.020307 -2.092324 -0.073165
H 2.531358 -0.089749 0.454341
H 1.202996 2.097831 0.077508
H -1.163944 1.586631 -1.282408
H -2.087900 0.080038 1.414741
12
Aligned to gpa_Type_1.xyz, RMSD 0.18793
C -0.780283 -1.013884 -0.137138
C 0.699628 -1.042484 -0.012165
C 1.484386 -0.012029 0.104468
C 0.762235 1.124154 -0.097476
C -0.712238 0.969214 -0.323275
C -1.312267 0.014277 0.626690
H -1.360254 -1.604897 -0.697088
H 1.300247 -2.112315 -0.028496
H 2.466987 -0.262708 0.417007
H 1.066190 2.013270 0.233591
H -1.255021 1.627641 -1.006628
H -2.359610 0.299761 0.920507
12
Aligned to gpa_Type_3.xyz, RMSD 0.20228
C -0.772821 -1.094230 0.000047
C 0.612237 -1.099061 -0.106117
C 1.327916 0.093931 0.043330
C 0.659188 1.355120 0.242224
C -0.821052 1.358295 -0.131760
C -1.513229 0.121322 0.234896
H -1.249452 -2.151352 -0.045263
H 0.916337 -1.994092 -0.623428
H 2.329647 -0.137949 0.210117
H 1.157097 2.179811 0.371300
H -0.259710 1.087276 -1.027435
H -2.386160 0.280930 0.832089
12
Aligned to gpa_Type_3.xyz, RMSD 0.22149
C -0.837574 -1.071544 -0.052510
C 0.601899 -1.086465 -0.168572
C 1.315417 0.099473 0.125855
C 0.699261 1.262672 0.377023
C -0.849031 1.380969 -0.053541
C -1.503349 0.115509 0.311244
H -1.339083 -1.967291 -0.096082
H 0.931817 -2.066090 -0.590423
H 2.397305 -0.098737 0.253398
H 1.288535 2.320555 0.136563
H -0.245267 1.092640 -1.052089
H -2.459932 0.018309 0.809136
12
Aligned to gpa_Type_1.xyz, RMSD 0.36165
C -0.803687 -1.074882 -0.099879
C 0.769580 -1.157309 0.021898
C 1.349745 0.027378 0.268075
C 0.693777 1.094342 -0.091687
C -0.824059 1.117264 -0.229328
C -1.305460 -0.010893 0.627469
H -1.453504 -1.337752 -0.987529
H 1.208424 -2.120218 -0.310935
H 2.249548 0.065495 0.872737
H 1.491221 1.879135 -0.167194
H -1.287348 1.404854 -1.207977
H -2.088236 0.112584 1.304350
12
Aligned to gpa_Type_3.xyz, RMSD 0.15490
C -0.934572 -1.093232 -0.111587
C 0.571663 -0.964180 -0.239827
C 1.390158 -0.028269 0.112163
C 0.796607 1.252875 0.345493
C -0.846924 1.393217 -0.087936
C -1.410319 0.215309 0.259349
H -1.372644 -1.933267 0.219518
H 1.114124 -1.874922 -0.487227
H 2.374566 -0.168858 -0.013436
H 1.208707 2.181722 0.590685
H -0.542684 0.958800 -1.173544
H -2.348684 0.060806 0.586350
12
Aligned to gpa_Type_3.xyz, RMSD 0.18078
C -0.850367 -1.109167 -0.063674
C 0.554081 -0.962214 -0.266553
C 1.345192 0.059980 0.102171
C 0.766592 1.251248 0.328833
C -0.885706 1.369230 -0.070281
C -1.418130 0.100204 0.350235
H -1.487557 -2.026818 0.276100
H 1.128692 -1.772703 -0.613427
H 2.519872 -0.189627 0.074436
H 1.309350 2.185796 0.501733
H -0.400201 0.979248 -1.165861
H -2.581817 0.114823 0.546290
12
Aligned to gpa_Type_3.xyz, RMSD 0.30145
C -0.885197 -1.096911 0.042076
C 0.496479 -1.110053 -0.210302
C 1.273866 0.167661 0.143870
C 0.631170 1.297285 0.209421
C -0.842924 1.405078 -0.159941
C -1.482436 0.038172 0.408726
H -1.237006 -2.003355 -0.307382
H 0.939801 -2.019223 -0.603139
H 2.334898 -0.035105 0.509135
H 1.292863 2.104990 0.091160
H -0.297827 1.097398 -1.082353
H -2.223688 0.154064 0.958731
12
Aligned to gpa_Type_2.xyz, RMSD 0.18841
C -0.754840 -0.948754 -0.556450
C 0.518481 -1.127749 -0.257331
C 1.298649 0.020892 0.238507
C 0.752027 1.241011 0.030678
C -0.650056 1.233657 -0.215302
C -1.313052 0.013032 0.373312
H -1.381241 -1.957774 -0.741585
H 0.731219 -2.052086 0.345784
H 2.399385 -0.170745 0.637503
H 1.172602 2.203854 -0.125594
H -1.087838 1.805698 -1.058939
H -1.685336 -0.261036 1.329417
12
Aligned to gpa_Type_2.xyz, RMSD 0.27641
C -0.822036 -1.022470 -0.240161
C 0.588767 -1.003508 0.045968
C 1.352624 0.024088 0.405995
C 0.771822 1.167453 -0.049953
C -0.632155 1.056216 -0.167606
C -1.257225 0.086445 0.548181
H -1.612442 -1.607147 -0.990287
H 1.163640 -2.000430 -0.173321
H 2.405336 -0.094869 0.593264
H 1.299813 2.086890 0.013218
H -1.240215 1.272417 -1.272337
H -2.017928 0.034914 1.287041
12
Aligned to gpa_Type_2.xyz, RMSD 0.20852
C -0.896528 -1.015673 -0.450125
C 0.553886 -1.110831 -0.045703
C 1.352031 -0.023556 0.311943
C 0.737038 1.239096 0.039301
C -0.705650 1.157324 -0.185350
C -1.422131 0.048971 0.421373
H -1.363117 -1.819006 -1.089620
H 1.004652 -1.989757 0.200577
H 2.357783 -0.306338 0.642897
H 1.196466 2.226940 -0.151349
H -1.166760 1.616781 -1.205678
H -1.647669 -0.023952 1.511736
12
Aligned to gpa_Type_2.xyz, RMSD 0.20117
C -0.914001 -0.970442 -0.307757
C 0.485978 -0.974964 0.024255
C 1.362570 0.055323 0.331907
C 0.717417 1.215219 0.021426
C -0.673649 1.227818 -0.141852
C -1.427360 0.070572 0.489253
H -1.247811 -1.776171 -0.794357
H 1.042870 -1.960324 -0.154914
H 2.372182 -0.251251 0.424552
H 1.190030 2.116164 -0.028488
H -0.832938 1.313400 -1.196443
H -2.075286 -0.065347 1.332419
12
Aligned to gpa_Type_2.xyz, RMSD 0.25752
C -0.982366 -1.176160 -0.432758
C 0.519098 -1.106292 -0.167591
C 1.098183 -0.006974 0.435385
C 0.639578 1.314616 0.044896
C -0.692012 1.339063 -0.317972
C -1.149895 0.014591 0.268511
H -1.401148 -2.053969 -0.461254
H 1.098109 -2.071377 -0.238232
H 2.108720 -0.242398 0.733968
H 1.218699 2.147752 0.116664
H -1.036769 1.830743 -1.302897
H -1.420197 0.010405 1.321281
12
Aligned to gpa_Type_2.xyz, RMSD 0.24856
C -0.778696 -1.113141 -0.589752
C 0.478028 -1.050918 0.125540
C 1.282871 0.087416 0.187255
C 0.761812 1.335074 0.007340
C -0.742895 1.350377 -0.123454
C -1.336689 0.029779 0.209935
H -1.374217 -2.139499 -0.705821
H 1.015589 -1.987348 0.370437
H 2.350552 -0.276900 0.224316
H 1.555283 2.034045 0.213539
H -1.382071 1.805104 -1.021934
H -1.829566 -0.073991 1.102599
12
Aligned to gpa_Type_2.xyz, RMSD 0.18162
C -0.876698 -1.176624 -0.398776
C 0.497672 -1.112152 0.042139
C 1.303487 0.109978 0.331411
C 0.746339 1.445489 0.189058
C -0.578973 1.268436 -0.117698
C -1.341732 -0.082692 0.342094
H -1.669974 -1.797501 -0.929415
H 0.925856 -1.984245 0.052368
H 2.358701 0.055047 0.471807
H 1.407080 2.129572 -0.195301
H -0.902069 1.400137 -1.115138
H -1.869688 -0.255446 1.327452
12
Aligned to gpa_Type_3.xyz, RMSD 0.13839
C -0.844231 -1.022673 0.020223
C 0.626433 -1.172017 -0.157839
C 1.353947 0.090786 -0.078042
C 0.685060 1.323820 0.294076
C -0.738010 1.514890 -0.057268
C -1.415720 0.094481 0.340020
H -1.520562 -1.896867 -0.046789
H 1.181585 -2.164109 -0.402086
H 2.365454 0.039284 0.027473
H 1.182152 2.086250 0.570921
H -0.486276 0.992191 -1.172477
H -2.389834 0.113964 0.661788
12
Aligned to gpa_Type_3.xyz, RMSD 0.24336
C -0.844626 -1.117792 -0.026021
C 0.561930 -1.143499 -0.117160
C 1.379938 0.077081 0.061995
C 0.810340 1.426622 0.108581
C -0.723622 1.259328 0.151129
C -1.550942 0.113806 0.462908
H -1.370419 -2.035276 -0.312944
H 1.030131 -2.099206 -0.445117
H 2.352751 0.005376 0.296802
H 1.307791 2.228972 0.060857
H -0.350577 1.195365 -0.938607
H -2.602696 0.089223 0.697579
12
Aligned to gpa_Type_3.xyz, RMSD 0.25104
C -0.786600 -1.066313 -0.132841
C 0.553474 -1.098151 -0.119938
C 1.372616 0.104565 0.171065
C 0.715258 1.345889 0.282690
C -0.753122 1.325731 0.259056
C -1.430066 0.145758 0.551078
H -1.335306 -1.970613 -0.391308
H 1.118971 -2.108612 -0.318933
H 2.379592 -0.095683 0.043238
H 1.217594 2.219319 0.049607
H -0.560292 0.902143 -0.904251
H -2.492121 0.295969 0.510537
12
Aligned to gpa_Type_2.xyz, RMSD 0.16158
C -0.862505 -1.082188 -0.479773
C 0.426629 -1.013736 0.035956
C 1.198690 0.109735 0.367012
C 0.785075 1.354013 0.199002
C -0.597749 1.239239 -0.057892
C -1.323034 0.067268 0.380766
H -1.277570 -2.107922 -0.807657
H 0.948529 -2.150025 0.132703
H 2.360467 -0.135958 0.262345
H 1.294616 2.133107 -0.236454
H -0.917111 1.705533 -0.979275
H -2.036036 -0.119068 1.183268
12
Aligned to gpa_Type_2.xyz, RMSD 0.15356
C -0.870014 -1.122462 -0.465755
C 0.442701 -1.011779 0.055876
C 1.220323 0.128674 0.377729
C 0.752970 1.391497 0.235456
C -0.571863 1.256569 -0.045108
C -1.327535 0.005688 0.395857
H -1.402413 -1.943093 -0.843004
H 0.903658 -2.200481 0.112963
H 2.351400 -0.048805 0.307086
H 1.371426 2.197054 -0.261961
H -0.916729 1.564405 -1.051946
H -1.953923 -0.217268 1.182808
12
Aligned to gpa_Type_3.xyz, RMSD 0.20758
C -0.777755 -1.070813 -0.070861
C 0.602431 -1.038148 -0.397516
C 1.377023 0.002639 -0.022250
C 0.752180 1.294814 0.179897
C -0.738548 1.478864 -0.128735
C -1.412810 0.140185 0.292367
H -1.199742 -2.083650 0.160996
H 1.024833 -1.971383 -0.597577
H 2.322193 -0.115449 0.396928
H 1.272516 2.157807 0.623362
H -0.745675 0.872474 -1.169184
H -2.476647 0.332661 0.732575
12
Aligned to gpa_Type_3.xyz, RMSD 0.15216
C -0.876160 -1.044820 -0.125274
C 0.567796 -1.124043 -0.194948
C 1.381269 0.047015 0.117408
C 0.770157 1.156707 0.376691
C -0.790930 1.373139 -0.032379
C -1.407291 0.128964 0.269682
H -1.409171 -1.999288 0.014321
H 0.940682 -2.104810 -0.460187
H 2.422566 0.140167 0.035917
H 1.196578 2.276801 0.406754
H -0.353673 1.021409 -1.149451
H -2.441823 0.128760 0.741466
12
Aligned to gpa_Type_2.xyz, RMSD 0.22156
C -0.909925 -1.148983 -0.541366
C 0.613444 -1.175824 -0.023645
C 1.365555 0.044416 0.012716
C 0.674673 1.272091 0.058681
C -0.724743 1.234961 -0.161615
C -1.402218 0.101425 0.254735
H -1.440752 -2.072535 -0.740074
H 0.916851 -2.018010 0.442639
H 2.389874 -0.040471 0.255926
H 1.314242 2.040589 0.320576
H -1.034795 1.841068 -1.145843
H -1.762205 -0.078726 1.267271
12
Aligned to gpa_Type_2.xyz, RMSD 0.21137
C -0.849246 -1.133230 -0.514185
C 0.552052 -1.103492 -0.109263
C 1.380539 0.032561 -0.028189
C 0.754840 1.274451 0.146027
C -0.674479 1.442530 -0.089448
C -1.424273 0.035770 0.273010
H -1.359948 -2.155135 -0.673040
H 0.847017 -2.137778 0.249072
H 2.377635 -0.188240 0.307257
H 1.092266 2.348357 0.224722
H -0.768673 1.575363 -1.147373
H -1.927729 0.008841 1.361410
12
Aligned to gpa_Type_3.xyz, RMSD 0.15517
C -0.838926 -1.089264 -0.112238
C 0.663213 -1.069452 -0.274247
C 1.301922 0.009169 0.076525
C 0.686492 1.327787 0.326804
C -0.768556 1.355200 0.124436
C -1.543355 0.079648 0.282649
H -1.470826 -1.888998 -0.072190
H 1.094925 -2.075501 -0.390481
H 2.413919 0.104645 0.143944
H 1.349590 2.133634 0.241481
H -0.410125 0.974889 -1.053107
H -2.478274 0.138244 0.706424
12
Aligned to gpa_Type_3.xyz, RMSD 0.14764
C -0.795161 -1.152914 0.019858
C 0.556856 -1.022997 -0.360240
C 1.369072 0.049535 0.020129
C 0.665212 1.286067 0.355869
C -0.717937 1.374122 -0.040728
C -1.435279 0.116628 0.250190
H -1.395274 -2.076057 0.115035
H 0.957574 -2.058136 -0.551055
H 2.479864 0.049407 0.123547
H 1.166704 2.219663 0.465099
H -0.390615 0.896861 -1.011063
H -2.461018 0.317822 0.613360
12
Aligned to gpa_Type_3.xyz, RMSD 0.21544
C -0.800076 -1.177674 0.050525
C 0.528558 -1.036514 -0.389048
C 1.407031 -0.001648 0.062531
C 0.653321 1.231785 0.380909
C -0.738075 1.384376 -0.101177
C -1.364565 0.063029 0.202779
H -1.480161 -2.144562 0.112737
H 0.904260 -1.965480 -0.586656
H 2.472504 0.117654 0.159421
H 1.054614 2.220492 0.446349
H -0.289299 0.930118 -1.058524
H -2.348114 0.378426 0.720156
12
Aligned to gpa_Type_3.xyz, RMSD 0.24105
C -0.829454 -1.094866 -0.023953
C 0.606742 -1.024737 -0.263622
C 1.484552 0.118075 0.007389
C 0.722649 1.313875 0.225228
C -0.869119 1.359572 -0.078908
C -1.420712 0.171087 0.334489
H -1.462738 -2.036443 -0.196981
H 1.092011 -1.955603 -0.476499
H 2.338429 -0.171146 0.490060
H 1.363035 2.164746 0.355506
H -0.712755 1.025536 -1.308779
H -2.312641 0.129905 0.936070
12
Aligned to gpa_Type_3.xyz, RMSD 0.30946
C -0.883686 -1.143963 -0.193399
C 0.542067 -1.114463 -0.138261
C 1.190500 0.078567 0.307518
C 0.633084 1.329635 0.198498
C -0.809631 1.467233 -0.079982
C -1.497749 0.213004 0.195217
H -1.209290 -2.244914 -0.314821
H 1.052235 -2.022169 -0.315673
H 2.150112 -0.028398 0.207237
H 1.350349 2.035442 0.152631
H -0.376858 1.262934 -1.081090
H -2.141133 0.167093 1.062126
12
Aligned to gpa_Type_2.xyz, RMSD 0.31286
C -0.803882 -1.038703 -0.088950
C 0.699910 -1.221081 0.155389
C 1.379173 -0.131782 0.180288
C 0.684934 1.202833 0.103965
C -0.811802 1.263311 -0.429681
C -1.361958 0.176291 0.411340
H -1.155523 -1.826545 -0.747741
H 1.084378 -2.095199 -0.179629
H 2.410971 -0.286616 0.232082
H 1.103060 2.098519 0.368114
H -1.129536 1.615982 -1.264109
H -2.099724 0.242989 1.258934
12
Aligned to gpa_Type_2.xyz, RMSD 0.17111
C -0.839045 -1.054916 -0.406503
C 0.568365 -1.062424 -0.023430
C 1.406098 0.116773 0.342032
C 0.774726 1.273518 0.116961
C -0.848813 1.159845 -0.092996
C -1.428521 -0.063376 0.380717
H -1.458785 -1.835542 -0.894077
H 1.099610 -1.963746 0.177437
H 2.431658 -0.277568 0.419096
H 1.340766 2.077113 -0.197703
H -1.027746 1.712731 -1.122960
H -2.018312 -0.082408 1.301426
12
Aligned to gpa_Type_1.xyz, RMSD 0.21242
C -0.590638 -0.809661 -0.255020
C 0.729453 -1.249755 0.041220
C 1.498645 -0.115441 0.098863
C 0.669697 1.047242 -0.119609
C -0.776199 1.069348 -0.374159
C -1.347503 0.062113 0.528966
H -1.219836 -1.568478 -0.769105
H 1.111500 -2.237252 0.047714
H 2.391035 -0.109993 0.610213
H 1.082538 1.985662 -0.103801
H -1.286448 1.845796 -0.737190
H -2.262246 0.080418 1.031906
12
Aligned to gpa_Type_2.xyz, RMSD 0.22082
C -0.881113 -1.112528 -0.688611
C 0.425007 -1.082567 -0.105829
C 1.361187 0.023596 0.192124
C 0.872002 1.315297 -0.104967
C -0.555101 1.227707 -0.286493
C -1.411165 -0.014213 0.298075
H -1.388737 -2.121250 -0.698883
H 0.944506 -2.106646 0.152629
H 2.233754 -0.167363 0.798993
H 1.294869 2.294241 -0.090657
H -1.198865 1.786609 -0.806811
H -1.696344 -0.042883 1.340431
12
Aligned to gpa_Type_2.xyz, RMSD 0.27110
C -0.968426 -1.175872 -0.312209
C 0.555462 -1.113848 -0.020992
C 1.389139 -0.014456 0.314023
C 0.766306 1.268127 0.101393
C -0.762650 1.221279 -0.162975
C -1.413635 0.051441 0.485379
H -1.315458 -1.638068 -1.260856
H 0.946357 -2.080452 0.206357
H 2.407941 -0.117733 0.693693
H 1.166325 2.042829 -0.346560
H -1.103299 1.685604 -1.205812
H -1.668062 -0.128853 1.508562
12
Aligned to gpa_Type_2.xyz, RMSD 0.30437
C -0.933761 -1.108921 -0.413370
C 0.524657 -1.117580 0.142016
C 1.274666 -0.019374 0.350469
C 0.737665 1.133648 0.019378
C -0.699868 1.163073 -0.225233
C -1.374100 -0.027231 0.433721
H -1.356210 -1.455711 -1.304152
H 0.962103 -2.128581 0.249893
H 2.291321 -0.047763 0.633568
H 1.236267 2.180098 -0.289554
H -1.162531 1.539019 -1.111702
H -1.500209 -0.110678 1.514968
12
Aligned to gpa_Type_3.xyz, RMSD 0.14282
C -0.930496 -1.115904 -0.084077
C 0.541593 -1.120485 -0.184333
C 1.332404 0.036718 -0.214059
C 0.831103 1.317408 0.228915
C -0.746124 1.383729 0.088120
C -1.551724 0.063662 0.157348
H -1.366755 -2.030535 -0.142240
H 1.038628 -2.093992 -0.162608
H 2.405322 0.065487 0.084015
H 1.398594 2.306624 0.509115
H -0.507356 1.083598 -1.010032
H -2.445190 0.103692 0.729838
12
Aligned to gpa_Type_3.xyz, RMSD 0.26386
C -0.819537 -1.237114 -0.151744
C 0.511434 -1.134409 -0.207103
C 1.323446 0.027361 0.069750
C 0.594549 1.298472 0.288947
C -0.828378 1.289061 -0.070997
C -1.432649 0.118377 0.233017
H -1.517331 -2.033529 -0.258111
H 1.078704 -2.105016 -0.181335
H 2.419884 0.119467 0.161499
H 1.307146 2.128732 0.208322
H -0.307535 1.426405 -1.097544
H -2.329735 0.102194 1.005300
12
Aligned to gpa_Type_2.xyz, RMSD 0.28401
C -0.828316 -1.030073 -0.369620
C 0.603162 -1.157846 0.054739
C 1.323745 0.082801 0.138407
C 0.834367 1.328418 0.134552
C -0.662454 1.397835 0.063033
C -1.454947 0.131577 0.278411
H -1.410352 -1.909140 -0.520071
H 0.954230 -2.138193 -0.086104
H 2.444359 -0.010068 0.162702
H 1.413914 2.232706 0.234798
H -0.955199 1.092146 -1.072999
H -2.262507 -0.020164 0.982153
12
Aligned to gpa_Type_2.xyz, RMSD 0.29112
C -0.740520 -1.028736 -0.371051
C 0.579101 -1.073870 0.039901
C 1.364172 0.056207 0.148605
C 0.812749 1.404381 0.059311
C -0.672625 1.374873 0.072087
C -1.464745 0.115452 0.331132
H -1.373784 -2.007027 -0.610814
H 0.778651 -2.219597 0.011752
H 2.382945 0.133251 0.156407
H 1.590368 2.174784 0.191173
H -1.016977 1.155182 -0.974663
H -2.239333 -0.084901 0.946161
12
Aligned to gpa_Type_1.xyz, RMSD 0.21056
C -0.707871 -0.979788 -0.262683
C 0.674686 -1.231510 0.033216
C 1.362510 -0.020597 0.122365
C 0.728718 1.199605 -0.083258
C -0.664682 1.053856 -0.176533
C -1.428677 0.030031 0.655969
H -1.190112 -1.759302 -0.921334
H 1.155858 -2.154588 -0.041219
H 2.297428 -0.087263 0.511222
H 1.377974 2.091487 0.031167
H -1.294503 1.583008 -1.015321
H -2.311329 0.275061 1.146409
12
Aligned to gpa_Type_2.xyz, RMSD 0.18608
C -0.803978 -1.016295 -0.441422
C 0.576218 -1.069353 0.106856
C 1.340734 0.021032 0.388450
C 0.797341 1.177080 0.123091
C -0.720808 1.203880 -0.143752
C -1.484826 0.029320 0.377874
H -1.473074 -1.715247 -0.890277
H 1.014996 -2.213875 0.094302
H 2.493927 0.120505 0.396787
H 1.289858 1.957675 -0.187649
H -1.081747 1.627342 -1.073341
H -1.948639 -0.122066 1.249082
12
Aligned to gpa_Type_2.xyz, RMSD 0.22373
C -0.919554 -1.113422 -0.335415
C 0.579159 -1.084105 -0.053627
C 1.273434 -0.024848 0.258627
C 0.717113 1.275746 0.066874
C -0.631531 1.116222 -0.096493
C -1.466965 0.056516 0.412408
H -1.346245 -1.803581 -1.106682
H 0.786751 -2.061611 0.028391
H 2.255805 0.090104 0.569969
H 1.184384 2.192081 -0.150663
H -0.765795 1.315758 -1.069323
H -1.666555 0.041140 1.475936
12
Aligned to gpa_Type_2.xyz, RMSD 0.24952
C -0.901520 -1.184935 -0.302617
C 0.548448 -1.090198 -0.027749
C 1.274749 0.061210 0.241406
C 0.723783 1.211267 0.125648
C -0.614751 1.109759 0.003258
C -1.416260 -0.019548 0.466879
H -1.304441 -1.755568 -1.251451
H 0.786440 -2.129093 0.091871
H 2.292468 0.073156 0.625938
H 1.250845 2.173521 -0.290038
H -0.957712 1.454796 -1.125587
H -1.682047 0.095632 1.442444
12
Aligned to gpa_Type_2.xyz, RMSD 0.23390
C -0.728508 -1.041358 -0.434305
C 0.565827 -1.127148 0.155147
C 1.285148 -0.041226 0.434969
C 0.722573 1.161793 0.007792
C -0.718751 1.171412 -0.237827
C -1.387425 -0.005714 0.351523
H -1.531598 -1.565470 -0.946091
H 1.085556 -1.945391 0.277081
H 2.265697 -0.115533 0.177078
H 1.409968 2.199635 0.014896
H -1.081695 1.554994 -1.171024
H -1.886791 -0.245994 1.370763
12
Aligned to gpa_Type_3.xyz, RMSD 0.23191
C -0.817277 -1.088374 0.121227
C 0.594313 -1.000466 -0.343632
C 1.406388 0.102947 0.029511
C 0.735390 1.217524 0.140206
C -0.764222 1.365992 -0.064809
C -1.387370 0.128863 0.356273
H -1.323484 -2.023602 0.225438
H 0.857500 -2.028499 -0.831053
H 2.523157 0.051286 0.401073
H 1.213944 2.157497 0.472262
H -0.537927 0.857641 -0.977030
H -2.500412 0.259191 0.470534
12
Aligned to gpa_Type_3.xyz, RMSD 0.31555
C -0.856063 -1.099476 0.079044
C 0.540332 -1.036161 -0.368643
C 1.473609 0.071421 -0.001004
C 0.705190 1.298232 0.168956
C -0.723172 1.455558 -0.185236
C -1.397081 0.209840 0.328883
H -1.292766 -2.067506 0.425414
H 0.958794 -1.680205 -0.940273
H 2.259286 -0.295957 0.521467
H 1.182668 2.159244 0.490741
H -0.354292 0.984221 -1.149744
H -2.496506 0.000789 0.630396
12
Aligned to gpa_Type_1.xyz, RMSD 0.26745
C -0.750532 -1.104775 -0.090628
C 0.638913 -1.220649 0.048630
C 1.337299 -0.070909 0.333380
C 0.672413 1.095913 -0.052676
C -0.657839 0.996492 -0.284694
C -1.329707 0.114643 0.654060
H -1.136380 -1.275571 -1.165189
H 1.092797 -2.359916 0.001779
H 2.539171 0.103801 0.408828
H 1.162337 2.017038 -0.041168
H -1.367675 1.364772 -0.948245
H -2.200797 0.339161 1.135923
12
Aligned to gpa_Type_1.xyz, RMSD 0.24267
C -0.760456 -1.011768 -0.023942
C 0.645574 -1.150910 0.109998
C 1.417340 -0.044716 0.255650
C 0.764298 1.107526 -0.004508
C -0.700757 1.039060 0.040712
C -1.454059 0.089387 0.715057
H -0.875563 -1.346330 -1.115351
H 0.838388 -2.184819 0.077341
H 2.544582 -0.021458 0.088758
H 1.253739 2.108941 -0.123787
H -1.138214 1.284236 -0.909014
H -2.534873 0.130851 0.889086
12
Aligned to gpa_Type_2.xyz, RMSD 0.30114
C -0.896955 -1.126966 -0.533097
C 0.455447 -1.193876 0.004373
C 1.185720 0.031311 0.285023
C 0.693891 1.284222 0.011698
C -0.687177 1.333097 -0.289419
C -1.213276 0.044068 0.255357
H -1.472526 -1.973656 -0.932601
H 1.096412 -1.913762 0.350357
H 2.199344 0.069588 0.626180
H 1.595199 1.757353 -0.197409
H -1.389776 1.855284 -0.734408
H -1.566302 -0.166664 1.153948
12
Aligned to gpa_Type_2.xyz, RMSD 0.30735
C -0.810477 -1.106057 -0.569405
C 0.433166 -1.188080 -0.033735
C 1.419361 0.032328 0.260977
C 0.644087 1.316785 -0.004266
C -0.706770 1.173454 -0.115727
C -1.369457 -0.082497 0.142325
H -1.443886 -1.919633 -0.853163
H 0.700614 -1.796260 0.681402
H 2.365997 -0.166786 0.301234
H 1.268042 2.157603 -0.157112
H -0.952994 1.954664 -0.806496
H -1.547681 -0.375523 1.153966
12
Aligned to gpa_Type_3.xyz, RMSD 0.18064
C -0.850580 -1.200781 0.041683
C 0.526964 -1.149756 -0.307534
C 1.404920 0.039764 -0.065057
C 0.727942 1.313159 0.221768
C -0.704525 1.433617 -0.064559
C -1.439545 0.047783 0.245074
H -1.711919 -1.993482 -0.045804
H 1.174143 -1.977810 -0.206149
H 2.426217 0.169909 -0.074321
H 1.214696 2.110177 0.560651
H -0.282663 1.118645 -1.004606
H -2.485649 0.088774 0.698854
12
Aligned to gpa_Type_2.xyz, RMSD 0.39459
C -0.874224 -0.996888 -0.456272
C 0.547399 -1.146168 0.019084
C 1.288351 0.115158 0.477205
C 0.745627 1.370142 0.081430
C -0.763727 1.221527 -0.110616
C -1.443236 0.071382 0.532718
H -1.023053 -1.442084 -1.321112
H 0.854974 -2.168261 0.337792
H 2.274553 -0.149437 0.654807
H 1.355509 1.806644 -0.720678
H -1.241615 1.639310 -0.937049
H -1.720555 -0.321325 1.442692
12
Aligned to gpa_Type_2.xyz, RMSD 0.35573
C -0.911218 -1.086244 -0.552101
C 0.487316 -1.137749 0.170883
C 1.280570 -0.044511 0.247901
C 0.580524 1.152198 0.036354
C -0.774949 1.157788 -0.164019
C -1.317651 -0.149911 0.380915
H -1.550601 -1.353218 -1.204045
H 0.937781 -2.128465 0.494577
H 2.354770 0.017422 0.483868
H 1.062069 2.140926 -0.118621
H -0.957627 1.544669 -1.112549
H -1.190983 -0.112908 1.336837
12
Aligned to gpa_Type_2.xyz, RMSD 0.25289
C -0.857660 -1.196187 -0.462397
C 0.570569 -1.168933 -0.113596
C 1.334455 -0.044818 0.264187
C 0.670053 1.307697 -0.009753
C -0.784175 1.152946 -0.221616
C -1.328462 -0.116916 0.453226
H -1.646288 -1.883637 -0.950576
H 1.034043 -1.990779 0.044508
H 2.330379 0.110820 0.585109
H 1.548900 2.125858 0.276114
H -1.208693 1.441073 -1.276941
H -1.663120 0.262876 1.411737
12
Aligned to gpa_Type_2.xyz, RMSD 0.28297
C -0.866197 -1.150201 -0.331242
C 0.532584 -1.147301 -0.314891
C 1.461085 0.013781 0.203165
C 0.657749 1.261884 -0.069524
C -0.731242 1.300088 -0.109674
C -1.188559 -0.022360 0.521341
H -1.684615 -1.977674 -0.911892
H 0.919134 -2.137926 -0.205467
H 2.343758 0.143688 0.998255
H 1.229885 2.198484 -0.013631
H -0.927264 1.327366 -1.164185
H -1.746315 0.190170 1.397746
12
Aligned to gpa_Type_2.xyz, RMSD 0.30028
C -0.790895 -1.128675 -0.157332
C 0.677892 -1.232341 -0.013653
C 1.432297 -0.107848 0.234519
C 0.722175 1.254552 -0.013246
C -0.744867 1.112882 -0.376998
C -1.584475 0.203998 0.420506
H -1.290789 -1.886088 -1.025894
H 0.804727 -2.411089 -0.004322
H 2.601181 0.007857 0.504158
H 1.256421 2.348619 0.226539
H -1.253046 1.656526 -1.203188
H -1.830621 0.181607 1.408911
12
Aligned to gpa_Type_1.xyz, RMSD 0.33879
C -0.650206 -1.076619 -0.162752
C 0.670209 -1.183204 0.245394
C 1.504279 -0.005842 0.129788
C 0.718242 1.132850 -0.014750
C -0.682088 1.020197 -0.131933
C -1.588921 0.014410 0.324562
H -0.978744 -1.475598 -1.043019
H 0.640696 -2.323677 -0.039490
H 2.459436 0.119122 0.330175
H 1.033175 2.121652 0.011882
H -1.004201 1.439308 -1.022689
H -2.121878 0.217403 1.372831
12
Aligned to gpa_Type_2.xyz, RMSD 0.25875
C -0.744905 -1.257727 -0.361383
C 0.587812 -1.188068 0.151221
C 1.283378 -0.005225 0.404136
C 0.648548 1.240993 0.103873
C -0.747467 1.201141 -0.222780
C -1.059575 0.014903 0.280330
H -1.306792 -1.825840 -0.971896
H 0.744522 -2.354573 0.006236
H 2.249467 0.110430 0.532911
H 1.250374 2.061547 -0.223754
H -1.224947 1.884372 -0.944432
H -1.680413 0.118047 1.245541
12
Aligned to gpa_Type_3.xyz, RMSD 0.17992
C -0.863011 -0.994982 -0.161596
C 0.524362 -1.063666 -0.186686
C 1.427758 0.094560 -0.035498
C 0.727786 1.262613 0.290090
C -0.694566 1.353407 0.116745
C -1.479513 0.095662 0.296238
H -1.346597 -1.994006 -0.259773
H 0.952936 -2.130323 -0.025096
H 2.384921 0.226577 -0.089450
H 1.431989 2.082115 0.415704
H -0.573329 0.971044 -1.012472
H -2.492737 0.097000 0.651794
12
Aligned to gpa_Type_3.xyz, RMSD 0.12964
C -0.827995 -0.986852 -0.028088
C 0.541396 -1.081650 -0.099379
C 1.302428 0.076953 0.061552
C 0.791485 1.280185 0.261514
C -0.748897 1.377882 -0.019899
C -1.473195 0.153351 0.241683
H -1.351063 -1.952381 0.058487
H 1.179396 -1.908278 -0.530632
H 2.405316 -0.229785 -0.021879
H 1.186701 2.223255 0.549779
H -0.453927 0.924454 -1.135238
H -2.551646 0.122866 0.662102
12
Aligned to gpa_Type_3.xyz, RMSD 0.16438
C -0.795850 -1.072315 0.049542
C 0.587697 -1.074986 -0.192797
C 1.327888 0.114367 0.017035
C 0.724799 1.315764 0.195894
C -0.780487 1.408573 -0.060284
C -1.476085 0.117712 0.236077
H -1.396225 -1.938261 0.161424
H 1.017547 -1.909196 -0.653015
H 2.292249 -0.214323 0.202292
H 1.239127 2.225428 0.485769
H -0.357212 1.022026 -1.071012
H -2.383450 0.005213 0.629075
12
Aligned to gpa_Type_3.xyz, RMSD 0.26736
C -0.834147 -1.154231 0.034659
C 0.551668 -1.063331 -0.201146
C 1.337083 0.112872 0.182605
C 0.623303 1.345079 0.157162
C -0.812009 1.386329 -0.144478
C -1.490119 0.154079 0.253602
H -1.305732 -2.084884 -0.152944
H 1.038621 -1.838232 -0.710678
H 2.453002 -0.280936 0.481858
H 1.304000 2.215365 0.229253
H -0.480349 1.013509 -1.082824
H -2.385321 0.194383 0.952932
12
Aligned to gpa_Type_1.xyz, RMSD 0.21551
C -0.710216 -1.025091 0.102072
C 0.719947 -1.189528 0.190450
C 1.631185 -0.133304 0.044268
C 0.889435 1.138798 0.019195
C -0.648657 1.140370 -0.064238
C -1.609632 0.063756 0.731415
H -1.090333 -1.352441 -0.816729
H 0.989953 -2.108778 -0.078533
H 2.650726 -0.208579 0.151220
H 1.029058 2.171377 0.012539
H -1.145891 1.462290 -1.024360
H -2.705577 0.041129 0.732700
12
Aligned to gpa_Type_3.xyz, RMSD 0.20585
C -0.947444 -1.153270 0.102570
C 0.382526 -1.050899 -0.233670
C 1.421906 0.155770 0.095558
C 0.834855 1.349970 0.249247
C -0.742151 1.366110 0.016757
C -1.488258 0.166494 0.240187
H -1.315614 -2.199689 0.123368
H 0.806167 -2.001193 -0.484297
H 2.514657 -0.036682 -0.084635
H 1.247523 2.327949 0.445986
H -0.198090 1.113613 -0.898644
H -2.516078 -0.038172 0.427574
12
Aligned to gpa_Type_1.xyz, RMSD 0.19767
C -0.731777 -0.936568 -0.186152
C 0.735149 -1.224849 0.110301
C 1.569473 0.015743 -0.011028
C 0.698476 1.026305 0.093498
C -0.749737 0.979698 -0.071426
C -1.586380 -0.098869 0.565739
H -1.360573 -1.604149 -0.771961
H 1.180960 -2.270546 0.191726
H 2.633949 0.177314 0.092722
H 1.249374 1.936121 0.056073
H -1.093493 1.668577 -0.751808
H -2.545422 0.331222 0.682315
12
Aligned to gpa_Type_1.xyz, RMSD 0.22351
C -0.744192 -0.962560 0.037875
C 0.681706 -1.206346 -0.129002
C 1.364898 -0.031781 0.091189
C 0.729565 1.158554 0.008253
C -0.680755 1.141279 -0.164013
C -1.299157 0.094335 0.762393
H -1.349705 -1.345343 -0.737235
H 1.099571 -2.182186 -0.101605
H 2.345719 0.092290 0.436164
H 1.444152 1.995910 0.109172
H -1.186075 1.264276 -1.141433
H -2.405729 -0.018429 0.828241
12
Aligned to gpa_Type_3.xyz, RMSD 0.29389
C -0.804798 -1.110396 -0.119463
C 0.603475 -1.185751 -0.256994
C 1.253555 0.057858 0.179547
C 0.681287 1.271199 0.186227
C -0.830924 1.444953 -0.107208
C -1.397149 0.174722 0.304250
H -1.519803 -1.856915 -0.471487
H 1.249292 -2.104272 -0.086306
H 2.279582 -0.106545 0.130850
H 1.270035 2.210297 0.306689
H -0.516826 1.195674 -1.164929
H -2.267727 0.009177 1.098826
12
Aligned to gpa_Type_2.xyz, RMSD 0.31418
C -0.947880 -1.314875 -0.364060
C 0.456252 -1.186912 -0.229818
C 1.288354 0.160076 0.289352
C 0.760144 1.410473 -0.113551
C -0.556677 1.127463 -0.251910
C -1.212181 -0.097871 0.280989
H -1.391995 -2.003654 -1.037200
H 0.682451 -2.105093 0.259608
H 2.211402 -0.092509 0.877936
H 1.329068 2.282079 -0.216750
H -1.228248 1.840323 -0.765035
H -1.390689 -0.019501 1.270439
12
Aligned to gpa_Type_2.xyz, RMSD 0.40963
C -0.912747 -1.310928 -0.481177
C 0.501995 -1.142902 -0.232341
C 1.255655 0.155310 0.358541
C 0.842944 1.344258 -0.144942
C -0.479270 1.108125 -0.359201
C -1.177013 -0.105027 0.221419
H -1.559738 -1.962985 -1.052990
H 0.645103 -2.149556 0.263207
H 2.017075 0.070731 1.056070
H 1.322572 2.310707 -0.423132
H -1.179747 1.883811 -0.608266
H -1.276828 -0.201546 1.402813
12
Aligned to gpa_Type_2.xyz, RMSD 0.31145
C -0.897056 -1.008501 -0.708715
C 0.473145 -1.175496 -0.080698
C 1.097223 -0.006050 0.463259
C 0.605675 1.213605 -0.122329
C -0.739724 1.313468 -0.271509
C -1.258788 0.015407 0.317945
H -1.296236 -1.984032 -0.601402
H 1.241061 -2.002369 -0.078729
H 2.112122 -0.248221 0.964015
H 1.380149 1.938836 -0.307707
H -1.229697 1.991248 -0.942653
H -1.487876 -0.047896 1.368523
12
Aligned to gpa_Type_3.xyz, RMSD 0.29059
C -0.789557 -1.037078 -0.014269
C 0.570120 -1.068726 -0.335851
C 1.268306 0.130373 0.066703
C 0.569149 1.348388 0.181817
C -0.952845 1.391143 -0.339499
C -1.309924 0.108125 0.210390
H -1.397830 -1.960856 0.248393
H 0.965198 -1.986548 -0.707981
H 2.283282 -0.122485 0.394950
H 1.223640 2.036747 0.606837
H -0.279236 1.096668 -1.234942
H -2.150303 0.064251 0.923452
12
Aligned to gpa_Type_3.xyz, RMSD 0.29155
C -0.761379 -1.090329 0.004987
C 0.488882 -1.108471 -0.336470
C 1.310554 0.043748 0.092311
C 0.673869 1.262124 0.179095
C -0.896824 1.357341 -0.302490
C -1.387837 0.160001 0.232174
H -1.234580 -1.945182 0.333167
H 0.831458 -1.992289 -0.822857
H 2.298488 -0.091132 0.386488
H 1.174636 2.246599 0.592836
H -0.205928 1.112017 -1.191831
H -2.291340 0.045574 0.832590
12
Aligned to gpa_Type_3.xyz, RMSD 0.24028
C -0.863723 -1.120608 0.140588
C 0.574743 -1.061003 -0.385958
C 1.429310 0.075258 0.114906
C 0.738901 1.143405 0.332467
C -0.727104 1.465771 -0.182873
C -1.439630 0.229827 0.274917
H -1.250911 -2.071935 0.131803
H 1.077635 -1.966932 -0.775576
H 2.447405 -0.129964 0.271289
H 1.096326 2.255802 0.566755
H -0.619950 0.785713 -1.187058
H -2.463002 0.394666 0.698740
12
Aligned to gpa_Type_3.xyz, RMSD 0.21061
C -0.883300 -1.129476 0.156274
C 0.594446 -1.022736 -0.376342
C 1.432501 0.094140 0.084861
C 0.702712 1.171375 0.321791
C -0.760497 1.451447 -0.134993
C -1.482396 0.176188 0.296266
H -1.344308 -2.045414 0.116431
H 1.130418 -1.919213 -0.733691
H 2.493776 -0.105497 0.267147
H 1.221517 2.185019 0.522660
H -0.631947 0.787159 -1.148397
H -2.472922 0.357010 0.627994
12
Aligned to gpa_Type_2.xyz, RMSD 0.21626
C -0.841495 -0.930337 -0.478074
C 0.556283 -1.001079 -0.063375
C 1.382289 -0.048113 0.341499
C 0.752228 1.171117 -0.051384
C -0.742908 1.248488 -0.180650
C -1.645945 0.061217 0.308029
H -1.293929 -1.829579 -0.754341
H 1.162682 -1.917969 -0.086546
H 2.303313 -0.324557 0.646026
H 1.361867 2.119430 0.017058
H -1.186632 1.389614 -1.167365
H -1.807751 0.061766 1.469125
12
Aligned to gpa_Type_2.xyz, RMSD 0.17703
C -0.832575 -0.919914 -0.456799
C 0.587050 -1.246910 -0.120928
C 1.265848 -0.090041 0.352093
C 0.740736 1.139508 0.139941
C -0.677229 1.306709 -0.067337
C -1.350013 0.059725 0.370255
H -1.323935 -1.870345 -0.781807
H 0.980756 -2.183368 -0.063363
H 2.227868 0.036028 0.504859
H 1.044070 2.169836 -0.054361
H -0.907015 1.425581 -1.186866
H -1.755561 0.173189 1.364313
12
Aligned to gpa_Type_2.xyz, RMSD 0.15090
C -0.827525 -0.936859 -0.495574
C 0.630016 -1.146076 -0.083239
C 1.280501 -0.010563 0.434868
C 0.640234 1.182220 0.141652
C -0.816422 1.274648 -0.131095
C -1.427331 0.041858 0.243194
H -1.393198 -1.751448 -0.662725
H 0.913738 -2.220190 -0.044954
H 2.452852 -0.053859 0.533881
H 1.191658 2.147366 -0.074776
H -0.978176 1.498147 -1.207821
H -1.666345 -0.025247 1.346592
12
Aligned to gpa_Type_1.xyz, RMSD 0.17265
C -0.750722 -0.874608 0.068188
C 0.749952 -1.297605 -0.007522
C 1.529834 -0.104753 0.082151
C 0.820132 1.042809 -0.015370
C -0.672830 0.980573 -0.244077
C -1.432955 0.114169 0.686534
H -1.318480 -1.576049 -0.692889
H 1.251228 -2.335480 0.000761
H 2.555520 0.045003 0.229720
H 1.093504 2.079371 0.128762
H -1.332055 1.634886 -0.745063
H -2.493127 0.291685 0.508803
12
Aligned to gpa_Type_3.xyz, RMSD 0.30447
C -0.798264 -1.087422 0.123461
C 0.593341 -1.053081 -0.271812
C 1.362422 0.004289 0.189474
C 0.788445 1.235567 0.392887
C -0.482960 0.869016 -0.291070
C -1.375511 0.118149 0.443988
H -1.313276 -1.925823 0.041831
H 0.974853 -1.888352 -0.698711
H 2.442309 0.026707 0.237630
H 1.129186 2.186266 0.541150
H -0.720579 1.150124 -1.486573
H -2.599966 0.364562 0.777745
12
Aligned to gpa_Type_3.xyz, RMSD 0.31134
C -0.810372 -1.049174 0.125835
C 0.580916 -1.034675 -0.284967
C 1.350742 -0.045744 0.181077
C 0.746430 1.204297 0.371537
C -0.479870 0.857953 -0.292594
C -1.373470 0.165359 0.429705
H -1.335773 -2.058654 0.136952
H 0.977379 -1.837811 -0.765131
H 2.471202 -0.020110 0.272962
H 1.104887 2.252128 0.542136
H -0.708244 1.192771 -1.427565
H -2.523828 0.373662 0.710053
12
Aligned to gpa_Type_2.xyz, RMSD 0.25997
C -0.851137 -0.945015 -0.304315
C 0.560652 -1.144698 -0.061360
C 1.336164 -0.062768 0.380892
C 0.639677 1.187804 0.129013
C -0.730984 1.178233 -0.221159
C -1.533222 0.083605 0.432403
H -1.305807 -1.664305 -1.036285
H 1.039410 -2.146474 -0.093532
H 2.284704 -0.098550 0.758886
H 1.212456 2.090855 -0.226949
H -1.059383 1.571932 -1.387361
H -1.592528 -0.050619 1.629769
12
Aligned to gpa_Type_2.xyz, RMSD 0.35524
C -0.745517 -0.993505 -0.255809
C 0.608956 -1.133023 0.098522
C 1.449844 -0.065012 0.442440
C 0.739745 1.189820 0.180866
C -0.701651 1.122307 -0.119980
C -1.518406 0.009504 0.553559
H -1.162780 -1.397570 -1.091472
H 0.938303 -2.082927 -0.276877
H 2.474424 -0.035897 0.526945
H 1.095908 1.959921 -0.307569
H -1.027375 1.268835 -1.297094
H -2.151449 0.157546 1.546469
12
Aligned to gpa_Type_2.xyz, RMSD 0.21166
C -0.844168 -1.071433 -0.584564
C 0.557285 -1.126027 -0.209434
C 1.216211 0.057449 0.529357
C 0.723000 1.336387 0.110230
C -0.608708 1.317408 -0.213087
C -1.275942 -0.036044 0.366587
H -1.491078 -2.186092 -0.804238
H 0.948966 -2.025693 -0.068790
H 2.159829 -0.193564 0.777728
H 1.281106 2.220602 -0.315017
H -1.026301 1.727365 -1.087080
H -1.640199 -0.020356 1.498308
12
Aligned to gpa_Type_2.xyz, RMSD 0.15157
C -0.945360 -1.079825 -0.547181
C 0.498341 -1.104433 -0.243647
C 1.229766 0.056404 0.452374
C 0.726475 1.313427 0.121920
C -0.683300 1.304474 -0.140621
C -1.352832 -0.019637 0.371225
H -1.331725 -1.927048 -0.728898
H 0.920038 -2.164783 0.114844
H 2.363993 -0.116145 0.627150
H 1.212094 2.141324 -0.266474
H -0.929335 1.786061 -1.161596
H -1.708154 -0.189820 1.400904
12
Aligned to gpa_Type_2.xyz, RMSD 0.16290
C -0.966445 -1.188284 -0.585770
C 0.502340 -1.121390 -0.145492
C 1.247623 0.134492 0.333540
C 0.684839 1.420709 0.122320
C -0.708472 1.256871 -0.194560
C -1.350816 -0.078540 0.217448
H -1.455626 -2.131935 -0.558082
H 0.992697 -1.992777 -0.064607
H 2.220753 -0.102415 0.629941
H 1.421445 2.051145 0.020380
H -0.970130 1.746104 -1.150806
H -1.618206 0.006021 1.375690
12
Aligned to gpa_Type_2.xyz, RMSD 0.16623
C -0.995451 -1.037835 -0.441483
C 0.424491 -1.047625 -0.058431
C 1.311693 -0.015036 0.217356
C 0.886998 1.306598 0.082866
C -0.702381 1.251566 -0.088857
C -1.382389 0.011152 0.365045
H -1.212925 -2.020377 -0.608131
H 0.973591 -2.015407 -0.141222
H 2.281066 -0.197316 0.491564
H 1.263752 2.362094 -0.001294
H -0.812944 1.415970 -1.127778
H -2.035499 -0.013786 1.310367
12
Aligned to gpa_Type_2.xyz, RMSD 0.20585
C -1.053960 -0.974740 -0.428232
C 0.490456 -1.071993 -0.078364
C 1.304129 0.008469 0.141690
C 0.909037 1.312976 0.203279
C -0.676512 1.320744 -0.038143
C -1.401099 0.052736 0.436542
H -1.416074 -2.024081 -0.680860
H 1.135366 -1.976785 -0.166099
H 2.343932 -0.188465 0.582321
H 1.281708 2.320222 -0.018066
H -0.887735 1.210864 -1.208018
H -2.029246 0.010053 1.253951
12
Aligned to gpa_Type_3.xyz, RMSD 0.12557
C -0.898449 -1.031996 -0.083538
C 0.576766 -1.081675 -0.204468
C 1.354398 0.068228 0.025862
C 0.701326 1.254136 0.255473
C -0.778447 1.449498 -0.069920
C -1.442544 0.191430 0.267244
H -1.218436 -1.992309 -0.071664
H 1.125468 -2.141287 -0.399965
H 2.396378 -0.077559 0.159367
H 1.390313 2.197419 0.504602
H -0.734704 0.994035 -1.108400
H -2.472070 0.170080 0.725406
12
Aligned to gpa_Type_3.xyz, RMSD 0.28582
C -0.852012 -1.136442 -0.156270
C 0.553658 -1.115970 -0.199590
C 1.336469 0.061209 0.119986
C 0.594761 1.231449 0.267258
C -0.796783 1.209583 -0.001556
C -1.502595 0.042077 0.286732
H -1.491441 -1.872987 0.044760
H 0.955158 -2.192248 -0.506198
H 2.381636 0.187224 0.168008
H 1.208290 2.248678 0.354578
H 0.006509 1.295671 -1.355452
H -2.393650 0.041755 0.977745
12
Aligned to gpa_Type_3.xyz, RMSD 0.27544
C -0.867292 -1.116038 -0.129466
C 0.519489 -1.129307 -0.199625
C 1.332118 0.040327 0.127934
C 0.621644 1.236340 0.258336
C -0.771188 1.209630 0.023990
C -1.509452 0.035812 0.296658
H -1.438309 -1.902409 -0.032960
H 1.004225 -2.116051 -0.459831
H 2.326012 0.128006 0.157367
H 1.125738 2.213778 0.324881
H -0.019603 1.289472 -1.351705
H -2.323382 0.110442 0.984422
12
Aligned to gpa_Type_1.xyz, RMSD 0.19923
C -0.731694 -0.878172 0.074838
C 0.724650 -1.066313 0.055968
C 1.472538 -0.037902 0.146403
C 0.712971 1.151792 0.038451
C -0.712002 1.013765 -0.128186
C -1.453667 0.127127 0.697719
H -1.318030 -1.601871 -0.585083
H 1.156079 -1.947182 -0.168975
H 2.515174 -0.191363 0.121042
H 1.254712 1.930606 0.200172
H -1.117847 1.402243 -1.008367
H -2.502885 0.097271 0.556018
12
Aligned to gpa_Type_1.xyz, RMSD 0.13437
C -0.690686 -0.983880 -0.045172
C 0.702768 -1.162134 0.049702
C 1.431211 -0.085578 0.074590
C 0.763690 1.124195 -0.116223
C -0.666015 1.086277 -0.060264
C -1.374654 0.144299 0.814851
H -1.281566 -1.601954 -0.940950
H 1.163565 -2.166103 0.108985
H 2.440740 -0.074975 0.299677
H 1.322048 2.045361 -0.028136
H -1.347622 1.554107 -0.738299
H -2.463481 0.120385 0.581239
12
Aligned to gpa_Type_1.xyz, RMSD 0.16910
C -0.741348 -0.891984 -0.020770
C 0.645384 -1.140587 0.009865
C 1.404883 -0.049644 0.298634
C 0.698689 1.135492 -0.008924
C -0.739164 0.970995 -0.220943
C -1.583879 0.039779 0.639509
H -1.218480 -1.496446 -0.628875
H 1.189643 -2.151876 -0.171673
H 2.499969 0.057288 0.265138
H 1.450382 1.937408 -0.094893
H -1.011714 1.608319 -0.872038
H -2.594366 -0.018745 0.804968
12
Aligned to gpa_Type_1.xyz, RMSD 0.22619
C -0.756797 -0.928420 -0.196252
C 0.749826 -1.162422 0.110258
C 1.526527 0.040599 0.427904
C 0.856095 1.132649 0.066199
C -0.665392 0.861272 -0.062189
C -1.549486 -0.027542 0.551010
H -1.375198 -1.751116 -0.908036
H 1.048803 -2.159417 -0.194888
H 2.589077 0.031239 0.408071
H 1.058046 2.008027 -0.392721
H -0.959924 1.764244 -0.835291
H -2.521578 0.190887 1.025932
12
Aligned to gpa_Type_2.xyz, RMSD 0.31409
C -1.004869 -1.196147 -0.127538
C 0.491476 -1.135793 -0.022130
C 1.463971 0.094714 0.128828
C 0.744277 1.262372 0.149050
C -0.705071 1.250464 0.037825
C -1.370081 0.082610 0.396952
H -1.450124 -1.935946 -0.708522
H 1.001491 -2.088300 -0.423361
H 2.509114 -0.027772 0.583568
H 1.088904 2.309110 -0.022366
H -0.642187 1.144842 -1.030751
H -2.126901 0.239844 1.038447
12
Aligned to gpa_Type_1.xyz, RMSD 0.19607
C -0.828826 -0.996191 -0.161841
C 0.722915 -1.292461 0.049166
C 1.392651 -0.050583 0.035577
C 0.680712 1.184816 0.079647
C -0.686222 1.048468 -0.067585
C -1.396315 0.140842 0.729163
H -1.561158 -1.637079 -0.872582
H 1.320749 -2.158261 0.169946
H 2.465212 0.064029 0.146154
H 1.360399 2.101312 0.124793
H -1.121926 1.413134 -0.845392
H -2.348191 0.181973 0.612953
12
Aligned to gpa_Type_1.xyz, RMSD 0.21934
C -0.772714 -1.028683 -0.199933
C 0.671192 -1.137923 0.014724
C 1.509149 -0.036782 0.008995
C 0.715645 1.189785 -0.096642
C -0.797408 1.045945 -0.110998
C -1.578692 0.025879 0.688581
H -1.161015 -1.843707 -0.906253
H 1.071576 -2.101470 0.332419
H 2.760400 -0.149959 0.069855
H 1.361601 2.124518 0.198563
H -1.155020 1.722141 -0.809581
H -2.624715 0.190257 0.810270
12
Aligned to gpa_Type_3.xyz, RMSD 0.20710
C -0.746811 -0.997522 -0.148689
C 0.582617 -0.977509 -0.212958
C 1.330745 0.116511 -0.045558
C 0.870230 1.273972 0.217919
C -0.930123 1.482226 -0.071167
C -1.479356 0.185304 0.199981
H -1.392248 -2.006277 -0.097718
H 1.062718 -1.988321 -0.070054
H 2.390912 -0.132659 0.052713
H 1.423316 1.975869 0.628679
H -0.816252 1.113551 -1.230853
H -2.295749 -0.045145 0.777708
12
Aligned to gpa_Type_3.xyz, RMSD 0.22719
C -0.891065 -1.075095 -0.108156
C 0.567988 -1.141877 -0.144092
C 1.386198 0.124141 -0.000157
C 0.665179 1.231378 0.233310
C -0.923142 1.438227 -0.171329
C -1.511311 0.118399 0.188679
H -1.281472 -1.999419 -0.182202
H 1.075765 -2.082193 -0.169433
H 2.389886 -0.071036 0.026610
H 1.275987 2.065745 0.592386
H -0.416202 1.280265 -1.320364
H -2.337812 0.111467 1.054747
12
Aligned to gpa_Type_3.xyz, RMSD 0.21166
C -0.803888 -1.145203 -0.072055
C 0.533350 -1.137622 -0.262873
C 1.413268 0.064091 -0.011407
C 0.671823 1.217708 0.217745
C -0.794292 1.348009 -0.068355
C -1.365584 0.156279 0.347104
H -1.557396 -1.935488 -0.057616
H 1.092557 -2.072790 -0.575198
H 2.493370 0.049917 0.424700
H 1.161235 2.236173 0.381523
H -0.600639 0.968922 -1.110320
H -2.243805 0.250004 0.786754
12
Aligned to gpa_Type_3.xyz, RMSD 0.24214
C -0.852331 -1.151896 -0.012781
C 0.483184 -1.101662 -0.288344
C 1.315983 0.030315 0.155944
C 0.620033 1.279792 0.172564
C -0.795503 1.309574 -0.101118
C -1.420731 0.097320 0.253490
H -1.199905 -2.095153 0.098176
H 1.132012 -1.826444 -0.698132
H 2.371449 -0.215595 0.296323
H 1.107573 2.173310 0.492567
H -0.448360 1.006951 -1.184479
H -2.313405 0.493488 0.815790
12
Aligned to gpa_Type_1.xyz, RMSD 0.18539
C -0.693109 -0.989890 -0.103022
C 0.713326 -1.186384 -0.016123
C 1.484938 -0.061706 0.135073
C 0.743677 1.109076 -0.044895
C -0.721963 1.029212 -0.028276
C -1.526822 0.034338 0.674549
H -1.395100 -1.308170 -0.870243
H 1.095789 -2.203530 -0.070556
H 2.487405 0.107347 0.510605
H 1.324850 2.094595 -0.207007
H -0.980956 1.369483 -0.938437
H -2.532036 0.005628 0.958331
12
Aligned to gpa_Type_3.xyz, RMSD 0.20114
C -0.795354 -1.029927 -0.070789
C 0.515689 -1.075929 -0.287110
C 1.363849 0.119226 0.079989
C 0.719174 1.319927 0.215033
C -0.792155 1.459645 -0.021986
C -1.488569 0.223163 0.294832
H -1.165025 -2.016019 -0.070764
H 1.074590 -1.891697 -0.427815
H 2.372276 -0.091357 0.338030
H 1.565718 1.953305 0.360298
H -0.754025 0.965613 -1.180207
H -2.616169 0.064051 0.770490
12
Aligned to gpa_Type_3.xyz, RMSD 0.17477
C -0.833762 -1.074522 -0.058391
C 0.496767 -1.078420 -0.165659
C 1.376275 0.072112 0.020970
C 0.729770 1.292696 0.182130
C -0.799699 1.440658 -0.044331
C -1.487727 0.172017 0.314424
H -1.122536 -2.074705 -0.212334
H 1.156680 -1.964284 -0.350343
H 2.450721 -0.164144 0.196893
H 1.396280 2.078403 0.413665
H -0.800648 0.992797 -1.021615
H -2.562123 0.307392 0.724592
12
Aligned to gpa_Type_3.xyz, RMSD 0.23775
C -0.910780 -1.120647 -0.116964
C 0.592302 -1.040091 0.034310
C 1.415021 0.117356 -0.100152
C 0.743386 1.311215 0.219415
C -0.659147 1.310136 0.093566
C -1.478314 0.045137 0.352862
H -1.608749 -1.974576 -0.331579
H 1.016163 -2.111836 0.014245
H 2.487102 0.033256 -0.295148
H 1.216779 2.279114 0.553373
H -0.355296 1.148612 -1.125432
H -2.458467 0.002323 0.701504
12
Aligned to gpa_Type_3.xyz, RMSD 0.25918
C -0.940246 -1.086108 -0.136814
C 0.540863 -1.067738 0.009338
C 1.405245 0.139578 -0.107301
C 0.719002 1.306125 0.201966
C -0.658436 1.298698 0.098699
C -1.499735 0.077054 0.301820
H -1.625112 -1.985602 -0.301942
H 1.031372 -2.053158 0.085861
H 2.432449 0.043852 -0.298835
H 1.378271 2.275054 0.456038
H -0.334033 1.219606 -0.919951
H -2.449641 -0.167360 0.611122
12
Aligned to gpa_Type_1.xyz, RMSD 0.19292
C -0.798856 -1.010752 -0.053927
C 0.738169 -1.220615 0.110870
C 1.492951 -0.079105 0.124853
C 0.692397 1.048179 0.089876
C -0.646302 0.966480 -0.342622
C -1.393404 0.104335 0.563900
H -1.392009 -1.468557 -0.755286
H 1.382374 -2.067806 -0.028877
H 2.515551 -0.042374 0.202706
H 1.206830 1.916600 0.213843
H -1.360978 1.512817 -0.929475
H -2.436724 0.340797 0.804138
12
Aligned to gpa_Type_1.xyz, RMSD 0.12448
C -0.815115 -0.984689 -0.028928
C 0.727533 -1.213553 0.059508
C 1.523238 -0.086182 0.142201
C 0.816447 1.067039 0.025009
C -0.650781 1.024091 -0.321018
C -1.382977 0.145382 0.685576
H -1.338982 -1.672165 -0.780085
H 1.155136 -2.264307 -0.048431
H 2.610872 -0.005396 0.271441
H 1.119691 2.140353 0.138640
H -1.287053 1.649065 -0.902291
H -2.478009 0.200363 0.758377
12
Aligned to gpa_Type_2.xyz, RMSD 0.19584
C -0.970620 -1.110105 -0.450370
C 0.580171 -1.191671 -0.117649
C 1.432773 0.106520 0.156787
C 0.765742 1.249983 0.118907
C -0.686679 1.161629 -0.170736
C -1.447441 0.023881 0.463777
H -1.432770 -2.010750 -0.947892
H 0.842029 -2.232962 0.217045
H 2.511919 0.209403 0.456830
H 1.381725 2.149351 -0.011106
H -0.963560 1.663482 -1.083774
H -2.013289 -0.018762 1.368183
12
Aligned to gpa_Type_3.xyz, RMSD 0.16961
C -0.842778 -1.112806 0.113761
C 0.516670 -1.115140 -0.274805
C 1.374002 0.115446 -0.011812
C 0.695628 1.323210 0.197718
C -0.786822 1.347981 0.012970
C -1.508323 0.148036 0.278630
H -1.363677 -2.098634 -0.058804
H 1.011532 -1.977858 -0.475767
H 2.353136 -0.097425 0.198314
H 1.200021 2.213793 0.481430
H -0.257256 1.113012 -1.273280
H -2.392134 0.140385 0.811646
12
Aligned to gpa_Type_3.xyz, RMSD 0.19164
C -0.794384 -1.055375 -0.207917
C 0.566548 -1.072811 -0.044793
C 1.301955 0.068426 0.071337
C 0.802893 1.289055 0.135729
C -0.730054 1.395862 0.059050
C -1.480236 0.190356 0.256583
H -1.208654 -1.997857 -0.243347
H 0.906994 -2.189274 -0.216248
H 2.397714 -0.074538 0.070551
H 1.289841 2.255494 0.430033
H -0.583418 1.190343 -1.181113
H -2.469199 0.000319 0.870136
12
Aligned to gpa_Type_3.xyz, RMSD 0.26367
C -0.803947 -1.040688 -0.169924
C 0.594302 -1.111500 -0.087123
C 1.310567 0.055510 0.046333
C 0.837052 1.274861 0.134761
C -0.727335 1.353125 0.156626
C -1.498589 0.180060 0.278843
H -1.387649 -1.992128 -0.363284
H 0.885662 -2.205619 -0.138430
H 2.478770 -0.000109 0.187576
H 1.226228 2.268481 0.318808
H -0.582902 1.304108 -1.322490
H -2.332160 -0.086100 0.958305
12
Aligned to gpa_Type_1.xyz, RMSD 0.17827
C -0.850584 -1.181365 -0.076419
C 0.725980 -1.168532 0.044282
C 1.420087 -0.023327 0.049131
C 0.805959 1.088869 -0.085776
C -0.597830 0.994586 -0.030064
C -1.362944 0.042581 0.732867
H -1.331428 -1.375801 -1.001987
H 1.151286 -2.033272 0.071940
H 2.470162 -0.026802 0.343155
H 1.161530 2.098131 0.018376
H -1.080678 1.364589 -0.948582
H -2.511542 0.220342 0.883075
12
Aligned to gpa_Type_2.xyz, RMSD 0.23700
C -0.871283 -1.039219 -0.608334
C 0.449979 -1.106975 -0.098457
C 1.144808 0.082845 0.523553
C 0.671281 1.316292 -0.006961
C -0.657375 1.373133 -0.118896
C -1.298307 -0.003674 0.283216
H -1.337353 -2.087604 -0.731981
H 1.035646 -2.225151 -0.005657
H 2.135484 -0.076323 0.766508
H 1.342020 2.014123 -0.416549
H -1.012068 1.937597 -0.992113
H -1.602830 -0.185045 1.405671
12
Aligned to gpa_Type_2.xyz, RMSD 0.26638
C -0.911692 -1.021704 -0.646440
C 0.430454 -1.116679 -0.072040
C 1.150924 0.114244 0.541738
C 0.759043 1.286327 -0.042551
C -0.622782 1.338747 -0.111478
C -1.303812 0.043239 0.265159
H -1.287292 -2.165152 -0.782686
H 1.037930 -2.056932 0.067901
H 2.109694 -0.144022 0.730906
H 1.342568 1.995726 -0.494512
H -1.008587 1.985268 -0.901480
H -1.696445 -0.259063 1.445486
12
Aligned to gpa_Type_2.xyz, RMSD 0.32610
C -0.701186 -1.127160 -0.581560
C 0.466790 -1.128369 0.082536
C 1.406616 0.093433 0.228309
C 0.746858 1.237501 -0.157109
C -0.650270 1.102690 -0.227514
C -1.392882 -0.119298 0.261659
H -1.358202 -1.877962 -1.050398
H 0.684973 -2.244113 0.462858
H 2.395158 0.016247 0.616996
H 1.265530 2.135901 -0.308186
H -1.209632 1.984974 -0.573948
H -1.653753 -0.073843 1.246358
12
Aligned to gpa_Type_3.xyz, RMSD 0.36427
C -0.855147 -1.111080 0.136864
C 0.703535 -1.180336 -0.158290
C 1.450995 0.014498 -0.026063
C 0.602520 1.107236 0.285273
C -0.761526 1.055656 -0.214217
C -1.505788 0.156880 0.460774
H -1.257644 -1.639923 -0.654439
H 1.101086 -2.157865 -0.042461
H 2.569258 -0.044864 -0.034432
H 1.104956 2.273862 0.622760
H -0.862583 1.083391 -1.321799
H -2.289661 0.442548 0.946031
12
Aligned to gpa_Type_3.xyz, RMSD 0.22043
C -0.846067 -0.966584 -0.298792
C 0.552488 -1.058253 -0.357291
C 1.393494 0.066940 0.084444
C 0.856596 1.199319 0.373485
C -0.728938 1.447137 0.111229
C -1.431525 0.173943 0.134688
H -1.442557 -1.814978 0.234221
H 0.927231 -2.086616 -0.206460
H 2.510000 -0.091290 -0.006519
H 1.286889 2.315217 0.462139
H -0.718388 1.067788 -1.071220
H -2.359226 -0.252622 0.540079
12
Aligned to gpa_Type_3.xyz, RMSD 0.27717
C -0.869481 -1.065921 -0.261541
C 0.508327 -1.045240 -0.165019
C 1.379056 0.058182 0.158982
C 0.730493 1.368998 0.209671
C -0.798389 1.369311 0.075444
C -1.514514 0.147718 0.241272
H -1.320900 -2.101835 -0.297208
H 0.916296 -2.065813 -0.241580
H 2.399450 -0.120035 0.337300
H 1.358063 2.229774 0.087150
H -0.549158 1.285801 -1.117293
H -2.239244 -0.060940 0.972823
12
Aligned to gpa_Type_1.xyz, RMSD 0.26444
C -0.706845 -0.916399 -0.001838
C 0.741498 -1.216910 -0.004365
C 1.563415 -0.038093 0.226358
C 0.726308 1.128214 -0.075606
C -0.773267 1.221260 -0.251232
C -1.486708 0.029590 0.707069
H -1.328148 -1.380364 -0.649526
H 1.232762 -2.148378 -0.436089
H 2.506527 -0.118791 0.636925
H 1.325157 2.019379 0.012057
H -1.248318 1.250861 -1.168247
H -2.552383 0.169631 1.004494
12
Aligned to gpa_Type_1.xyz, RMSD 0.24684
C -0.737946 -0.869638 -0.111033
C 0.717023 -1.184286 -0.109462
C 1.533020 -0.092554 0.093383
C 0.804866 1.151135 -0.071547
C -0.712626 1.166506 -0.105604
C -1.462354 0.111250 0.739337
H -1.405824 -1.707299 -0.663318
H 1.201750 -2.062850 -0.364185
H 2.478833 -0.083377 0.719349
H 1.248981 2.080445 0.025434
H -1.167210 1.262855 -1.112200
H -2.498514 0.227814 0.959843
12
Aligned to gpa_Type_2.xyz, RMSD 0.20811
C -0.920001 -1.098826 -0.374266
C 0.600124 -1.068933 -0.145767
C 1.219379 0.027128 0.281254
C 0.696906 1.417744 0.112368
C -0.856457 1.315488 -0.099532
C -1.351324 0.018167 0.267907
H -1.429316 -1.981923 -0.500995
H 0.845333 -2.151483 -0.252575
H 2.178248 0.087428 0.531745
H 1.453775 2.221255 0.034014
H -0.606672 1.356936 -1.176344
H -1.829995 -0.142984 1.322193
12
Aligned to gpa_Type_3.xyz, RMSD 0.30654
C -0.723606 -0.952335 -0.193438
C 0.703992 -1.111338 -0.065166
C 1.534374 -0.104880 0.147741
C 0.765330 1.200134 0.186642
C -0.741316 1.096849 -0.231947
C -1.441041 0.085975 0.559665
H -1.441846 -1.913391 -0.366726
H 1.110933 -2.169939 -0.142361
H 2.502263 -0.003818 0.002950
H 1.273621 2.274898 0.543065
H -1.057441 1.304342 -1.214552
H -2.485263 0.293504 0.774129
12
Aligned to gpa_Type_3.xyz, RMSD 0.27901
C -0.767658 -1.039764 -0.056754
C 0.675924 -1.098901 -0.047373
C 1.490280 0.119700 -0.080753
C 0.766430 1.301966 0.061726
C -0.620528 1.097176 -0.192697
C -1.443645 0.218389 0.652148
H -1.503130 -1.873056 -0.417697
H 1.041648 -2.073214 -0.181355
H 2.517420 0.070554 0.104816
H 1.365913 2.111111 0.667240
H -0.985548 1.002470 -1.196147
H -2.537107 0.163570 0.686845
12
Aligned to gpa_Type_2.xyz, RMSD 0.27580
C -0.875318 -1.085232 -0.648380
C 0.638897 -1.106539 -0.009570
C 1.239995 0.057459 0.325866
C 0.709615 1.312162 0.104735
C -0.589231 1.073774 -0.261671
C -1.356035 -0.029197 0.345215
H -1.602505 -1.911867 -1.042690
H 0.611706 -2.044928 0.339806
H 2.381177 -0.089264 0.632062
H 1.213831 2.389810 -0.177824
H -1.067319 1.589538 -0.991440
H -1.304812 -0.155717 1.383891
12
Aligned to gpa_Type_2.xyz, RMSD 0.24992
C -1.047809 -1.006025 -0.651102
C 0.352602 -1.018198 -0.076757
C 1.260541 0.047915 0.344887
C 0.680545 1.335972 0.072210
C -0.624610 1.164209 -0.185110
C -1.545286 0.001675 0.330443
H -1.321726 -2.072515 -0.889206
H 0.787296 -1.883276 0.312805
H 2.420975 -0.136745 0.654003
H 1.481983 2.217112 -0.288665
H -1.020107 1.691323 -0.952270
H -1.424403 -0.341449 1.328763
12
Aligned to gpa_Type_2.xyz, RMSD 0.28074
C -0.779097 -1.052181 -0.242329
C 0.694176 -1.198742 -0.005264
C 1.406245 -0.051485 -0.057263
C 0.646886 1.066532 0.245123
C -0.781068 1.186489 -0.138777
C -1.711232 0.051085 0.361151
H -1.314487 -1.756716 -0.821736
H 1.277931 -2.014922 0.120976
H 2.416411 -0.099404 0.342841
H 1.297246 1.977175 0.051513
H -0.989576 1.704985 -1.163471
H -2.163433 0.187182 1.307237
12
Aligned to gpa_Type_2.xyz, RMSD 0.27804
C -0.872990 -1.065077 -0.148968
C 0.590912 -1.130434 0.075024
C 1.382711 -0.053847 0.252023
C 0.690548 1.237614 0.339165
C -0.696077 1.104810 -0.378374
C -1.562109 0.085963 0.383156
H -1.191184 -1.621825 -1.079158
H 1.057845 -2.094527 0.115633
H 2.392377 -0.167637 0.215994
H 1.252432 2.076683 0.070406
H -1.170208 1.498853 -1.252827
H -1.874256 0.129423 1.407925
12
Aligned to gpa_Type_2.xyz, RMSD 0.21347
C -0.857879 -1.102981 -0.484570
C 0.492392 -1.174638 -0.139354
C 1.226590 0.010755 0.249764
C 0.768374 1.330202 0.083344
C -0.576128 1.175572 -0.162092
C -1.220856 0.015062 0.325299
H -1.417308 -1.703084 -0.998715
H 0.949195 -2.151906 0.222703
H 2.218267 0.023554 0.750688
H 1.345927 2.126535 -0.306719
H -1.208684 1.574618 -0.960344
H -1.719889 -0.123692 1.419995
12
Aligned to gpa_Type_2.xyz, RMSD 0.19061
C -0.868990 -1.041632 -0.587238
C 0.482929 -1.095961 -0.175194
C 1.303581 0.017328 0.307181
C 0.766657 1.383422 0.218323
C -0.588599 1.250745 -0.049050
C -1.293153 0.029037 0.418027
H -1.539780 -2.024476 -0.896173
H 0.885925 -1.969839 0.209590
H 2.264114 -0.066128 0.702767
H 1.294107 2.151749 -0.425339
H -1.006282 1.597707 -0.998785
H -1.700509 -0.231951 1.275891
12
Aligned to gpa_Type_2.xyz, RMSD 0.14226
C -0.887139 -1.123114 -0.487923
C 0.508575 -1.104887 -0.056225
C 1.300589 0.050122 0.389338
C 0.710623 1.314175 0.117550
C -0.700718 1.355333 -0.064480
C -1.299556 0.050083 0.364522
H -1.417092 -2.002773 -0.568267
H 0.953418 -2.015803 -0.285566
H 2.313353 -0.037163 0.651881
H 1.316376 2.052160 -0.132106
H -0.908622 1.557063 -1.235236
H -1.889808 -0.095197 1.306515
12
Aligned to gpa_Type_2.xyz, RMSD 0.17691
C -0.893137 -1.061404 -0.410051
C 0.544042 -1.009357 -0.090351
C 1.429079 0.095202 0.248793
C 0.648909 1.196031 0.170959
C -0.832570 1.303156 -0.057820
C -1.442966 0.036476 0.414251
H -1.265280 -1.973499 -0.658313
H 0.856310 -2.152249 -0.074558
H 2.525901 -0.103187 0.364637
H 1.244086 2.180633 0.014527
H -0.740673 1.454140 -1.193272
H -2.073700 0.034057 1.271198
12
Aligned to gpa_Type_2.xyz, RMSD 0.21582
C -0.891459 -1.205776 -0.463716
C 0.481881 -1.180192 0.000481
C 1.306921 0.019953 0.367237
C 0.679617 1.202076 -0.026263
C -0.649242 1.285236 -0.289201
C -1.220959 -0.043941 0.346892
H -1.503803 -2.083406 -0.999483
H 0.962712 -2.081892 0.252629
H 2.366800 -0.023964 0.545585
H 1.271755 2.119248 -0.062015
H -1.192413 1.962255 -0.966436
H -1.611810 0.030403 1.294292
12
Aligned to gpa_Type_2.xyz, RMSD 0.17387
C -0.908993 -1.143319 -0.505797
C 0.502965 -1.115358 -0.017709
C 1.142786 0.123891 0.293092
C 0.741009 1.406705 -0.022522
C -0.641925 1.173036 -0.168037
C -1.280339 -0.030071 0.299247
H -1.494330 -1.985682 -0.828350
H 0.990537 -2.188000 0.145180
H 2.161605 -0.141811 0.613325
H 1.485047 2.304183 -0.045409
H -1.145984 1.699602 -1.036868
H -1.552376 -0.103178 1.273847
12
Aligned to gpa_Type_2.xyz, RMSD 0.18806
C -0.845144 -0.950759 -0.416328
C 0.645632 -1.185517 -0.220617
C 1.228372 -0.009119 0.172280
C 0.751085 1.279658 0.100469
C -0.710683 1.196793 -0.087020
C -1.455784 0.027225 0.383995
H -1.435706 -1.669242 -0.903429
H 1.050048 -2.112615 0.232394
H 2.189365 -0.023608 0.606332
H 1.337257 2.085041 -0.060635
H -1.065352 1.453962 -1.223229
H -1.689090 -0.091817 1.415789
12
Aligned to gpa_Type_2.xyz, RMSD 0.19029
C -0.824231 -0.948350 -0.421992
C 0.645764 -1.158185 -0.169264
C 1.267728 0.032901 0.168026
C 0.719853 1.319311 0.066132
C -0.688681 1.165612 -0.079076
C -1.489151 0.013695 0.351853
H -1.413438 -1.639534 -0.884963
H 1.022587 -2.045819 0.115725
H 2.211382 -0.105493 0.633542
H 1.335529 2.120034 -0.092656
H -0.982524 1.327096 -1.180707
H -1.804816 -0.081269 1.493381
12
Aligned to gpa_Type_2.xyz, RMSD 0.29659
C -0.879178 -1.274294 -0.552538
C 0.496668 -1.109069 -0.012518
C 1.387727 0.073127 0.063089
C 0.703493 1.299993 0.200710
C -0.678429 1.252256 -0.258593
C -1.384138 -0.021630 0.270267
H -1.421476 -2.158085 -0.508915
H 0.870521 -2.055132 0.325786
H 2.604725 -0.152066 -0.011651
H 1.228462 2.292953 0.466091
H -0.878953 1.809359 -1.137775
H -2.049421 0.042587 1.156049
12
Aligned to gpa_Type_2.xyz, RMSD 0.30373
C -0.721447 -1.039919 -0.228836
C 0.597917 -1.090913 -0.043361
C 1.332995 0.032122 0.220453
C 0.706586 1.366386 0.036786
C -0.749228 1.230634 0.068046
C -1.498496 0.047414 0.425365
H -1.321880 -1.721578 -0.835864
H 0.933292 -2.113351 -0.167191
H 2.526346 -0.072031 0.426248
H 1.465785 2.224779 -0.118966
H -0.913324 1.025161 -0.927752
H -2.358546 0.111295 1.145073
12
Aligned to gpa_Type_3.xyz, RMSD 0.17193
C -0.969091 -1.102020 -0.137594
C 0.479068 -1.086241 -0.165559
C 1.287567 0.126385 0.010168
C 0.716996 1.383250 0.162705
C -0.694501 1.234531 0.155059
C -1.446388 0.074729 0.371307
H -1.318637 -2.065343 -0.171278
H 1.113324 -2.062594 -0.320837
H 2.353024 0.011375 0.164121
H 1.308063 2.148484 0.225874
H -0.420329 1.115801 -0.911640
H -2.409096 0.221645 0.617674
12
Aligned to gpa_Type_2.xyz, RMSD 0.25958
C -0.657810 -0.898277 -0.306225
C 0.640785 -1.153147 0.110008
C 1.443071 -0.011013 0.316272
C 0.621776 1.125373 -0.118343
C -0.777290 1.065514 -0.456435
C -1.442648 0.009468 0.365741
H -1.452197 -1.739382 -0.749709
H 0.979515 -2.109465 -0.129492
H 2.587210 -0.111108 0.595290
H 1.244547 2.028733 0.117621
H -1.250542 1.713764 -1.046208
H -1.936415 0.079539 1.301480
12
Aligned to gpa_Type_2.xyz, RMSD 0.18311
C -0.870260 -1.012224 -0.547805
C 0.626889 -1.109882 -0.014079
C 1.369691 0.043525 0.318880
C 0.711091 1.281623 0.262603
C -0.748501 1.352955 -0.042369
C -1.538887 0.101124 0.444072
H -1.353908 -1.936534 -0.880519
H 0.998014 -2.172314 0.160929
H 2.465112 0.004111 0.328919
H 1.443005 2.031388 -0.231340
H -1.024187 1.494909 -1.062712
H -2.078057 -0.078682 1.263422
12
Aligned to gpa_Type_2.xyz, RMSD 0.23250
C -0.816339 -0.896922 -0.513852
C 0.637264 -1.068144 0.017967
C 1.368512 0.051465 0.359038
C 0.710887 1.254812 0.387432
C -0.740479 1.162872 -0.163213
C -1.645209 -0.007406 0.312962
H -1.322994 -1.773072 -0.810351
H 0.957915 -2.128075 0.035422
H 2.367073 0.005146 0.464455
H 1.201610 1.881018 -0.465272
H -0.824914 1.647384 -1.021571
H -1.893324 -0.129080 1.396984
12
Aligned to gpa_Type_3.xyz, RMSD 0.21222
C -0.874693 -1.216097 0.047163
C 0.505549 -1.013321 -0.194795
C 1.314566 0.090843 0.158982
C 0.694521 1.320477 0.214176
C -0.760674 1.315598 -0.059183
C -1.497098 0.071392 0.219621
H -1.250249 -2.146927 0.150339
H 0.941966 -1.776382 -0.726497
H 2.392162 -0.209789 0.151535
H 1.247181 2.285739 0.451615
H -0.252262 1.012217 -1.090869
H -2.460969 0.266250 0.677913
12
Aligned to gpa_Type_3.xyz, RMSD 0.16779
C -0.822770 -0.972410 0.135450
C 0.550986 -1.005328 -0.121601
C 1.460411 0.089300 -0.019815
C 0.735639 1.276297 0.161068
C -0.713469 1.355606 -0.030143
C -1.495204 0.211841 0.319987
H -1.315972 -1.862848 -0.082847
H 1.072326 -2.038868 -0.569636
H 2.538641 -0.156516 0.162428
H 1.084202 2.097878 0.569489
H -0.665942 0.850186 -1.163807
H -2.428849 0.154862 0.639429
12
Aligned to gpa_Type_3.xyz, RMSD 0.13403
C -0.898226 -1.178227 -0.110396
C 0.519272 -1.134835 -0.155057
C 1.274281 0.067019 -0.011455
C 0.721348 1.296634 0.333261
C -0.640342 1.373338 -0.034176
C -1.377488 0.063819 0.190096
H -1.461680 -2.022310 -0.012362
H 1.041089 -1.941402 -0.300149
H 2.378437 0.208463 -0.081092
H 1.424386 2.164508 0.617666
H -0.523166 0.897054 -1.110768
H -2.457913 0.205939 0.674433
12
Aligned to gpa_Type_3.xyz, RMSD 0.27545
C -0.741342 -0.967635 -0.005866
C 0.607669 -1.031484 -0.259025
C 1.425884 0.153915 0.094848
C 0.812970 1.278060 0.234430
C -0.608104 0.959080 -0.284774
C -1.475057 0.158898 0.492762
H -1.215839 -1.828751 -0.242509
H 0.792632 -2.076250 -0.343006
H 2.595529 -0.091453 0.134377
H 0.965875 2.135989 0.584353
H -0.749170 1.016080 -1.234929
H -2.411048 0.293551 0.829341
12
Aligned to gpa_Type_3.xyz, RMSD 0.27228
C -0.854198 -1.268586 0.077584
C 0.481152 -1.136243 -0.192777
C 1.264738 0.085883 0.198602
C 0.718138 1.336074 0.627347
C -0.521008 1.097542 -0.158100
C -1.443957 0.051518 0.151848
H -1.377603 -2.195047 0.026613
H 0.887748 -2.069489 -0.512358
H 2.252987 0.215937 -0.054842
H 1.323825 2.303124 0.400303
H -0.375875 1.297181 -1.312083
H -2.355948 0.282109 0.747866
12
Aligned to gpa_Type_2.xyz, RMSD 0.25057
C -1.021160 -1.092364 -0.416121
C 0.505587 -0.961371 0.009158
C 1.370035 0.086311 0.123676
C 0.759669 1.219869 0.201835
C -0.726069 1.228575 -0.022744
C -1.490196 0.039546 0.335662
H -1.394811 -2.044075 -0.602847
H 0.979108 -1.956911 0.143056
H 2.553596 -0.022884 0.057766
H 1.211816 2.047137 0.270370
H -0.648845 1.538123 -1.267464
H -2.098728 -0.081955 1.167654
12
Aligned to gpa_Type_2.xyz, RMSD 0.23684
C -1.046025 -1.113339 -0.473022
C 0.477211 -0.990231 0.033049
C 1.422721 0.092305 0.162244
C 0.718816 1.203271 0.229825
C -0.732424 1.237488 -0.126757
C -1.519697 -0.041796 0.335331
H -1.293491 -2.189290 -0.772641
H 0.844179 -1.953946 -0.009248
H 2.459118 0.054915 0.197199
H 1.431020 2.179673 0.224135
H -0.754302 1.346466 -1.146308
H -2.007125 0.174482 1.346193
12
Aligned to gpa_Type_2.xyz, RMSD 0.26999
C -0.939038 -1.074482 -0.307720
C 0.492666 -0.959729 -0.133406
C 1.445442 0.050941 0.402201
C 0.788687 1.286198 0.118967
C -0.692314 1.257220 -0.129060
C -1.431306 0.036410 0.594507
H -1.426546 -1.809316 -0.892786
H 1.144086 -2.020259 -0.271745
H 2.494865 -0.233379 0.759875
H 1.302697 2.194080 -0.354516
H -0.976314 1.300627 -1.129255
H -2.202924 -0.028313 1.342939
12
Aligned to gpa_Type_1.xyz, RMSD 0.26044
C -0.740765 -0.889046 -0.099623
C 0.682190 -1.105148 -0.106205
C 1.485954 -0.134084 0.254882
C 0.793652 1.177832 0.149068
C -0.884838 1.135251 -0.194816
C -1.474638 0.096778 0.670287
H -1.293276 -1.693176 -0.654317
H 0.825219 -2.117898 -0.282540
H 2.694296 0.109720 0.436324
H 1.352049 2.112791 -0.024273
H -0.913175 1.366967 -1.193806
H -2.526669 -0.059987 1.045019
12
Aligned to gpa_Type_3.xyz, RMSD 0.23194
C -0.883943 -1.047412 0.064611
C 0.559258 -1.012352 -0.183079
C 1.386472 0.031125 0.200644
C 0.721073 1.377103 0.214403
C -0.651211 1.253870 0.075964
C -1.426795 0.187088 0.322598
H -1.584247 -1.947562 -0.046890
H 1.263439 -1.913837 -0.699865
H 2.299109 -0.183587 0.182798
H 1.170560 2.296478 0.218894
H -0.324886 0.897558 -1.002134
H -2.528831 0.061528 0.652058
12
Aligned to gpa_Type_1.xyz, RMSD 0.17546
C -0.726284 -0.991413 0.052685
C 0.794997 -1.304782 0.220394
C 1.518558 0.076204 0.094711
C 0.685128 1.110146 -0.056794
C -0.656418 0.974886 -0.351906
C -1.403860 0.145683 0.693668
H -1.258108 -1.460275 -0.841764
H 1.030457 -2.366391 0.027183
H 2.468955 0.040258 0.194465
H 1.244127 1.984050 0.084200
H -1.313431 1.756493 -0.752713
H -2.384122 0.035141 0.635871
12
Aligned to gpa_Type_1.xyz, RMSD 0.23651
C -0.760044 -0.955932 0.012793
C 0.738725 -1.239073 0.162861
C 1.510795 0.001949 0.304019
C 0.726483 0.921000 -0.153081
C -0.676602 0.963744 -0.263064
C -1.554506 0.062928 0.746837
H -1.163688 -1.311988 -0.836597
H 1.089868 -2.314315 -0.239790
H 2.692862 0.187056 0.441585
H 1.118310 1.885235 -0.271348
H -1.021919 1.768885 -0.783726
H -2.700285 0.030511 0.879511
12
Aligned to gpa_Type_1.xyz, RMSD 0.25552
C -0.766150 -0.980484 0.020638
C 0.727010 -1.284934 0.149580
C 1.513606 -0.063714 0.297986
C 0.730116 0.891958 -0.155048
C -0.670483 0.937889 -0.269058
C -1.561807 0.039616 0.762220
H -1.162730 -1.248608 -0.837738
H 1.096943 -2.222025 -0.235390
H 2.571213 0.243350 0.456971
H 1.093097 1.888916 -0.291339
H -0.930477 1.797371 -0.814941
H -2.640338 0.000665 0.916120
12
Aligned to gpa_Type_2.xyz, RMSD 0.19194
C -0.821614 -1.065329 -0.535122
C 0.453838 -1.006059 -0.114466
C 1.227350 0.110198 0.393046
C 0.684127 1.404544 0.160254
C -0.697513 1.329849 0.043224
C -1.357417 0.068654 0.336728
H -1.260678 -1.962953 -0.768373
H 0.957446 -2.008881 0.118399
H 2.301271 -0.185325 0.452373
H 1.506129 2.030794 -0.404445
H -0.914225 1.584499 -1.030068
H -2.078713 -0.299991 1.348452
12
Aligned to gpa_Type_2.xyz, RMSD 0.19538
C -0.814849 -1.027337 -0.519428
C 0.452740 -1.008797 -0.109387
C 1.242804 0.115289 0.383405
C 0.728622 1.375668 0.134458
C -0.692143 1.301056 0.064377
C -1.343843 0.057414 0.365271
H -1.290146 -1.986346 -0.826510
H 1.000481 -2.009403 0.170239
H 2.317210 -0.213819 0.443318
H 1.428936 2.024025 -0.403899
H -0.920003 1.666017 -1.079225
H -2.109808 -0.293768 1.377382
12
Aligned to gpa_Type_2.xyz, RMSD 0.19952
C -0.905347 -1.108597 -0.429383
C 0.527862 -1.059476 -0.091061
C 1.196421 0.078802 0.444887
C 0.693025 1.320008 0.136075
C -0.780683 1.326255 0.030451
C -1.362725 0.041930 0.335877
H -1.362862 -1.990278 -1.006264
H 1.056751 -2.076766 0.180654
H 2.302034 -0.065383 0.506100
H 1.396060 1.913986 -0.403107
H -0.934245 1.796304 -1.125155
H -1.826291 -0.176787 1.420925
12
Aligned to gpa_Type_2.xyz, RMSD 0.23225
C -0.817348 -0.970059 -0.471920
C 0.512819 -1.088478 0.084913
C 1.367339 0.023463 0.318121
C 0.805156 1.287685 -0.085565
C -0.603163 1.197354 -0.108829
C -1.439915 0.059759 0.422437
H -1.537515 -1.715379 -1.023396
H 1.071924 -2.094320 0.022562
H 2.310426 -0.167856 0.824169
H 1.248807 2.140058 -0.239276
H -1.241558 1.513093 -1.178047
H -1.676972 -0.185322 1.434832
12
Aligned to gpa_Type_1.xyz, RMSD 0.18271
C -0.691235 -0.979805 -0.110430
C 0.685799 -1.193278 0.071263
C 1.461833 -0.048684 0.058945
C 0.746061 1.167585 0.027736
C -0.785703 1.106489 0.149260
C -1.458363 -0.033127 0.784339
H -1.265729 -1.427119 -0.934387
H 1.225127 -2.235515 0.214787
H 2.572742 -0.037872 0.127525
H 1.335200 1.990677 -0.115964
H -1.188498 1.549318 -0.871733
H -2.637236 0.141332 0.598658
12
Aligned to gpa_Type_3.xyz, RMSD 0.14121
C -0.910940 -1.046973 -0.001344
C 0.673829 -1.114806 -0.241808
C 1.435310 0.117611 -0.059218
C 0.769175 1.276904 0.170500
C -0.705725 1.467966 0.017367
C -1.515601 0.168644 0.274955
H -1.394123 -1.986885 0.067417
H 1.061333 -2.086094 -0.551870
H 2.529118 -0.035748 0.284419
H 1.138386 2.090824 0.444161
H -0.559268 1.023822 -1.079003
H -2.521495 0.124737 0.674425
12
Aligned to gpa_Type_3.xyz, RMSD 0.12027
C -0.831448 -1.082538 -0.032968
C 0.605949 -1.089975 -0.309068
C 1.387070 0.051894 -0.027682
C 0.711325 1.200246 0.252515
C -0.749318 1.452417 -0.024523
C -1.560432 0.080133 0.271855
H -1.506163 -1.950302 0.045628
H 1.126398 -2.010910 -0.408259
H 2.412228 0.033136 0.150060
H 1.408954 2.239155 0.401759
H -0.459480 1.029428 -0.938529
H -2.545083 0.047317 0.619211
12
Aligned to gpa_Type_3.xyz, RMSD 0.18486
C -0.824808 -1.053724 0.000930
C 0.532451 -1.037423 -0.212395
C 1.286452 0.120837 0.019013
C 0.675031 1.287038 0.229744
C -0.777962 1.516645 -0.175344
C -1.405128 0.194039 0.300065
H -1.270220 -1.930636 -0.207255
H 1.014079 -2.003666 -0.226482
H 2.353629 -0.247614 0.067268
H 1.325251 2.173347 0.470593
H -0.450824 1.126764 -1.111732
H -2.457953 -0.145608 0.845595
12
Aligned to gpa_Type_2.xyz, RMSD 0.22154
C -0.948857 -1.113344 -0.255479
C 0.464391 -1.061399 -0.097005
C 1.235259 0.037693 0.329959
C 0.686630 1.298054 0.161789
C -0.790250 1.381175 -0.081013
C -1.377047 0.054117 0.439183
H -1.345860 -2.000575 -0.765243
H 1.055742 -2.048176 -0.305943
H 2.229528 -0.107255 0.737729
H 1.231970 2.134267 -0.376611
H -0.612197 1.517244 -1.069462
H -1.829308 -0.091801 1.282098
12
Aligned to gpa_Type_2.xyz, RMSD 0.29581
C -0.838155 -1.054823 -0.243357
C 0.571315 -1.066736 0.107515
C 1.506644 0.058731 0.390628
C 0.745324 1.185692 0.169803
C -0.704429 1.114378 0.005137
C -1.538748 0.057665 0.467917
H -1.371635 -1.678989 -0.908692
H 0.962458 -2.055930 0.016910
H 2.509030 0.124412 0.099108
H 1.259896 1.978249 -0.165569
H -0.737585 1.477287 -1.159383
H -2.364113 -0.139937 1.219983
12
Aligned to gpa_Type_2.xyz, RMSD 0.25153
C -0.883925 -1.000218 -0.280045
C 0.614567 -1.078768 0.078813
C 1.450703 0.072391 0.306374
C 0.786717 1.165223 0.192121
C -0.658129 1.217147 -0.122251
C -1.477917 0.044477 0.356749
H -1.416359 -1.588999 -1.037008
H 0.782971 -2.160340 0.180627
H 2.567350 0.054484 0.284008
H 1.253828 2.189365 -0.123195
H -1.030024 1.254721 -1.070301
H -1.989781 -0.169484 1.234109
12
Aligned to gpa_Type_2.xyz, RMSD 0.15194
C -0.827598 -1.021817 -0.467917
C 0.557929 -1.001129 -0.090467
C 1.417614 0.042164 0.154994
C 0.648346 1.199390 0.102413
C -0.770382 1.156785 -0.234633
C -1.608249 -0.050222 0.371986
H -1.410927 -1.877244 -0.677272
H 0.979634 -2.032208 0.076600
H 2.383295 -0.158456 0.654937
H 1.308859 2.084896 -0.087598
H -0.958200 1.758058 -1.102406
H -1.720319 -0.100217 1.299364
12
Aligned to gpa_Type_2.xyz, RMSD 0.17224
C -0.698705 -1.079908 -0.469003
C 0.491800 -1.143710 0.055696
C 1.302758 -0.017212 0.336285
C 0.799843 1.233023 0.064878
C -0.765728 1.375166 -0.062297
C -1.240004 -0.072399 0.317621
H -1.261331 -1.835431 -0.924772
H 0.876869 -2.085305 0.138040
H 2.262726 -0.154955 0.524103
H 1.270971 2.095591 -0.275769
H -1.168969 1.754978 -1.085329
H -1.870229 -0.069839 1.380549
12
Aligned to gpa_Type_2.xyz, RMSD 0.15908
C -0.871325 -1.062610 -0.452587
C 0.528328 -1.121792 -0.047119
C 1.223072 -0.004666 0.194753
C 0.778459 1.239779 0.179565
C -0.690606 1.385298 0.005269
C -1.350430 0.066360 0.361527
H -1.441077 -1.926794 -0.833951
H 1.167347 -2.046080 0.077794
H 2.294757 -0.064140 0.424504
H 1.348137 2.160462 -0.143913
H -0.862480 1.492628 -1.202385
H -2.124181 -0.118445 1.436545
12
Aligned to gpa_Type_3.xyz, RMSD 0.14558
C -0.856268 -0.997463 0.044382
C 0.547711 -0.990677 -0.226484
C 1.372697 0.045614 0.075242
C 0.720210 1.284948 0.243991
C -0.693275 1.305101 0.168772
C -1.552736 0.135924 0.255810
H -1.399418 -1.950149 0.131833
H 1.062905 -1.852995 -0.591344
H 2.518814 -0.078797 0.130578
H 1.299334 2.129344 0.378048
H -0.476121 0.903499 -1.110893
H -2.543852 0.065652 0.500066
12
Aligned to gpa_Type_3.xyz, RMSD 0.14859
C -0.793832 -1.133677 -0.026511
C 0.566499 -1.102068 -0.120300
C 1.476592 0.138567 -0.150586
C 0.765406 1.299940 0.231805
C -0.835090 1.332533 0.090248
C -1.469456 0.114229 0.183696
H -1.453546 -1.980160 -0.096248
H 0.910469 -2.140320 -0.150204
H 2.486137 0.130913 -0.058963
H 1.453016 2.158264 0.568833
H -0.567761 1.156879 -1.073262
H -2.538436 0.024900 0.601494
12
Aligned to gpa_Type_3.xyz, RMSD 0.15432
C -0.867889 -1.056292 -0.183646
C 0.592496 -1.049893 -0.135247
C 1.452492 0.058956 -0.161744
C 0.772642 1.295747 0.122915
C -0.694795 1.488186 0.005740
C -1.517581 0.130104 0.227315
H -1.429515 -2.064833 -0.063964
H 0.995098 -2.061131 -0.107202
H 2.520741 0.040041 0.060503
H 1.314327 2.040204 0.572891
H -0.709717 1.180299 -1.015570
H -2.428300 -0.001387 0.678009
12
Aligned to gpa_Type_2.xyz, RMSD 0.26296
C -0.760425 -0.995454 -0.515636
C 0.569484 -1.222277 0.259237
C 1.271138 -0.037640 0.353923
C 0.678324 1.196138 0.095561
C -0.682211 1.233662 -0.108497
C -1.327415 0.034095 0.408656
H -1.400866 -1.599815 -1.124834
H 0.936257 -2.326887 0.282998
H 2.402515 0.171220 0.255292
H 1.218861 2.080837 -0.251215
H -0.985457 1.610646 -1.041959
H -1.920204 -0.144526 1.386475
12
Aligned to gpa_Type_2.xyz, RMSD 0.25921
C -0.736328 -0.984245 -0.508463
C 0.587824 -1.238831 0.257602
C 1.257807 -0.004246 0.322851
C 0.673960 1.180887 0.103575
C -0.742613 1.220121 -0.047320
C -1.291402 0.056539 0.450363
H -1.263824 -1.654892 -1.124523
H 0.966394 -2.187171 0.292811
H 2.281025 0.051225 0.265254
H 1.300515 1.953015 -0.309982
H -1.090839 1.686178 -1.001649
H -1.942518 -0.078582 1.299481
12
Aligned to gpa_Type_2.xyz, RMSD 0.24531
C -0.879166 -0.998416 -0.265556
C 0.649072 -1.256274 0.000093
C 1.373172 0.056149 0.211708
C 0.666185 1.215819 0.033917
C -0.734944 1.186062 -0.272984
C -1.541885 0.076161 0.439851
H -1.301267 -1.663805 -1.077618
H 1.167162 -2.146399 0.063336
H 2.327851 -0.161735 0.663095
H 1.328395 2.011884 -0.110554
H -1.231245 1.636586 -1.160493
H -1.823330 0.043966 1.475205
12
Aligned to gpa_Type_2.xyz, RMSD 0.17656
C -0.942596 -1.055596 -0.515948
C 0.481130 -1.004542 -0.035276
C 1.291276 0.029957 0.361804
C 0.811374 1.271672 0.001051
C -0.682696 1.111594 -0.277134
C -1.503511 0.027176 0.333559
H -1.414622 -1.983966 -0.904920
H 1.067834 -1.995876 0.098068
H 2.354055 -0.100889 0.672519
H 1.407595 2.042269 -0.155471
H -1.182008 1.703000 -0.961785
H -1.687829 -0.044800 1.383534
12
Aligned to gpa_Type_3.xyz, RMSD 0.18769
C -0.797317 -1.035572 -0.128306
C 0.614085 -1.120137 -0.188382
C 1.351092 0.043850 0.080882
C 0.746306 1.287405 0.218715
C -0.829561 1.520841 -0.093582
C -1.505575 0.141783 0.171070
H -1.325735 -2.075080 -0.205309
H 0.909523 -2.103383 -0.256195
H 2.468676 0.031960 0.170548
H 1.260154 2.073474 0.351097
H -0.573586 1.155737 -1.029908
H -2.318063 0.079124 0.909371
12
Aligned to gpa_Type_3.xyz, RMSD 0.30824
C -0.943682 -1.107936 -0.147679
C 0.499342 -1.044064 -0.135275
C 1.293777 0.104914 0.241830
C 0.697902 1.329770 0.149254
C -0.689561 1.258075 0.073487
C -1.368036 0.086309 0.439953
H -1.318599 -2.027660 -0.433816
H 1.121561 -1.921831 -0.495373
H 2.268017 -0.199498 0.450862
H 1.326726 2.327509 0.028764
H -0.578051 0.969906 -1.090972
H -2.309397 0.224508 0.918968
12
Aligned to gpa_Type_3.xyz, RMSD 0.19411
C -0.891096 -1.111345 -0.175085
C 0.514905 -1.078246 -0.281681
C 1.277356 0.129503 0.021765
C 0.707246 1.311623 0.140469
C -0.716448 1.346529 -0.011222
C -1.367685 0.098568 0.229053
H -1.342213 -2.139349 -0.046244
H 1.037246 -2.005777 -0.412066
H 2.310738 -0.045266 0.383924
H 1.237199 2.136378 0.357085
H -0.486146 1.135303 -1.103823
H -2.281102 0.222079 0.897827
12
Aligned to gpa_Type_3.xyz, RMSD 0.21156
C -0.850375 -1.187095 -0.139454
C 0.500208 -1.045332 -0.264059
C 1.323542 0.044444 -0.015450
C 0.752514 1.311507 0.129761
C -0.665450 1.300137 -0.003709
C -1.436594 0.026249 0.306168
H -1.366020 -2.090044 -0.171224
H 0.902733 -2.043971 -0.360749
H 2.306019 0.002726 0.342116
H 1.205113 2.358034 0.392905
H -0.413201 1.099955 -1.123147
H -2.258489 0.223391 0.906844
12
Aligned to gpa_Type_2.xyz, RMSD 0.29284
C -0.939662 -1.072746 -0.219025
C 0.579066 -1.025198 0.090582
C 1.438387 0.075406 0.321867
C 0.808352 1.282203 0.071206
C -0.632263 1.199140 -0.119828
C -1.533767 0.072679 0.390394
H -1.317882 -1.731487 -0.950253
H 0.960537 -2.342732 0.047586
H 2.476828 0.097729 0.043227
H 1.290626 2.170252 0.210659
H -0.902759 1.251218 -1.192771
H -2.227462 0.023534 1.306354
12
Aligned to gpa_Type_2.xyz, RMSD 0.25415
C -0.930305 -1.101324 -0.198847
C 0.556997 -1.091660 0.072322
C 1.442568 0.063968 0.349603
C 0.726262 1.258822 0.123440
C -0.657731 1.177724 -0.108961
C -1.566488 -0.062567 0.367579
H -1.294919 -1.621093 -1.039128
H 0.825787 -2.055279 0.077858
H 2.467997 -0.046583 0.191732
H 1.355246 2.258246 0.050192
H -0.965518 1.219105 -1.186389
H -1.959895 0.000641 1.300601
12
Aligned to gpa_Type_2.xyz, RMSD 0.17639
C -0.831560 -1.184707 -0.598459
C 0.576889 -1.198517 -0.114174
C 1.353169 0.011265 0.353083
C 0.739894 1.285359 0.072357
C -0.716139 1.290598 -0.165421
C -1.254513 0.038881 0.440329
H -1.441749 -2.047110 -0.872383
H 0.810334 -2.127806 0.113007
H 2.331933 0.112389 0.643694
H 1.441472 2.092800 -0.174878
H -1.220655 1.702030 -0.965812
H -1.789074 0.024818 1.268658
12
Aligned to gpa_Type_2.xyz, RMSD 0.20072
C -0.899557 -1.134993 -0.572705
C 0.516897 -1.156394 -0.122505
C 1.283922 0.021506 0.273621
C 0.651018 1.292335 0.085627
C -0.704684 1.125398 -0.261633
C -1.279329 0.015112 0.455450
H -1.330425 -2.008846 -1.017393
H 0.956977 -2.184620 0.306477
H 2.432845 -0.025686 0.480214
H 1.337587 2.124280 -0.078639
H -1.080838 1.852504 -1.069962
H -1.884411 0.079401 1.521449
12
Aligned to gpa_Type_2.xyz, RMSD 0.21125
C -0.849554 -1.044793 -0.363079
C 0.499551 -1.130960 0.034071
C 1.220814 0.033695 0.255534
C 0.697473 1.226415 0.085119
C -0.536941 0.997626 -0.404903
C -1.373539 0.011560 0.308074
H -1.329806 -1.808417 -0.902741
H 1.125757 -2.092366 0.151502
H 2.286819 -0.322935 0.448968
H 1.146227 2.302387 -0.030828
H -1.083065 1.775781 -1.005494
H -1.803735 0.052006 1.423778
12
Aligned to gpa_Type_3.xyz, RMSD 0.16736
C -0.870385 -1.049103 -0.117422
C 0.664637 -1.114113 -0.255330
C 1.406281 0.095088 -0.044690
C 0.731006 1.261809 0.274814
C -0.727459 1.440819 0.052072
C -1.446091 0.100930 0.223821
H -1.429489 -1.931399 -0.140859
H 0.956718 -2.207808 -0.151985
H 2.441073 0.055921 0.044562
H 1.127392 2.144363 0.489114
H -0.517663 1.121563 -1.200797
H -2.336023 0.081932 0.826702
12
Aligned to gpa_Type_2.xyz, RMSD 0.28122
C -0.909557 -1.118372 -0.152531
C 0.483430 -1.147717 0.048968
C 1.246381 0.003522 0.291134
C 0.676188 1.217598 0.100096
C -0.793989 1.351662 0.018831
C -1.447257 0.147000 0.397142
H -1.161286 -1.905174 -0.811346
H 0.930356 -2.072602 -0.271915
H 2.409497 0.073425 0.328431
H 1.278248 2.159300 -0.189601
H -0.489455 1.313187 -0.997869
H -2.222555 -0.021829 1.238661
12
Aligned to gpa_Type_3.xyz, RMSD 0.33149
C -0.759371 -1.003766 0.121603
C 0.729595 -1.085959 0.012373
C 1.366545 0.003068 0.219406
C 0.691427 1.145709 0.226528
C -0.737799 1.092029 -0.462527
C -1.534168 0.221699 0.382641
H -1.380653 -1.701485 -0.316018
H 0.995449 -2.053024 -0.503143
H 2.412616 0.226036 -0.105374
H 1.212432 2.053740 0.799491
H -0.514244 0.857976 -1.416658
H -2.481829 0.243977 1.041679
12
Aligned to gpa_Type_1.xyz, RMSD 0.14957
C -0.725125 -0.968968 0.046464
C 0.739233 -1.097059 -0.040394
C 1.562616 -0.065317 0.128114
C 0.785045 1.223882 -0.091914
C -0.726356 1.021581 -0.139108
C -1.373002 0.134653 0.791851
H -1.417582 -1.711624 -0.782843
H 0.996241 -2.207437 -0.149700
H 2.557474 0.078243 0.423881
H 1.331940 2.019125 0.042245
H -1.127626 1.530082 -0.940960
H -2.602860 0.042838 0.712364
12
Aligned to gpa_Type_1.xyz, RMSD 0.12658
C -0.693802 -0.954472 -0.193256
C 0.763387 -1.161904 0.128338
C 1.448025 0.062752 0.084832
C 0.770759 1.163483 -0.015267
C -0.683267 0.995328 -0.174740
C -1.437519 0.009591 0.656463
H -1.305027 -1.697066 -0.855142
H 0.917914 -2.318762 0.155435
H 2.556651 0.004847 0.186837
H 1.240976 2.104004 0.056033
H -1.167801 1.696271 -0.805823
H -2.410297 0.095929 0.776288
12
Aligned to gpa_Type_2.xyz, RMSD 0.26926
C -0.856893 -1.043899 -0.290958
C 0.610036 -1.177936 -0.041301
C 1.290991 -0.043285 0.200618
C 0.805792 1.310626 0.053393
C -0.780554 1.316040 -0.036838
C -1.365713 0.089468 0.477050
H -1.473076 -1.537110 -0.967296
H 1.004212 -2.186421 0.119282
H 2.346755 -0.033042 0.564032
H 1.600464 2.389709 -0.148972
H -1.186088 1.171508 -1.118597
H -1.995924 -0.255659 1.189589
12
Aligned to gpa_Type_3.xyz, RMSD 0.27457
C -0.903250 -1.103334 -0.259701
C 0.487190 -1.062904 -0.295340
C 1.294671 0.049059 -0.010568
C 0.596408 1.439373 0.225085
C -0.761269 1.434046 -0.098893
C -1.435390 0.013501 0.184377
H -1.456947 -2.034646 -0.101759
H 1.109049 -1.854251 -0.244987
H 2.299481 -0.155813 0.379693
H 1.346513 2.080423 0.353162
H -0.427840 1.186076 -1.232429
H -2.148618 0.008471 1.101361
12
Aligned to gpa_Type_3.xyz, RMSD 0.19384
C -0.777813 -1.082574 -0.029674
C 0.506070 -1.224096 -0.011093
C 1.449828 0.036520 0.172400
C 0.858325 1.290116 0.191360
C -0.788324 1.398966 0.056618
C -1.526744 0.213574 0.321604
H -1.346900 -1.962600 -0.348904
H 1.002192 -2.012689 -0.374989
H 2.486004 0.091172 0.051324
H 1.320227 2.163278 0.252516
H -0.648638 0.977566 -0.953808
H -2.534228 0.110768 0.672647
12
Aligned to gpa_Type_3.xyz, RMSD 0.21166
C -0.841661 -1.048267 0.052937
C 0.536399 -1.158543 -0.159153
C 1.401571 0.038992 -0.046517
C 0.683027 1.247354 0.360897
C -0.903300 1.414696 -0.188410
C -1.482163 0.113477 0.194639
H -1.449522 -1.901122 -0.041474
H 1.088035 -2.035425 -0.600314
H 2.455975 0.042095 0.330523
H 1.389772 2.178513 0.302959
H -0.358593 1.122047 -1.090684
H -2.519541 -0.013816 0.884598
12
Aligned to gpa_Type_3.xyz, RMSD 0.19435
C -0.888069 -1.078476 -0.210919
C 0.584919 -1.004694 -0.375401
C 1.362999 0.094771 -0.175631
C 0.690634 1.402749 0.241935
C -0.712177 1.332273 0.157164
C -1.451837 -0.021170 0.252844
H -1.444157 -1.929446 -0.062008
H 1.002760 -1.968909 -0.075614
H 2.336432 -0.186339 0.211183
H 1.308804 2.232369 0.384188
H -0.503916 1.123522 -1.080327
H -2.286392 0.003351 0.732586
12
Aligned to gpa_Type_3.xyz, RMSD 0.27821
C -0.890188 -1.141532 -0.049581
C 0.521930 -1.116605 -0.024859
C 1.338137 0.095281 0.062310
C 0.727754 1.467511 0.373156
C -0.747225 1.381044 0.096326
C -1.516234 0.123799 0.312639
H -1.422976 -2.056379 -0.381685
H 1.037019 -1.985264 -0.405826
H 2.328068 -0.174661 0.210510
H 1.276224 2.291596 -0.046811
H -0.264799 1.139815 -0.969006
H -2.387711 -0.024604 0.822827
12
Aligned to gpa_Type_2.xyz, RMSD 0.48255
C -0.839779 -1.004372 -0.256791
C 0.569316 -1.284128 0.035696
C 1.224178 -0.073891 0.352298
C 0.622043 1.201748 0.017839
C -0.780541 1.068467 -0.524883
C -1.362997 0.165587 0.417058
H -1.669725 -1.384443 -1.138694
H 1.140559 -2.247595 0.047095
H 2.231536 -0.077213 0.672578
H 0.921365 2.161049 0.385374
H -1.226830 1.291897 -1.438882
H -0.829124 0.182891 1.431313
12
Aligned to gpa_Type_2.xyz, RMSD 0.40299
C -0.949371 -1.057108 -0.306522
C 0.559222 -1.219012 0.059086
C 1.106701 -0.029723 0.262846
C 0.512910 1.179141 0.167353
C -0.721389 1.039697 -0.457979
C -1.391636 0.183178 0.539802
H -1.380021 -1.410699 -1.223903
H 1.160781 -2.192505 0.175759
H 2.128976 0.089992 0.365519
H 1.180177 1.973392 0.272980
H -0.978311 1.338460 -1.426390
H -1.228037 0.105188 1.571451
12
Aligned to gpa_Type_2.xyz, RMSD 0.29970
C -0.791205 -1.118508 -0.113448
C 0.595890 -1.160924 0.082796
C 1.440079 -0.102955 0.271934
C 0.769167 1.254966 0.118688
C -0.737945 1.067712 -0.247812
C -1.516394 0.007405 0.396143
H -1.241506 -1.486458 -1.121413
H 0.959560 -2.087284 -0.046598
H 2.515909 -0.298883 0.571558
H 1.097623 2.299273 -0.163071
H -1.171195 1.495457 -1.180333
H -1.919984 0.130198 1.431556
12
Aligned to gpa_Type_2.xyz, RMSD 0.28949
C -0.852533 -1.187166 -0.536725
C 0.503405 -1.156049 0.044636
C 1.311950 0.079779 0.379145
C 0.722046 1.282042 0.074153
C -0.515987 1.001281 -0.204592
C -1.398727 -0.033943 0.320167
H -1.439598 -1.802401 -1.209475
H 0.939219 -2.164619 0.382318
H 2.340512 0.106883 0.447531
H 1.208877 2.044268 -0.381775
H -1.048695 1.773020 -0.689673
H -1.770469 0.056903 1.374291
12
Aligned to gpa_Type_1.xyz, RMSD 0.19785
C -0.763511 -1.105822 -0.074513
C 0.747622 -1.325461 0.081103
C 1.410266 -0.059200 0.232610
C 0.805843 1.179535 0.019449
C -0.643714 1.026249 -0.300739
C -1.557870 0.020786 0.579660
H -1.264837 -1.445813 -0.968131
H 1.204906 -2.239085 0.016308
H 2.464387 0.003246 0.273113
H 1.222322 2.122248 0.025201
H -1.159901 1.663572 -1.064595
H -2.465514 0.159744 1.180532
12
Aligned to gpa_Type_2.xyz, RMSD 0.23632
C -0.860608 -1.032576 -0.268327
C 0.505305 -1.132914 -0.157997
C 1.300250 0.078337 0.215994
C 0.735588 1.318384 0.179061
C -0.742101 1.430783 0.045849
C -1.393777 0.121131 0.311681
H -1.388805 -1.943791 -0.575777
H 1.062114 -2.094568 -0.079858
H 2.426901 -0.113549 0.255374
H 1.218955 2.180956 0.083462
H -0.687145 1.196107 -1.103814
H -2.176678 -0.008300 1.094354
12
Aligned to gpa_Type_3.xyz, RMSD 0.20544
C -0.852637 -1.171245 0.027674
C 0.613809 -1.143972 -0.266085
C 1.301170 0.109649 -0.009384
C 0.744127 1.327477 0.179529
C -0.746579 1.275826 0.163107
C -1.520391 0.039282 0.345886
H -1.339802 -2.074963 -0.129096
H 1.024882 -2.049736 -0.506068
H 2.248001 0.018714 0.341718
H 1.432785 2.330966 0.340162
H -0.374289 1.085916 -1.271300
H -2.531077 0.252087 0.783859
12
Aligned to gpa_Type_3.xyz, RMSD 0.18207
C -0.879650 -1.146191 -0.032676
C 0.591284 -1.171178 -0.267253
C 1.328758 0.140023 0.000846
C 0.776733 1.338760 0.155142
C -0.741491 1.337818 0.145297
C -1.539332 0.041326 0.213154
H -1.433605 -2.012042 -0.021692
H 1.108579 -2.041915 -0.509660
H 2.333472 0.082092 0.329594
H 1.430323 2.207746 0.468483
H -0.501909 0.995558 -1.314836
H -2.473162 0.228005 0.833602
12
Aligned to gpa_Type_2.xyz, RMSD 0.44077
C -0.921781 -1.058592 -0.473151
C 0.571508 -1.254515 -0.059047
C 1.348562 0.049846 0.357253
C 0.667198 1.247781 -0.100400
C -0.688921 1.048599 -0.301611
C -1.316099 0.056408 0.419457
H -1.535136 -1.423665 -1.336918
H 0.659706 -2.244566 0.449772
H 2.339109 0.134684 0.923051
H 1.131673 2.136243 -0.364772
H -1.211540 1.585697 -0.893703
H -1.044279 -0.277922 1.380071
12
Aligned to gpa_Type_3.xyz, RMSD 0.20606
C -0.798865 -1.017490 -0.176878
C 0.559982 -1.006023 0.017000
C 1.387282 0.070726 0.212967
C 0.807175 1.236145 0.240320
C -0.747570 1.347410 0.087005
C -1.521668 0.078951 0.204622
H -1.244015 -1.970073 -0.221073
H 0.836383 -1.941263 -0.244312
H 2.349737 0.022368 -0.080516
H 1.494316 2.169103 0.465121
H -0.634923 0.999539 -1.319516
H -2.487836 0.010607 0.815262
12
Aligned to gpa_Type_2.xyz, RMSD 0.26699
C -0.768286 -0.999075 -0.246395
C 0.626930 -1.221064 0.059748
C 1.396885 -0.096299 0.286679
C 0.781644 1.171422 0.181900
C -0.682579 1.129263 -0.235342
C -1.440596 -0.016863 0.571069
H -1.396599 -1.764592 -0.843125
H 1.093569 -2.235786 -0.139551
H 2.478522 0.055502 0.298613
H 1.113788 2.137789 0.104877
H -1.032358 1.565388 -1.269417
H -2.170919 0.274315 1.230946
12
Aligned to gpa_Type_1.xyz, RMSD 0.19294
C -0.807457 -0.893479 -0.303421
C 0.648318 -1.108880 -0.102959
C 1.451752 0.022040 0.102097
C 0.836004 1.210507 -0.092111
C -0.642271 0.993603 -0.211669
C -1.353257 0.026466 0.554984
H -1.415252 -1.752777 -0.541875
H 0.986304 -2.143003 0.028384
H 2.547489 -0.099076 0.386452
H 1.335573 2.252896 0.256915
H -1.185830 1.443915 -0.972046
H -2.401375 0.047790 0.895245
12
Aligned to gpa_Type_2.xyz, RMSD 0.26999
C -0.862908 -1.087124 -0.453242
C 0.605333 -1.164447 -0.114943
C 1.339479 0.048461 0.165967
C 0.734176 1.285846 0.207782
C -0.719276 1.455256 0.043993
C -1.416131 0.134194 0.314641
H -1.429190 -1.950729 -0.709314
H 1.134289 -2.191386 0.212052
H 2.425727 -0.072525 0.065488
H 1.346086 2.212365 0.207563
H -0.942932 1.182709 -1.027728
H -2.214652 0.147378 1.087741
12
Aligned to gpa_Type_3.xyz, RMSD 0.18139
C -0.840237 -1.049634 -0.197306
C 0.536655 -1.103792 -0.305534
C 1.314658 0.103750 -0.062241
C 0.722543 1.303810 0.232844
C -0.753960 1.444940 0.061958
C -1.434856 0.205452 0.184712
H -1.373811 -2.014495 0.005652
H 1.058402 -2.215372 -0.239310
H 2.417203 -0.004580 0.268225
H 1.365181 2.149325 0.476334
H -0.681747 1.204794 -1.251538
H -2.330031 -0.024196 0.826207
12
Aligned to gpa_Type_3.xyz, RMSD 0.14133
C -0.813440 -1.062624 -0.153595
C 0.604496 -1.100342 -0.326605
C 1.359235 0.161501 -0.067768
C 0.772345 1.254666 0.242626
C -0.791859 1.393445 0.054542
C -1.464170 0.130301 0.271699
H -1.301536 -1.973798 -0.023048
H 0.898998 -2.003148 -0.191125
H 2.307852 -0.064283 0.162823
H 1.326066 2.136650 0.472025
H -0.507397 1.120927 -1.196593
H -2.390591 0.006706 0.755021
12
Aligned to gpa_Type_3.xyz, RMSD 0.12096
C -0.861844 -1.163393 -0.016291
C 0.573178 -0.993340 -0.124185
C 1.392537 0.159937 0.054715
C 0.791679 1.329768 0.217564
C -0.722082 1.420491 -0.091025
C -1.385731 0.131356 0.213578
H -1.411004 -2.104072 -0.063191
H 0.903433 -1.934168 -0.400058
H 2.400278 -0.086221 0.060275
H 1.287859 2.158899 0.562678
H -0.545145 1.009657 -1.167075
H -2.423158 0.071087 0.753015
12
Aligned to gpa_Type_3.xyz, RMSD 0.16589
C -0.795229 -1.205363 0.091422
C 0.536141 -1.009650 -0.029201
C 1.362062 0.143591 0.127819
C 0.768329 1.368975 0.330461
C -0.736976 1.383121 0.072667
C -1.465627 0.182505 0.267952
H -1.395570 -2.159217 -0.082235
H 0.978410 -1.956880 -0.579319
H 2.416670 -0.072438 -0.019899
H 1.413777 2.257438 0.482826
H -0.501241 0.900750 -1.280400
H -2.580745 0.167169 0.617909
12
Aligned to gpa_Type_1.xyz, RMSD 0.21533
C -0.806046 -1.017740 -0.103587
C 0.630057 -1.241836 0.068791
C 1.370358 -0.044170 0.283948
C 0.737782 1.154571 -0.016077
C -0.657179 1.014366 -0.214811
C -1.443356 0.065267 0.540858
H -1.113144 -1.500972 -0.989907
H 1.097434 -2.155241 -0.018799
H 2.434127 -0.122917 0.276014
H 1.124897 2.216285 -0.002686
H -1.002250 1.489676 -1.051085
H -2.372680 0.142710 1.227342
12
Aligned to gpa_Type_3.xyz, RMSD 0.10700
C -0.840955 -1.070687 -0.025958
C 0.531731 -1.104789 -0.157312
C 1.369305 0.112122 0.003974
C 0.707506 1.280585 0.311459
C -0.766557 1.311451 0.078113
C -1.473403 0.140458 0.202752
H -1.348251 -2.100959 -0.016918
H 1.073206 -2.133032 -0.328429
H 2.449706 0.016171 -0.138854
H 1.270745 2.224377 0.489030
H -0.481132 1.038065 -0.929381
H -2.491902 0.286240 0.511525
12
Aligned to gpa_Type_3.xyz, RMSD 0.10269
C -0.914998 -1.099144 -0.011055
C 0.594991 -1.072077 -0.164582
C 1.378250 0.035406 -0.036177
C 0.781058 1.273889 0.276645
C -0.671450 1.338248 0.132557
C -1.445371 0.115097 0.229130
H -1.409172 -1.967293 -0.150036
H 1.053681 -1.948096 -0.274029
H 2.459629 0.018183 0.008323
H 1.240532 2.174962 0.446154
H -0.629251 0.936755 -1.067893
H -2.437901 0.194071 0.610964
12
Aligned to gpa_Type_3.xyz, RMSD 0.11093
C -0.918485 -1.086852 -0.169725
C 0.572239 -1.089949 -0.174476
C 1.362604 0.009939 0.013293
C 0.710171 1.247737 0.246744
C -0.721259 1.392721 0.018099
C -1.395307 0.145933 0.209474
H -1.447171 -1.974565 -0.070099
H 1.121370 -1.913041 -0.191097
H 2.424220 0.009547 -0.012758
H 1.345952 2.130360 0.498563
H -0.655166 1.041428 -1.055652
H -2.399170 0.086744 0.687635
12
Aligned to gpa_Type_3.xyz, RMSD 0.11842
C -0.880478 -1.089062 -0.106003
C 0.528703 -1.021152 -0.202263
C 1.353807 0.133624 -0.067438
C 0.730528 1.294654 0.176289
C -0.694217 1.423723 0.038995
C -1.463177 0.125616 0.298391
H -1.509520 -2.048636 -0.093311
H 1.172715 -1.997965 -0.246665
H 2.421992 -0.092505 0.137056
H 1.286890 2.114613 0.445305
H -0.552315 1.113907 -1.098444
H -2.394928 0.043183 0.718089
12
Aligned to gpa_Type_3.xyz, RMSD 0.28861
C -0.861208 -1.101323 -0.123104
C 0.517711 -1.036622 -0.067452
C 1.366485 0.133335 0.122591
C 0.758385 1.323347 0.104055
C -0.689647 1.369789 0.076948
C -1.518182 0.132001 0.352659
H -1.343392 -1.985307 -0.558643
H 1.113390 -2.020659 -0.252553
H 2.436522 -0.216538 0.312726
H 1.267052 2.221791 0.043384
H -0.610327 1.103393 -0.965048
H -2.436790 0.076793 0.954438
12
Aligned to gpa_Type_3.xyz, RMSD 0.19528
C -0.867636 -1.047167 -0.160766
C 0.613224 -1.079166 -0.177153
C 1.366977 -0.015167 0.071780
C 0.810796 1.304621 0.242198
C -0.746410 1.422022 0.015726
C -1.422570 0.140951 0.234854
H -1.415225 -2.076714 -0.272331
H 0.961823 -2.136170 -0.298923
H 2.396911 0.021750 0.226614
H 1.258576 2.315874 0.256846
H -0.643265 1.039770 -0.967472
H -2.313202 0.109398 0.828627
12
Aligned to gpa_Type_2.xyz, RMSD 0.12687
C -0.865414 -1.055425 -0.428232
C 0.562168 -1.139134 -0.087270
C 1.260279 0.027033 0.281418
C 0.786834 1.253419 0.106260
C -0.685167 1.147501 -0.033665
C -1.419490 0.024982 0.396204
H -1.442271 -1.949184 -0.794521
H 0.979538 -2.146217 -0.063297
H 2.268658 0.036499 0.608117
H 1.278309 2.228737 -0.214940
H -0.827014 1.607373 -1.123619
H -1.896430 -0.035586 1.353547
12
Aligned to gpa_Type_3.xyz, RMSD 0.13492
C -0.799129 -1.117885 -0.103993
C 0.528842 -1.076334 -0.254402
C 1.388664 0.129430 0.075576
C 0.720201 1.283421 0.185057
C -0.866552 1.450923 -0.056770
C -1.450463 0.110264 0.234888
H -1.342126 -2.059686 0.101200
H 0.928886 -2.119325 -0.436372
H 2.426273 -0.023469 0.175721
H 1.315938 2.149958 0.497932
H -0.478988 1.200810 -1.143554
H -2.371546 0.071895 0.724718
12
Aligned to gpa_Type_3.xyz, RMSD 0.10714
C -0.775943 -1.110679 -0.086140
C 0.512699 -1.106759 -0.237605
C 1.368695 0.144386 0.023847
C 0.732404 1.307507 0.168883
C -0.833671 1.431109 -0.076526
C -1.468580 0.116512 0.273018
H -1.352496 -1.974939 0.014481
H 1.021011 -1.959571 -0.403099
H 2.422529 0.004582 0.189890
H 1.431658 2.029849 0.501430
H -0.589856 1.013759 -1.063397
H -2.468450 0.104243 0.695217
12
Aligned to gpa_Type_3.xyz, RMSD 0.12410
C -0.799300 -1.039985 -0.090169
C 0.558804 -1.115421 -0.195487
C 1.335934 0.151215 0.014624
C 0.683875 1.302328 0.242111
C -0.824725 1.449675 -0.028832
C -1.478905 0.132442 0.205567
H -1.305237 -1.974013 0.010417
H 0.957122 -2.172048 -0.327915
H 2.435101 -0.054795 0.036612
H 1.246677 2.122249 0.491320
H -0.391592 1.174435 -1.106927
H -2.417756 0.023919 0.748679
12
Aligned to gpa_Type_2.xyz, RMSD 0.16244
C -0.843760 -1.042696 -0.531238
C 0.444272 -1.001100 -0.161921
C 1.319107 0.027375 0.385131
C 0.898035 1.268596 0.036107
C -0.610720 1.217198 -0.001195
C -1.368532 0.036342 0.344808
H -1.355006 -1.895343 -0.730147
H 0.848249 -1.924917 0.037899
H 2.354999 -0.016877 0.559743
H 1.420848 2.120161 -0.191399
H -1.104137 1.354368 -0.993748
H -2.003354 -0.143107 1.245961
12
Aligned to gpa_Type_2.xyz, RMSD 0.15925
C -0.803670 -1.034470 -0.476851
C 0.445270 -1.001395 -0.117103
C 1.318148 0.049164 0.385403
C 0.870171 1.256114 0.029464
C -0.648587 1.191117 0.046401
C -1.370095 0.017000 0.384763
H -1.366743 -1.904709 -0.782485
H 0.795784 -2.001158 0.076823
H 2.422365 -0.050045 0.501945
H 1.376020 2.215763 -0.222030
H -1.048398 1.398529 -0.977733
H -1.990264 -0.135911 1.151404
12
Aligned to gpa_Type_2.xyz, RMSD 0.22423
C -0.935931 -1.084165 -0.310635
C 0.616145 -1.128714 0.040684
C 1.364317 -0.018190 0.091661
C 0.805389 1.264898 0.154397
C -0.680170 1.184274 -0.238266
C -1.590004 0.050331 0.311223
H -1.416112 -1.851400 -0.917506
H 1.097681 -2.041869 0.243533
H 2.404505 -0.167567 0.188881
H 1.236068 2.276955 0.238114
H -0.925198 1.514171 -1.218701
H -1.976688 0.001274 1.416616
12
Aligned to gpa_Type_2.xyz, RMSD 0.34737
C -0.897825 -1.212143 -0.414458
C 0.528885 -1.240606 -0.151460
C 1.390599 -0.057361 0.064927
C 0.759987 1.131138 -0.116993
C -0.673262 1.114909 -0.293779
C -1.266047 0.032457 0.306295
H -1.476127 -1.745448 -1.120204
H 0.809636 -2.098417 0.611097
H 2.320811 0.015907 0.674005
H 0.993178 2.186283 0.031972
H -1.173779 1.901775 -0.886303
H -1.316054 -0.028494 1.294902
12
Aligned to gpa_Type_2.xyz, RMSD 0.26207
C -0.716441 -1.027865 -0.399382
C 0.662512 -1.243716 0.079658
C 1.246259 -0.053355 0.258333
C 0.650089 1.172458 -0.095286
C -0.789680 1.075596 -0.432170
C -1.294105 0.024092 0.388689
H -1.524539 -1.773304 -0.782394
H 1.092661 -2.361627 0.024168
H 2.141582 -0.003101 0.614898
H 1.325513 2.234130 0.139582
H -1.203506 1.918293 -1.134695
H -1.590344 0.038399 1.338600
12
Aligned to gpa_Type_2.xyz, RMSD 0.25696
C -0.765531 -1.042455 -0.562835
C 0.565022 -1.232273 0.046522
C 1.132482 -0.000858 0.382512
C 0.604976 1.253407 0.010166
C -0.721632 1.146790 -0.319919
C -1.117971 -0.030459 0.277959
H -1.488729 -1.860835 -0.637237
H 0.979348 -2.290691 -0.070234
H 2.141292 0.048719 0.789187
H 1.370099 2.102072 -0.178269
H -1.211957 1.956975 -0.983912
H -1.487400 -0.050393 1.246061
12
Aligned to gpa_Type_2.xyz, RMSD 0.20332
C -0.847363 -1.041134 -0.599945
C 0.515648 -1.206969 0.000531
C 1.276938 0.024536 0.252751
C 0.765628 1.247012 -0.017884
C -0.657901 1.159257 -0.219584
C -1.413590 -0.010174 0.373331
H -1.448353 -1.860983 -0.839346
H 1.047862 -2.043411 0.312616
H 2.483787 0.137868 0.337324
H 1.462130 1.960054 0.035453
H -1.144868 1.682931 -0.924845
H -2.039916 -0.048989 1.289599
12
Aligned to gpa_Type_2.xyz, RMSD 0.24006
C -0.865279 -1.053707 -0.518474
C 0.447867 -1.160987 0.025883
C 1.321028 0.020853 0.284217
C 0.770318 1.244126 -0.007120
C -0.581612 1.196973 -0.141904
C -1.465751 0.024448 0.433125
H -1.384914 -1.946939 -1.084763
H 1.142603 -2.045330 0.378922
H 2.284699 -0.048688 0.323276
H 1.629670 2.208143 -0.067515
H -1.289844 1.592331 -0.945355
H -2.008785 -0.031224 1.319709
12
Aligned to gpa_Type_1.xyz, RMSD 0.19722
C -0.724104 -0.917777 -0.040314
C 0.625491 -1.193949 0.267977
C 1.522387 -0.082560 0.195089
C 0.783611 1.025913 0.086578
C -0.642388 1.014713 -0.028064
C -1.490112 0.104619 0.703151
H -1.178608 -1.375947 -1.002128
H 1.198823 -2.222105 0.155733
H 2.481071 -0.092934 -0.017588
H 1.329614 2.150648 -0.144425
H -1.360262 1.557819 -0.767321
H -2.545524 0.031558 0.591311
12
Aligned to gpa_Type_2.xyz, RMSD 0.19965
C -0.948050 -1.100689 -0.649016
C 0.535048 -1.084098 -0.153015
C 1.139263 0.006604 0.357623
C 0.684486 1.353479 0.084901
C -0.695913 1.279343 -0.194699
C -1.320214 -0.053070 0.287351
H -1.550648 -1.928608 -0.711300
H 0.834232 -1.958018 0.094601
H 2.292386 0.042446 0.718921
H 1.339393 2.058404 -0.083729
H -0.938233 1.595053 -1.168116
H -1.371750 -0.210848 1.416478
12
Aligned to gpa_Type_2.xyz, RMSD 0.40066
C -0.957542 -1.190613 -0.297772
C 0.539750 -1.160179 0.027892
C 1.248142 -0.010660 0.344433
C 0.692466 1.198224 -0.041880
C -0.820069 1.125449 -0.196745
C -1.523214 0.060156 0.543152
H -1.228056 -1.381670 -1.393423
H 0.915551 -2.261833 0.272510
H 2.146148 -0.129110 0.760797
H 1.265447 2.294390 -0.290940
H -1.126962 1.591736 -1.229438
H -1.151659 -0.135891 1.501415
12
Aligned to gpa_Type_2.xyz, RMSD 0.22489
C -0.984662 -1.020282 -0.552891
C 0.455219 -1.043383 -0.150593
C 1.263102 0.087707 0.361949
C 0.765347 1.347332 0.049837
C -0.660829 1.337789 -0.035408
C -1.354389 0.092169 0.298684
H -1.342571 -2.109259 -0.679664
H 0.908033 -2.244309 -0.023340
H 2.131795 -0.200922 0.860605
H 1.248022 2.291263 -0.337290
H -0.982416 1.684021 -1.040403
H -1.446649 -0.222127 1.248515
12
Aligned to gpa_Type_1.xyz, RMSD 0.33312
C -0.767390 -0.929151 0.005257
C 0.673522 -1.154192 0.358689
C 1.431521 0.010338 0.567253
C 0.671579 1.066536 0.206990
C -0.693194 1.020155 -0.109487
C -1.497675 0.053569 0.594186
H -1.050212 -1.495933 -0.836343
H 0.954465 -1.822912 -0.560261
H 2.506635 -0.072018 0.187157
H 1.226285 1.811819 -0.265473
H -1.016432 1.391511 -1.160007
H -2.439105 0.120278 1.012039
12
Aligned to gpa_Type_1.xyz, RMSD 0.27944
C -0.759735 -1.002408 -0.043504
C 0.732423 -1.093820 -0.142127
C 1.488324 0.017161 -0.040855
C 0.757500 1.197139 -0.170407
C -0.721787 1.210812 -0.206118
C -1.275998 0.157525 0.670054
H -1.415839 -1.654242 -0.737225
H 1.165051 -2.105860 0.302586
H 2.484187 -0.159728 0.153191
H 1.155426 1.811537 0.560633
H -1.324522 1.512518 -1.029733
H -2.285031 0.109365 0.683505
12
Aligned to gpa_Type_2.xyz, RMSD 0.22792
C -0.722726 -1.054641 -0.517083
C 0.552813 -1.230819 0.013598
C 1.243241 0.018148 0.335305
C 0.573915 1.223778 0.020127
C -0.758979 1.203854 -0.371386
C -1.092433 0.013862 0.268654
H -1.450511 -1.840593 -0.635743
H 0.935114 -2.239676 -0.044180
H 2.222433 -0.091700 0.771027
H 1.243743 2.129757 -0.147398
H -1.176644 1.922074 -0.967162
H -1.569965 -0.054046 1.274244
12
Aligned to gpa_Type_2.xyz, RMSD 0.24875
C -0.792661 -1.009864 -0.320178
C 0.705629 -1.107764 -0.223767
C 1.345981 0.035149 0.088720
C 0.750734 1.222941 -0.075114
C -0.724287 1.134246 -0.382288
C -1.304774 0.103558 0.479038
H -1.399642 -1.874227 -0.775598
H 1.061296 -2.185393 -0.078207
H 2.064547 -0.136811 0.859180
H 1.326770 2.106920 0.119065
H -1.215154 1.621559 -1.140265
H -1.818438 0.089685 1.449414
12
Aligned to gpa_Type_2.xyz, RMSD 0.29972
C -0.810029 -0.950289 -0.343472
C 0.527469 -1.120386 0.028958
C 1.297313 0.026961 0.475675
C 0.680941 1.166902 -0.056219
C -0.706222 1.128124 -0.076660
C -1.391670 0.058767 0.496703
H -1.236042 -1.574547 -1.044445
H 1.051182 -1.971426 -0.224956
H 2.281631 -0.199481 0.867213
H 1.159742 1.972998 -0.507028
H -1.045476 1.456611 -1.047982
H -1.808839 0.005764 1.432214
12
Aligned to gpa_Type_2.xyz, RMSD 0.27013
C -0.826109 -1.005997 -0.395724
C 0.553805 -1.014415 0.015337
C 1.269097 0.019744 0.513894
C 0.738316 1.316848 0.070580
C -0.762448 1.275033 -0.209131
C -1.439603 0.039733 0.447281
H -1.332509 -1.676698 -0.968820
H 1.030211 -2.073218 -0.253552
H 2.184618 -0.131665 0.860642
H 1.387220 1.954906 -0.429321
H -1.139706 1.402335 -1.117516
H -1.662889 -0.106607 1.466329
12
Aligned to gpa_Type_2.xyz, RMSD 0.23056
C -0.852233 -0.934622 -0.304102
C 0.576347 -1.098219 -0.043859
C 1.300025 -0.065015 0.337914
C 0.668886 1.205492 0.295774
C -0.773778 1.190262 -0.128024
C -1.395791 0.141429 0.471279
H -1.259745 -1.816745 -0.802970
H 1.047970 -2.070284 -0.228140
H 2.448383 -0.014649 0.401675
H 1.191759 2.012807 -0.138351
H -0.833269 1.287218 -1.157335
H -2.118554 0.162325 1.296140
12
Aligned to gpa_Type_2.xyz, RMSD 0.26365
C -0.819265 -1.077240 -0.278601
C 0.602956 -1.128294 -0.089027
C 1.362055 -0.053106 0.207011
C 0.647574 1.308993 0.266882
C -0.756131 1.184689 -0.240537
C -1.362795 0.011109 0.551807
H -1.496729 -1.734283 -0.954455
H 1.199984 -2.081914 -0.182986
H 2.422596 -0.111281 0.584333
H 1.309352 2.119464 0.018698
H -1.083250 1.257880 -1.287861
H -2.026346 0.303981 1.404739
12
Aligned to gpa_Type_2.xyz, RMSD 0.25809
C -0.798163 -1.027885 -0.211858
C 0.631935 -1.197383 -0.059273
C 1.412994 -0.094705 -0.037281
C 0.781116 1.136295 -0.025970
C -0.812986 1.219473 -0.114820
C -1.431537 0.071015 0.549931
H -1.220936 -1.568572 -0.900584
H 1.043502 -2.101844 0.093694
H 2.299613 -0.030145 0.515013
H 1.148388 2.051597 0.044055
H -0.927540 1.518101 -1.171282
H -2.126385 0.024052 1.318377
12
Aligned to gpa_Type_3.xyz, RMSD 0.10679
C -0.858722 -1.089392 -0.141446
C 0.597371 -1.046488 -0.265939
C 1.390357 0.131226 -0.001517
C 0.683171 1.282640 0.271017
C -0.767954 1.387399 0.137526
C -1.494371 0.145069 0.254273
H -1.390734 -2.093417 -0.009060
H 1.045283 -2.112502 -0.223463
H 2.451742 -0.034515 0.035265
H 1.389033 2.180455 0.470522
H -0.562946 1.137596 -1.191556
H -2.482231 0.111929 0.664381
12
Aligned to gpa_Type_3.xyz, RMSD 0.12788
C -0.885290 -1.027559 -0.090684
C 0.507619 -1.019787 -0.214432
C 1.317412 0.106711 -0.001212
C 0.717288 1.253770 0.313484
C -0.762637 1.332839 0.018718
C -1.508040 0.089227 0.241174
H -1.185905 -2.000866 -0.074448
H 1.076986 -1.923429 -0.330290
H 2.379793 -0.009524 0.084636
H 1.372754 2.010381 0.333854
H -0.534786 0.928649 -0.909188
H -2.495195 0.259589 0.628389
12
Aligned to gpa_Type_3.xyz, RMSD 0.12641
C -0.853248 -1.048561 0.074188
C 0.490945 -0.997893 -0.066139
C 1.345946 0.104484 0.061848
C 0.771042 1.277864 0.259325
C -0.729944 1.382245 -0.056694
C -1.485397 0.120873 0.276289
H -1.319604 -1.973908 -0.111314
H 1.010829 -1.938254 -0.537198
H 2.414792 -0.074480 0.071404
H 1.270195 2.161414 0.453032
H -0.426678 0.898089 -1.131498
H -2.488879 0.088127 0.706757
12
Aligned to gpa_Type_3.xyz, RMSD 0.15684
C -0.812103 -1.116135 0.115549
C 0.596611 -1.034997 -0.133672
C 1.421579 0.093633 0.041807
C 0.760472 1.312522 0.139017
C -0.724503 1.390170 -0.071309
C -1.418895 0.103897 0.255517
H -1.517961 -1.927580 -0.104324
H 0.838629 -1.948453 -0.433597
H 2.461945 -0.068088 0.044779
H 1.212646 2.262897 0.470109
H -0.402664 1.016400 -0.940819
H -2.415757 -0.084265 0.616944
12
Aligned to gpa_Type_3.xyz, RMSD 0.14566
C -0.827738 -1.135374 0.146030
C 0.584547 -1.047596 -0.157289
C 1.445742 0.146179 0.102457
C 0.723746 1.343053 0.127701
C -0.719050 1.406754 -0.088403
C -1.468698 0.165244 0.290968
H -1.448812 -2.062409 -0.022844
H 0.945815 -2.010469 -0.548298
H 2.472435 -0.172859 0.010267
H 1.239781 2.324979 0.550594
H -0.447607 0.996488 -0.964644
H -2.500161 0.046011 0.553461
12
Aligned to gpa_Type_3.xyz, RMSD 0.15436
C -0.893459 -1.050082 -0.274625
C 0.615133 -1.075624 -0.173888
C 1.463860 0.154411 0.032904
C 0.794407 1.273648 0.228614
C -0.759963 1.464971 0.021086
C -1.492492 0.120279 0.273076
H -1.506575 -1.984492 0.075784
H 1.153602 -2.047679 -0.378674
H 2.530002 -0.062566 0.189709
H 1.343298 2.086374 0.359364
H -0.750241 1.081463 -0.989060
H -2.497573 0.039298 0.635711
12
Aligned to gpa_Type_3.xyz, RMSD 0.25092
C -0.863964 -1.111183 -0.000235
C 0.492966 -1.098897 -0.216740
C 1.207870 0.044715 0.159164
C 0.736938 1.303704 0.157781
C -0.729108 1.234861 0.026893
C -1.410905 0.130063 0.275696
H -1.216811 -1.992494 -0.396146
H 0.998877 -1.981016 -0.318071
H 2.250804 -0.181315 0.216341
H 1.218882 2.379135 0.191148
H -0.384412 1.117124 -0.989274
H -2.301138 0.155304 0.893446
12
Aligned to gpa_Type_2.xyz, RMSD 0.16333
C -0.948422 -1.100364 -0.538862
C 0.490375 -1.072627 -0.137675
C 1.266242 0.055990 0.265196
C 0.702956 1.340848 0.187654
C -0.695166 1.342736 -0.007428
C -1.401233 0.089008 0.240536
H -1.492767 -2.036890 -0.667987
H 0.910504 -2.162278 0.223819
H 2.363812 0.060662 0.388399
H 1.369876 2.227537 -0.183460
H -0.708505 1.581245 -0.994406
H -1.857670 -0.325867 1.224214
12
Aligned to gpa_Type_2.xyz, RMSD 0.16446
C -0.949041 -1.096437 -0.533337
C 0.489471 -1.059672 -0.135155
C 1.281607 0.058858 0.259337
C 0.720980 1.339871 0.187326
C -0.680140 1.345141 -0.007223
C -1.393839 0.090674 0.248512
H -1.471178 -2.059454 -0.668356
H 0.866823 -2.134427 0.249267
H 2.354082 0.051316 0.348616
H 1.363230 2.224838 -0.151703
H -0.724185 1.569651 -0.991724
H -1.857809 -0.330357 1.194442
12
Aligned to gpa_Type_2.xyz, RMSD 0.21622
C -0.920526 -1.104870 -0.477521
C 0.469973 -1.028307 -0.090193
C 1.355879 0.077177 0.224054
C 0.830924 1.300589 0.185046
C -0.605770 1.308390 -0.024086
C -1.368438 0.062311 0.287524
H -1.277236 -2.106277 -0.636197
H 0.630744 -1.886011 0.329469
H 2.406132 -0.107242 0.119235
H 1.310425 2.194948 0.134787
H -0.939908 1.562464 -1.140312
H -1.892197 -0.273172 1.088196
12
Aligned to gpa_Type_3.xyz, RMSD 0.28028
C -0.778870 -1.072462 -0.174039
C 0.551431 -1.048378 -0.149292
C 1.313449 -0.004167 0.069202
C 0.659007 1.279895 0.223638
C -0.799768 1.274995 0.098137
C -1.443654 0.109195 0.253046
H -1.480251 -1.671967 -0.404625
H 1.098041 -2.022534 -0.101659
H 2.385588 -0.052374 0.215870
H 1.327891 2.127025 0.213857
H -0.629446 1.157497 -1.216138
H -2.203420 -0.076723 0.972003
12
Aligned to gpa_Type_1.xyz, RMSD 0.27122
C -0.781274 -0.949359 -0.373029
C 0.600923 -1.070486 0.105846
C 1.520134 -0.007445 0.014425
C 0.872284 1.161694 -0.087401
C -0.678694 1.079172 -0.053356
C -1.466916 -0.043565 0.652322
H -1.094741 -1.850235 -0.742169
H 1.056095 -2.084779 0.460387
H 2.506648 -0.220548 -0.102825
H 1.288627 2.076373 0.217092
H -1.302737 1.776867 -0.671752
H -2.520349 0.132311 0.580459
12
Aligned to gpa_Type_1.xyz, RMSD 0.25682
C -0.790016 -0.945347 -0.385922
C 0.620399 -1.069310 0.095638
C 1.515914 -0.012547 0.042191
C 0.846642 1.177877 -0.052190
C -0.679888 1.039710 -0.045008
C -1.432305 -0.028706 0.645953
H -1.123812 -1.866659 -0.726685
H 1.057052 -2.068232 0.423494
H 2.454256 -0.236599 -0.077051
H 1.336752 2.123757 0.182408
H -1.283842 1.787861 -0.714140
H -2.521153 0.098195 0.611310
12
Aligned to gpa_Type_2.xyz, RMSD 0.27266
C -0.744252 -0.900755 -0.294953
C 0.558458 -1.184577 -0.006454
C 1.363935 -0.090352 0.384940
C 0.704454 1.246241 0.042779
C -0.721031 1.088787 -0.263509
C -1.466231 0.135829 0.490571
H -1.210773 -1.565707 -0.932629
H 1.003504 -2.080002 -0.188073
H 2.277045 -0.202723 0.829578
H 1.307930 2.136465 -0.358949
H -1.235966 1.508888 -1.123186
H -1.837072 -0.092095 1.419885
12
Aligned to gpa_Type_1.xyz, RMSD 0.19671
C -0.747379 -0.954862 -0.167234
C 0.714887 -1.151525 0.008623
C 1.604174 -0.019127 0.134468
C 0.879923 1.125951 0.034818
C -0.641083 1.052206 0.075784
C -1.580265 0.071087 0.724718
H -1.427254 -1.496618 -0.820916
H 0.967770 -2.241293 0.156224
H 2.684956 0.173891 0.122910
H 1.369465 2.079900 -0.070096
H -1.114793 1.404627 -0.822734
H -2.710402 -0.044236 0.623432
12
Aligned to gpa_Type_2.xyz, RMSD 0.24950
C -0.899904 -1.129308 -0.241710
C 0.542172 -1.169764 -0.026788
C 1.348129 -0.038904 0.160701
C 0.767932 1.361903 -0.063280
C -0.784170 1.274898 -0.191348
C -1.346498 0.064120 0.425382
H -1.504367 -1.729285 -0.985866
H 1.059863 -2.131364 0.210354
H 2.387439 0.103994 0.350644
H 1.570046 2.108470 0.293156
H -1.203031 1.331196 -1.152719
H -1.937611 -0.045958 1.221477
12
Aligned to gpa_Type_3.xyz, RMSD 0.16852
C -0.847501 -1.004352 -0.099696
C 0.589440 -1.079414 -0.240155
C 1.328600 0.059340 -0.042767
C 0.768584 1.221741 0.294052
C -0.721747 1.460269 0.052113
C -1.404263 0.158378 0.200014
H -1.349484 -1.980890 -0.070604
H 0.969660 -2.068844 -0.018460
H 2.388070 0.040011 -0.169240
H 1.222635 2.062844 0.645046
H -0.564412 1.132002 -1.256091
H -2.379584 -0.001086 0.705790
12
Aligned to gpa_Type_3.xyz, RMSD 0.13693
C -0.910742 -1.002137 -0.149954
C 0.544910 -1.143122 -0.272579
C 1.333920 0.103694 -0.078584
C 0.757006 1.282921 0.177632
C -0.748273 1.431617 0.026010
C -1.447835 0.186715 0.226099
H -1.321980 -1.981777 -0.077963
H 1.064506 -2.036868 -0.066137
H 2.384871 -0.060983 -0.007648
H 1.372370 2.163219 0.589913
H -0.673043 1.066159 -1.009184
H -2.355712 -0.009436 0.642397
12
Aligned to gpa_Type_2.xyz, RMSD 0.17090
C -0.851886 -0.948440 -0.413094
C 0.630063 -1.159943 -0.054307
C 1.361078 -0.026690 0.386989
C 0.698798 1.180861 0.185910
C -0.742382 1.197302 -0.151081
C -1.465962 0.059472 0.442316
H -1.379783 -1.896134 -0.779738
H 0.993342 -2.112684 -0.208669
H 2.406902 -0.055436 0.555325
H 1.160457 2.164256 -0.122325
H -0.921704 1.430039 -1.171891
H -1.888922 0.167396 1.330567
12
Aligned to gpa_Type_2.xyz, RMSD 0.21702
C -0.922134 -0.892017 -0.448198
C 0.574837 -1.187497 -0.096521
C 1.342164 -0.046854 0.258322
C 0.642170 1.201668 0.109341
C -0.729100 1.192056 -0.193692
C -1.417762 0.113485 0.421726
H -1.261575 -1.788277 -0.749921
H 1.021081 -2.235318 -0.146917
H 2.374420 -0.108293 0.761976
H 1.082084 2.114275 -0.066295
H -0.989637 1.632798 -1.403969
H -1.716546 0.003973 1.554149
12
Aligned to gpa_Type_3.xyz, RMSD 0.27786
C -0.880003 -1.070871 -0.050464
C 0.574809 -1.218717 -0.223507
C 1.332772 0.023484 0.039986
C 0.752225 1.315130 0.127808
C -0.755150 1.222506 0.124485
C -1.510043 0.096286 0.407995
H -1.350896 -2.036039 -0.094115
H 0.914999 -2.248286 -0.497190
H 2.342582 0.243241 0.353721
H 1.219232 2.209283 0.255768
H -0.163147 1.378682 -1.313147
H -2.477382 0.085303 0.868660
12
Aligned to gpa_Type_1.xyz, RMSD 0.23243
C -0.784833 -1.022844 -0.340430
C 0.567387 -1.100301 0.130562
C 1.480933 0.055732 0.178656
C 0.791059 1.131625 -0.142251
C -0.702486 1.087922 -0.289981
C -1.332919 0.031026 0.577698
H -1.418599 -1.715499 -0.959106
H 0.909843 -2.125838 0.137067
H 2.542460 -0.076436 0.505122
H 1.341725 2.140425 -0.001530
H -1.310544 1.695768 -0.872534
H -2.084027 -0.101579 1.076726
12
Aligned to gpa_Type_3.xyz, RMSD 0.14143
C -0.960138 -1.076359 -0.151093
C 0.573747 -1.148095 -0.188428
C 1.440901 0.063917 -0.052723
C 0.754398 1.249523 0.255915
C -0.751856 1.411224 0.071175
C -1.597251 0.252503 0.129711
H -1.224696 -2.222658 0.060594
H 1.002591 -2.089332 -0.281174
H 2.521682 0.085550 0.033408
H 1.368930 2.132812 0.534430
H -0.599061 1.168094 -1.099045
H -2.529247 0.172821 0.687230
12
Aligned to gpa_Type_3.xyz, RMSD 0.13427
C -0.907775 -1.095616 -0.197789
C 0.593643 -1.069641 -0.229423
C 1.390595 0.100372 -0.112421
C 0.797540 1.227404 0.342058
C -0.734968 1.451051 0.061979
C -1.613667 0.144811 0.226325
H -1.369150 -1.997236 0.058571
H 1.125233 -2.050153 -0.208864
H 2.468780 0.041077 0.027046
H 1.366185 2.079211 0.543926
H -0.553549 1.099597 -1.254079
H -2.562869 0.069125 0.742671
12
Aligned to gpa_Type_3.xyz, RMSD 0.20031
C -0.826499 -1.078136 -0.081530
C 0.559724 -1.021343 -0.086738
C 1.354247 0.106036 0.178040
C 0.581726 1.249671 0.300946
C -0.823569 1.402937 0.009043
C -1.562828 0.203399 0.058154
H -1.329234 -1.992080 -0.162073
H 1.167524 -1.890089 -0.290542
H 2.431107 -0.296036 -0.069745
H 1.226585 2.094790 0.326804
H -0.464714 1.098739 -1.036303
H -2.314070 0.122113 0.853946
12
Aligned to gpa_Type_3.xyz, RMSD 0.21521
C -0.814653 -1.093893 -0.097675
C 0.576105 -1.116347 -0.104335
C 1.361387 0.037135 0.167080
C 0.612013 1.252233 0.249542
C -0.773239 1.341747 -0.020955
C -1.592078 0.143586 0.057448
H -1.457926 -1.949913 -0.130818
H 1.173580 -2.004483 -0.399387
H 2.419269 -0.112234 0.014828
H 1.067733 2.171553 0.299568
H -0.353657 1.105525 -0.921493
H -2.218534 0.225091 0.886199
12
Aligned to gpa_Type_2.xyz, RMSD 0.29229
C -0.854005 -1.054884 -0.324642
C 0.548225 -1.096470 -0.155504
C 1.440689 0.025254 0.121850
C 0.928247 1.280664 0.016528
C -0.560945 1.086951 -0.019326
C -1.321621 0.008846 0.512110
H -1.528452 -1.767119 -0.835151
H 0.975148 -2.108818 -0.105476
H 2.382012 -0.100100 0.586033
H 1.043460 2.423511 0.093104
H -0.945204 1.053148 -1.080948
H -2.107553 0.249017 1.191423
12
Aligned to gpa_Type_2.xyz, RMSD 0.32368
C -0.870161 -1.023765 -0.332611
C 0.541094 -1.063356 -0.141012
C 1.460530 -0.007782 0.159639
C 0.898636 1.315598 0.028904
C -0.562252 1.119348 -0.068025
C -1.362863 0.018670 0.512531
H -1.448281 -1.706965 -0.905164
H 1.086034 -2.012099 -0.174837
H 2.411152 -0.273897 0.685093
H 1.013660 2.389306 -0.084867
H -0.930179 1.013686 -1.045198
H -2.237368 0.231255 1.365546
12
Aligned to gpa_Type_3.xyz, RMSD 0.13788
C -0.907265 -1.090526 0.006948
C 0.664662 -1.120655 -0.147196
C 1.355888 0.093599 -0.018450
C 0.617319 1.385493 0.184472
C -0.826761 1.448627 -0.128534
C -1.427159 0.161356 0.318755
H -1.404875 -2.092701 0.012467
H 1.052436 -2.052616 -0.410113
H 2.439149 -0.032976 0.008037
H 1.361881 2.094229 0.676176
H -0.397359 1.120128 -1.241083
H -2.527916 0.086041 0.738522
12
Aligned to gpa_Type_3.xyz, RMSD 0.15173
C -0.817945 -1.014740 -0.063955
C 0.610181 -1.119890 -0.163464
C 1.373059 0.098471 0.115239
C 0.742245 1.281412 0.387283
C -0.670075 1.485449 -0.067280
C -1.453113 0.239728 0.191465
H -1.277683 -1.998410 0.023267
H 0.891062 -2.159728 -0.521450
H 2.456757 0.061936 0.050142
H 1.233794 2.158081 0.522128
H -0.617653 0.870185 -1.204643
H -2.470628 0.097507 0.731269
12
Aligned to gpa_Type_3.xyz, RMSD 0.27635
C -0.902452 -1.137069 -0.038026
C 0.514416 -1.035452 -0.228114
C 1.386149 0.159714 0.135996
C 0.828847 1.319697 0.009215
C -0.675460 1.306670 0.072646
C -1.462023 0.165335 0.385323
H -1.338056 -1.971290 -0.300279
H 1.083558 -1.936565 -0.488024
H 2.347791 -0.213352 0.505788
H 1.218160 2.196145 0.084422
H -0.470214 1.132762 -1.054554
H -2.530715 0.013405 0.915609
12
Aligned to gpa_Type_1.xyz, RMSD 0.22889
C -0.701593 -0.893090 -0.118183
C 0.708962 -1.143445 0.044850
C 1.484569 -0.056399 0.185460
C 0.770092 1.067718 0.075374
C -0.892422 1.147548 -0.120380
C -1.620888 0.020811 0.632512
H -1.190604 -1.638585 -0.737048
H 1.203581 -2.049409 0.103303
H 2.587445 -0.083111 -0.036015
H 1.390515 1.961217 0.112400
H -0.957358 1.654077 -1.042607
H -2.782299 0.012668 0.900333
12
Aligned to gpa_Type_2.xyz, RMSD 0.33760
C -0.952503 -1.031032 -0.135199
C 0.637681 -1.112310 -0.045346
C 1.425975 0.012685 0.099704
C 0.700863 1.164906 0.197134
C -0.766758 1.271956 0.086284
C -1.640581 0.243409 0.249925
H -1.404121 -1.867134 -0.660632
H 1.171789 -2.075621 -0.350391
H 2.491620 0.077840 0.460253
H 1.141697 2.050485 -0.063183
H -0.516312 1.171757 -1.081747
H -2.289349 0.093057 1.243200
12
Aligned to gpa_Type_2.xyz, RMSD 0.28251
C -0.753043 -1.125212 -0.351923
C 0.560995 -1.153651 0.064110
C 1.438934 0.067032 0.164331
C 0.834569 1.213116 -0.218933
C -0.698839 1.169119 -0.280347
C -1.336337 -0.111736 0.562616
H -1.361127 -1.804910 -1.047059
H 0.907886 -2.175868 0.351736
H 2.491497 -0.078315 0.307631
H 1.261734 2.150113 0.176271
H -1.186195 1.821743 -1.029631
H -2.160074 0.028567 1.301199
12
Aligned to gpa_Type_2.xyz, RMSD 0.24593
C -0.835473 -1.092425 -0.412092
C 0.508717 -1.214974 0.001640
C 1.355872 -0.070130 0.117845
C 0.851267 1.165489 -0.179967
C -0.664343 1.120105 -0.307801
C -1.435000 -0.071751 0.512878
H -1.304284 -1.789380 -0.981862
H 1.107097 -2.045840 0.243743
H 2.354639 -0.061528 0.521846
H 1.208488 2.125126 0.053553
H -1.117542 1.832878 -0.967617
H -2.029438 0.102429 1.397833
12
Aligned to gpa_Type_1.xyz, RMSD 0.32860
C -0.823564 -1.054353 -0.057292
C 0.648546 -1.148052 0.010927
C 1.449350 -0.170079 0.438150
C 0.696497 1.069317 0.099191
C -0.740533 1.170977 -0.353027
C -1.501821 0.059833 0.553403
H -1.222367 -1.737027 -0.880895
H 1.139514 -2.084951 -0.212469
H 2.441205 0.008601 0.209375
H 1.090467 2.090073 0.204891
H -0.922642 1.571352 -1.377770
H -2.254653 0.224309 1.365516
12
Aligned to gpa_Type_1.xyz, RMSD 0.19351
C -0.758633 -0.977201 -0.034575
C 0.773229 -1.224307 0.176363
C 1.599043 -0.068591 0.019400
C 0.789754 1.056293 0.022843
C -0.740089 0.935888 -0.045167
C -1.562465 -0.023525 0.566984
H -1.164503 -1.323540 -1.004257
H 0.969873 -2.332331 0.096231
H 2.714345 0.063708 0.327653
H 1.068274 2.090512 -0.208665
H -1.123614 1.672671 -0.824240
H -2.565214 0.130422 0.907430
12
Aligned to gpa_Type_1.xyz, RMSD 0.15936
C -0.739560 -0.996655 -0.122929
C 0.771594 -1.226045 0.125740
C 1.546383 -0.084098 0.054422
C 0.774986 0.972267 0.013822
C -0.689586 0.932485 -0.138562
C -1.578748 -0.014529 0.498430
H -1.274435 -1.451492 -0.974720
H 1.090314 -2.196733 0.152450
H 2.544966 0.090066 0.274875
H 1.227890 2.142227 -0.076188
H -1.145754 1.638405 -0.801272
H -2.528050 0.194103 0.993930
12
Aligned to gpa_Type_2.xyz, RMSD 0.31620
C -0.938289 -1.015786 -0.330802
C 0.558092 -1.145156 0.040489
C 1.312446 -0.014822 0.399116
C 0.660767 1.129670 -0.033645
C -0.747164 1.194474 -0.260077
C -1.412741 0.116819 0.421728
H -1.345084 -1.432041 -1.228507
H 1.060657 -2.163883 0.104561
H 2.400435 -0.140551 0.628967
H 1.135912 2.123088 -0.025744
H -1.189877 1.339204 -1.309863
H -1.495153 0.008984 1.593780
12
Aligned to gpa_Type_2.xyz, RMSD 0.22591
C -0.808467 -1.001439 -0.274066
C 0.577839 -1.176619 -0.082402
C 1.388286 -0.102844 0.219401
C 0.678511 1.171094 0.066897
C -0.700756 1.090351 -0.193583
C -1.465924 0.056296 0.421208
H -1.377787 -1.593167 -0.953415
H 1.026158 -2.202454 -0.037182
H 2.411053 0.043839 0.636438
H 1.193782 2.184886 -0.081222
H -0.984191 1.500153 -1.250811
H -1.938502 0.029901 1.528740
12
Aligned to gpa_Type_1.xyz, RMSD 0.20955
C -0.834887 -1.136841 -0.159146
C 0.663531 -1.207196 0.096293
C 1.497879 -0.082873 0.253184
C 0.714762 1.179679 0.034310
C -0.699541 1.068461 -0.199126
C -1.404794 0.118316 0.637341
H -1.378329 -1.558528 -1.011063
H 1.162705 -2.181529 -0.079250
H 2.494909 0.019043 0.334969
H 1.212632 2.168845 0.065634
H -1.108524 1.365170 -1.098607
H -2.320344 0.247452 1.125461
12
Aligned to gpa_Type_1.xyz, RMSD 0.22850
C -0.768809 -0.966600 -0.111000
C 0.812068 -1.298691 -0.034232
C 1.538476 0.098262 0.018991
C 0.704402 1.181643 0.029561
C -0.698388 1.071731 -0.136454
C -1.474575 0.038950 0.725671
H -1.319327 -1.709642 -0.512229
H 0.842353 -2.292149 0.130594
H 2.691981 0.114612 0.072595
H 1.259668 2.031964 0.180969
H -1.069267 1.699494 -0.777257
H -2.518582 0.030425 0.412792
12
Aligned to gpa_Type_1.xyz, RMSD 0.33949
C -0.779314 -1.255716 0.122222
C 0.702470 -1.339594 0.284535
C 1.499105 -0.151078 0.127106
C 0.684466 1.048515 0.031772
C -0.857466 1.033062 -0.133773
C -1.555908 0.016162 0.777990
H -0.781175 -1.022624 -1.013852
H 1.281536 -2.189919 -0.115595
H 2.509510 0.071698 0.199586
H 1.431273 1.872501 -0.210088
H -1.384717 1.542500 -0.836570
H -2.749781 0.374492 0.766665
12
Aligned to gpa_Type_3.xyz, RMSD 0.28600
C -0.731781 -0.945192 0.156254
C 0.656539 -1.063109 -0.101394
C 1.486693 0.226760 0.076166
C 0.700279 1.327302 0.220491
C -0.668152 1.014315 -0.272279
C -1.328228 0.144428 0.663940
H -1.532623 -1.833267 -0.366617
H 0.966374 -2.217307 -0.375732
H 2.452409 -0.070623 -0.007699
H 1.127167 2.226549 0.662340
H -0.737225 1.006916 -1.317639
H -2.391454 0.183228 0.662170
12
Aligned to gpa_Type_2.xyz, RMSD 0.29601
C -0.883070 -1.123277 -0.501425
C 0.619908 -1.192838 0.130978
C 1.437610 0.021201 0.198015
C 0.839229 1.111441 -0.043793
C -0.664726 1.028738 -0.285486
C -1.446799 -0.024798 0.303023
H -1.591130 -1.777749 -0.883227
H 0.997828 -2.145107 0.433440
H 2.700308 0.051818 0.276660
H 1.073803 2.107756 0.128001
H -1.143437 1.953914 -0.933223
H -1.939523 -0.011100 1.177037
12
Aligned to gpa_Type_3.xyz, RMSD 0.26331
C -0.784373 -0.894684 -0.176838
C 0.541391 -1.080558 -0.021073
C 1.309045 0.098325 0.108131
C 0.771526 1.344149 0.273402
C -0.717457 1.390076 -0.026432
C -1.356927 0.177709 0.300713
H -1.146898 -1.866075 -0.318305
H 0.976579 -1.978865 -0.426580
H 2.329845 -0.349545 0.280470
H 1.241808 2.251081 0.247919
H -0.838712 0.862061 -1.068066
H -2.325829 0.046326 0.826662
12
Aligned to gpa_Type_1.xyz, RMSD 0.24815
C -0.754322 -1.026435 -0.139781
C 0.707151 -1.252610 0.137929
C 1.492441 -0.181323 0.189117
C 0.877645 1.081384 0.014949
C -0.737019 0.934396 0.091418
C -1.484809 -0.027456 0.736856
H -1.241872 -1.550379 -1.159647
H 1.119914 -2.246409 0.259041
H 2.583622 0.096177 0.170507
H 1.407207 2.187407 -0.204572
H -1.585369 1.639448 -0.693716
H -2.384591 0.345799 0.597897
12
Aligned to gpa_Type_2.xyz, RMSD 0.27136
C -0.899733 -1.126356 -0.324331
C 0.484529 -1.066915 0.116034
C 1.398429 -0.075396 -0.009740
C 0.759160 1.216835 0.130630
C -0.754621 1.274132 -0.082581
C -1.529940 0.096062 0.340765
H -1.217166 -1.920327 -1.079113
H 0.970629 -2.081174 0.414673
H 2.424322 0.101604 0.098602
H 1.425466 2.024495 0.126109
H -0.975891 1.572138 -1.051784
H -2.085182 -0.015097 1.320736
12
Aligned to gpa_Type_3.xyz, RMSD 0.16791
C -0.886400 -1.050871 -0.150301
C 0.574140 -1.133904 -0.150523
C 1.432344 0.109419 -0.048546
C 0.853549 1.290258 0.130118
C -0.697805 1.431706 0.088163
C -1.592481 0.088134 0.293997
H -1.263066 -1.951164 -0.217217
H 0.895084 -2.062595 -0.254692
H 2.431160 0.071179 0.207729
H 1.352938 2.168813 0.463331
H -0.714552 0.937828 -1.116110
H -2.384912 0.101196 0.754051
12
Aligned to gpa_Type_3.xyz, RMSD 0.22926
C -0.830662 -1.124470 -0.115456
C 0.571535 -1.249910 -0.207279
C 1.329801 0.125339 -0.166204
C 0.735792 1.381276 0.081530
C -0.906976 1.462865 -0.057898
C -1.539587 0.110716 0.172538
H -1.399896 -2.114835 -0.124880
H 1.125004 -2.186769 -0.218695
H 2.288932 -0.095629 0.254888
H 1.350797 2.235668 0.439893
H -0.422572 1.383037 -0.925524
H -2.302170 0.072712 0.867086
12
Aligned to gpa_Type_3.xyz, RMSD 0.19866
C -0.843877 -1.044621 0.043848
C 0.576173 -1.036357 -0.120297
C 1.331975 -0.009720 0.076249
C 0.699475 1.218223 0.211238
C -0.803273 1.304805 -0.014452
C -1.526000 0.114911 0.399248
H -1.478242 -1.954325 -0.024235
H 1.055916 -1.875932 -0.498791
H 2.393486 0.026203 0.012363
H 1.217446 2.143400 0.566690
H -0.183440 1.048206 -1.432000
H -2.439640 0.065208 0.780141
12
Aligned to gpa_Type_2.xyz, RMSD 0.28217
C -0.703049 -1.161964 -0.583458
C 0.576190 -1.151102 -0.159119
C 1.151356 -0.065779 0.451880
C 0.668114 1.352386 0.055843
C -0.655634 1.231442 -0.293288
C -1.052095 0.002781 0.223869
H -1.449276 -1.888204 -0.619749
H 1.000262 -2.089949 -0.094899
H 2.097390 -0.298489 0.898202
H 1.268998 2.217565 -0.267004
H -1.358484 1.748605 -0.875305
H -1.543772 0.102706 1.263030
12
Aligned to gpa_Type_1.xyz, RMSD 0.23430
C -0.897566 -1.044174 0.004867
C 0.640706 -1.208056 0.174510
C 1.491274 -0.096869 0.285650
C 0.803642 1.140562 0.039701
C -0.703907 0.919527 -0.129175
C -1.626959 0.048064 0.764244
H -1.460255 -1.635967 -0.864857
H 1.463809 -1.863546 -0.262819
H 2.690755 -0.054024 0.328244
H 1.401355 1.996717 -0.208875
H -1.118124 1.604667 -0.864539
H -2.684732 0.193098 0.733047
12
Aligned to gpa_Type_1.xyz, RMSD 0.38767
C -0.823918 -1.008133 -0.172938
C 0.759937 -1.141291 -0.070196
C 1.479182 -0.020905 -0.172222
C 0.823533 1.258116 -0.234971
C -0.770160 1.278316 -0.419629
C -1.400013 0.196515 0.481009
H -1.438130 -1.875189 -0.631231
H 1.196057 -2.095431 0.152175
H 2.456559 -0.191547 0.476473
H 1.200731 1.827217 0.684805
H -1.350313 1.794951 -1.252630
H -2.133466 -0.022618 1.159352
12
Aligned to gpa_Type_3.xyz, RMSD 0.30691
C -0.954210 -1.085403 -0.262530
C 0.514308 -1.045388 -0.251477
C 1.287805 0.064738 0.218109
C 0.744328 1.318184 0.142376
C -0.803745 1.390191 -0.081327
C -1.537990 0.090276 0.257899
H -1.286452 -2.017057 -0.222416
H 1.071679 -1.919184 -0.446302
H 2.502009 -0.252508 0.520995
H 1.295802 2.251780 0.172646
H -0.558649 1.130087 -1.202101
H -2.274885 0.074286 1.154129
12
Aligned to gpa_Type_2.xyz, RMSD 0.35149
C -0.850628 -0.970437 -0.295057
C 0.522854 -1.023908 -0.318268
C 1.301119 0.080170 0.149390
C 0.714387 1.289806 0.093885
C -0.821807 1.455934 -0.039270
C -1.508546 0.087790 0.314857
H -1.177466 -2.101700 -0.191309
H 1.070826 -1.951323 -0.520778
H 2.088820 -0.204461 0.609103
H 1.491327 2.096738 0.232836
H -0.771011 1.117520 -1.195534
H -2.059874 0.123871 1.160144
12
Aligned to gpa_Type_3.xyz, RMSD 0.14489
C -0.858704 -1.165331 -0.070200
C 0.545461 -1.125873 -0.196080
C 1.276663 0.008639 -0.091022
C 0.732019 1.224652 0.274051
C -0.752300 1.529123 -0.084843
C -1.419803 0.141623 0.304429
H -1.287253 -2.126370 0.095765
H 1.071585 -2.016602 -0.307535
H 2.329233 0.046994 -0.015087
H 1.245710 2.073360 0.598484
H -0.359402 1.272251 -1.187240
H -2.523210 0.137535 0.679279
12
Aligned to gpa_Type_3.xyz, RMSD 0.15430
C -0.799644 -1.009619 -0.202089
C 0.584688 -1.078771 -0.146046
C 1.386821 0.072182 0.019588
C 0.655457 1.299102 0.320159
C -0.755423 1.553646 -0.051806
C -1.452795 0.120581 0.125683
H -1.378735 -1.916672 0.015690
H 1.092766 -2.070551 -0.232859
H 2.471872 -0.129922 0.017672
H 1.316023 2.044001 0.487976
H -0.719778 1.146057 -1.114364
H -2.401253 -0.030035 0.760398
12
Aligned to gpa_Type_2.xyz, RMSD 0.29690
C -0.841505 -1.209550 -0.179724
C 0.493854 -1.060439 -0.086665
C 1.372892 0.111706 0.107262
C 0.743156 1.390744 0.180061
C -0.670711 1.251762 0.234131
C -1.478146 0.034133 0.338616
H -1.428897 -1.981673 -0.681192
H 1.131974 -1.984974 -0.197800
H 2.376133 -0.259578 0.324688
H 1.211155 2.277785 0.053261
H -0.678517 1.201945 -1.167847
H -2.231387 0.228138 1.075211
12
Aligned to gpa_Type_2.xyz, RMSD 0.17535
C -0.957694 -0.972687 -0.540138
C 0.501600 -1.110648 -0.084858
C 1.270490 0.007444 0.284783
C 0.679159 1.212109 0.207496
C -0.744552 1.345034 -0.079393
C -1.408389 0.101040 0.252277
H -1.089607 -2.190039 -0.571452
H 0.740709 -2.133630 0.028779
H 2.408415 0.016255 0.303782
H 1.252251 2.103488 0.028081
H -0.798874 1.643138 -1.136019
H -1.853506 -0.021507 1.306661
12
Aligned to gpa_Type_2.xyz, RMSD 0.26117
C -0.677325 -1.140039 -0.504843
C 0.561212 -1.112689 -0.066825
C 1.210144 -0.059868 0.449102
C 0.662959 1.279574 0.017852
C -0.711876 1.210135 -0.314689
C -1.045035 0.042034 0.250968
H -1.509917 -1.796224 -0.687908
H 1.074418 -2.169663 -0.127657
H 2.194089 -0.236095 0.849003
H 1.221060 2.131584 -0.171466
H -1.379646 1.739788 -0.981090
H -1.600082 0.111463 1.287555
12
Aligned to gpa_Type_2.xyz, RMSD 0.23014
C -0.940543 -1.102421 -0.513498
C 0.569834 -1.077387 -0.170960
C 1.254761 0.063309 0.373780
C 0.701518 1.286943 0.248336
C -0.753712 1.337041 -0.083799
C -1.346450 -0.021282 0.231740
H -1.567526 -1.938728 -0.423193
H 1.126692 -1.948404 -0.310234
H 2.185721 -0.172965 0.769980
H 1.349670 2.088283 -0.020473
H -1.020141 1.508540 -1.410962
H -1.559822 -0.022931 1.309284
12
Aligned to gpa_Type_2.xyz, RMSD 0.21333
C -1.036400 -1.065036 -0.522064
C 0.482740 -1.062675 -0.067849
C 1.295416 0.009840 0.331674
C 0.710620 1.440682 0.261517
C -0.687914 1.251493 -0.164098
C -1.326251 0.084470 0.275936
H -1.447030 -2.026668 -0.306259
H 0.990388 -2.078513 -0.313396
H 2.282618 -0.149266 0.550578
H 1.247434 2.299700 0.016445
H -0.718992 1.506215 -1.312969
H -1.792629 -0.210243 1.250488
12
Aligned to gpa_Type_2.xyz, RMSD 0.18864
C -1.003037 -1.092144 -0.517022
C 0.453427 -1.101384 -0.123462
C 1.303306 -0.035317 0.280632
C 0.689331 1.390696 0.270642
C -0.649614 1.182604 -0.105860
C -1.321234 0.035371 0.348590
H -1.384845 -2.076410 -0.399113
H 0.877448 -1.987444 -0.103015
H 2.416161 -0.120549 0.374957
H 1.256167 2.348249 0.111478
H -0.747716 1.599320 -1.369186
H -1.889393 -0.142992 1.231361
12
Aligned to gpa_Type_2.xyz, RMSD 0.17923
C -0.875383 -1.094162 -0.527422
C 0.446167 -1.079343 -0.198825
C 1.314295 0.027228 0.201136
C 0.694464 1.341566 0.205850
C -0.601630 1.183051 -0.166727
C -1.324235 -0.005043 0.336436
H -1.371964 -2.076873 -0.606973
H 0.925305 -2.136552 0.200436
H 2.383018 -0.056008 0.198799
H 1.204306 2.263997 0.173822
H -0.803048 1.523994 -1.014289
H -1.991295 0.108144 1.197757
12
Aligned to gpa_Type_1.xyz, RMSD 0.23319
C -0.735608 -1.011194 -0.300967
C 0.554382 -1.153988 0.159043
C 1.355673 -0.014271 0.250967
C 0.821509 1.234272 -0.019476
C -0.586342 1.000038 -0.096848
C -1.271411 0.052245 0.560608
H -1.321550 -1.562727 -1.008730
H 0.905575 -2.079312 -0.013010
H 2.416534 -0.054703 0.413557
H 1.247219 2.175788 -0.042143
H -1.259955 1.315809 -1.000859
H -2.126028 0.098045 1.097857
12
Aligned to gpa_Type_1.xyz, RMSD 0.23145
C -0.713919 -0.935101 -0.359879
C 0.659454 -1.125323 -0.073291
C 1.464242 0.010202 0.175873
C 0.774937 1.157466 0.043970
C -0.681821 1.185010 -0.186071
C -1.276418 0.012890 0.579234
H -1.335803 -1.615375 -0.745390
H 0.933410 -2.232137 0.101177
H 2.445676 -0.094566 0.340284
H 1.172241 2.140306 0.216689
H -1.267908 1.369506 -1.160992
H -2.174092 0.127122 1.068395
12
Aligned to gpa_Type_3.xyz, RMSD 0.31486
C -0.785723 -1.042502 -0.225468
C 0.564921 -1.007535 -0.125216
C 1.362274 0.111255 0.284058
C 0.814455 1.321054 0.066963
C -0.681105 1.313011 0.087442
C -1.348358 0.080532 0.500368
H -1.516362 -1.975569 -0.283890
H 0.908798 -2.000409 -0.597671
H 2.467740 0.086939 0.539049
H 1.381086 2.150797 -0.034543
H -0.696785 0.917154 -0.958097
H -2.470942 0.045273 0.747004
12
Aligned to gpa_Type_2.xyz, RMSD 0.25891
C -0.846544 -0.976801 -0.230073
C 0.733908 -1.259411 -0.030104
C 1.490920 -0.042967 0.173350
C 0.758738 1.144664 0.075808
C -0.706433 1.227434 -0.296966
C -1.646777 0.061836 0.322421
H -1.487640 -1.590770 -0.788919
H 1.161327 -2.207897 0.027868
H 2.519070 -0.066936 0.484068
H 1.093251 2.139774 0.110511
H -1.044391 1.608964 -1.261270
H -2.025429 -0.037892 1.413308
12
Aligned to gpa_Type_3.xyz, RMSD 0.13777
C -0.880490 -1.076631 0.004383
C 0.559604 -1.119029 -0.131937
C 1.381424 0.129815 -0.117943
C 0.756872 1.269436 0.286843
C -0.867255 1.379857 0.021481
C -1.548417 0.049214 0.259648
H -1.327282 -2.068197 -0.046783
H 0.910385 -2.044101 -0.341996
H 2.439878 0.081867 0.063115
H 1.387109 2.143378 0.410905
H -0.287943 1.184503 -1.064575
H -2.523887 0.069888 0.656858
12
Aligned to gpa_Type_2.xyz, RMSD 0.21944
C -0.871675 -1.112566 -0.397739
C 0.575381 -1.176676 -0.046155
C 1.341199 0.025337 0.223245
C 0.786459 1.234103 -0.040192
C -0.630862 1.112290 -0.366171
C -1.550171 -0.003989 0.407475
H -1.406217 -1.766305 -1.012788
H 1.063937 -2.081052 0.235582
H 2.261537 -0.065322 0.627331
H 1.374887 2.144146 -0.109245
H -1.154712 1.809663 -1.008272
H -1.789762 -0.119629 1.486929
12
Aligned to gpa_Type_2.xyz, RMSD 0.17233
C -0.907703 -1.126013 -0.369146
C 0.416717 -1.034290 0.020254
C 1.337349 0.102427 0.201506
C 0.758311 1.247907 -0.040956
C -0.645630 1.193108 -0.040952
C -1.364135 0.044932 0.412981
H -1.193192 -1.999896 -0.923432
H 0.834314 -2.003515 0.193998
H 2.436082 -0.166391 0.298685
H 1.193484 2.159347 0.033788
H -0.870651 1.611800 -1.067015
H -1.994946 -0.029416 1.280290
12
Aligned to gpa_Type_1.xyz, RMSD 0.25590
C -0.807969 -1.024398 -0.056251
C 0.797859 -1.215689 0.099025
C 1.458043 -0.110561 0.175304
C 0.766300 1.132574 0.037340
C -0.727233 1.128009 -0.172727
C -1.528209 0.186364 0.744420
H -1.487151 -1.682517 -0.508552
H 1.203392 -2.052661 -0.356266
H 2.540534 0.048763 0.241311
H 1.289764 2.053800 0.280956
H -0.993488 1.465260 -1.263423
H -2.511842 0.071058 0.778862
12
Aligned to gpa_Type_3.xyz, RMSD 0.10408
C -0.850370 -1.068122 -0.045762
C 0.546286 -1.009436 -0.238223
C 1.289355 0.095262 0.093192
C 0.655992 1.244668 0.304585
C -0.792826 1.387222 -0.052155
C -1.369701 0.169666 0.293239
H -1.317684 -1.957859 -0.036284
H 1.080167 -2.014877 -0.304331
H 2.289675 -0.075044 -0.078497
H 1.311071 2.130611 0.510304
H -0.457877 0.985074 -1.069617
H -2.384090 0.112835 0.623548
12
Aligned to gpa_Type_1.xyz, RMSD 0.25502
C -0.752586 -1.059607 -0.327540
C 0.607062 -1.231550 0.096016
C 1.447846 0.017715 0.146905
C 0.738469 1.130576 -0.162550
C -0.670826 1.151194 -0.258299
C -1.287912 0.010599 0.616780
H -1.452889 -1.556842 -1.027077
H 1.010688 -2.270068 0.443548
H 2.455953 0.070546 0.212788
H 1.273350 2.080204 0.132066
H -1.186793 1.809554 -0.882937
H -2.182362 -0.152321 1.010298
12
Aligned to gpa_Type_1.xyz, RMSD 0.18126
C -0.676822 -1.006030 -0.298247
C 0.654992 -1.273502 0.146132
C 1.484080 -0.032859 0.188817
C 0.821726 1.127649 -0.114324
C -0.607375 1.031734 -0.138331
C -1.281244 -0.003062 0.686330
H -1.422249 -1.391924 -0.953115
H 0.918818 -2.270994 0.227352
H 2.618048 0.080466 0.352701
H 1.150716 2.137373 -0.189743
H -1.194985 1.731090 -0.754605
H -2.465705 -0.129942 0.847031
12
Aligned to gpa_Type_1.xyz, RMSD 0.30655
C -0.735501 -0.804478 0.087167
C 0.696528 -1.194113 0.037878
C 1.495170 -0.065652 0.258946
C 0.762122 1.147348 0.061799
C -0.641465 0.890282 -0.152185
C -1.523630 0.137364 0.730549
H -1.407885 -1.543994 -0.407642
H 1.116143 -1.954705 -0.581415
H 2.551065 0.083593 0.595813
H 1.328752 1.855344 -0.365883
H -0.965694 1.585622 -0.808598
H -2.675606 -0.136610 0.543570
12
Aligned to gpa_Type_2.xyz, RMSD 0.25573
C -0.922821 -1.160628 -0.511192
C 0.557933 -1.228417 -0.063519
C 1.221332 -0.090727 0.305069
C 0.683028 1.184327 0.124480
C -0.806937 1.251479 -0.278190
C -1.229398 -0.029863 0.277692
H -1.421148 -1.925558 -1.027917
H 1.145536 -2.105816 0.321845
H 2.242344 0.076854 0.530094
H 1.307316 1.926826 -0.117967
H -1.206774 1.896010 -0.912746
H -1.570410 0.205512 1.352352
12
Aligned to gpa_Type_2.xyz, RMSD 0.27588
C -0.813439 -1.054063 -0.580633
C 0.525905 -1.093268 -0.009108
C 1.352134 0.111314 0.234422
C 0.741048 1.384677 -0.046415
C -0.566382 1.150103 -0.193721
C -1.400412 -0.012846 0.355679
H -1.436344 -1.873332 -0.935977
H 0.557325 -2.032107 0.361657
H 2.261515 -0.246010 0.679619
H 1.272538 2.382248 -0.146343
H -1.129627 1.681077 -1.073735
H -1.364260 -0.397794 1.354556
12
Aligned to gpa_Type_2.xyz, RMSD 0.20871
C -0.818877 -1.037566 -0.599933
C 0.451036 -1.076488 -0.008532
C 1.317649 0.069229 0.228011
C 0.852552 1.296341 -0.101874
C -0.603566 1.059423 -0.171416
C -1.423924 -0.061634 0.294476
H -1.286733 -1.948629 -0.863101
H 0.756355 -2.202407 0.200016
H 2.307977 -0.004305 0.661374
H 1.257618 2.216501 -0.231059
H -1.032090 1.767735 -0.786758
H -1.777997 -0.078201 1.378799
12
Aligned to gpa_Type_2.xyz, RMSD 0.21047
C -0.880758 -1.084290 -0.689167
C 0.427823 -1.154817 -0.120029
C 1.234622 0.088037 0.258734
C 0.891336 1.334047 -0.066385
C -0.623333 1.107499 -0.153340
C -1.438518 -0.082499 0.227594
H -1.357224 -2.028246 -0.729954
H 0.929279 -2.149623 0.228687
H 2.215279 0.061426 0.636114
H 1.425376 2.173396 -0.186388
H -1.058772 1.764938 -0.716145
H -1.765108 -0.029870 1.310279
12
Aligned to gpa_Type_2.xyz, RMSD 0.25398
C -0.684965 -0.968087 -0.281220
C 0.640797 -1.316985 -0.020530
C 1.389080 -0.142732 0.067952
C 0.661632 1.232874 -0.100663
C -0.780189 1.232478 -0.325741
C -1.507091 0.076699 0.445028
H -1.317448 -1.645697 -0.717843
H 1.098307 -2.326524 -0.023474
H 2.344020 -0.113293 0.574332
H 1.221882 2.288333 0.185402
H -1.065928 1.657083 -1.190061
H -2.000095 0.025849 1.386819
12
Aligned to gpa_Type_3.xyz, RMSD 0.17447
C -0.832586 -1.022854 -0.080592
C 0.566054 -1.042951 -0.174109
C 1.342743 0.190829 -0.115805
C 0.730076 1.309163 0.293681
C -0.731403 1.472769 0.116063
C -1.541847 0.102803 0.291655
H -1.337324 -2.028663 -0.142549
H 1.005702 -2.192368 -0.065672
H 2.407726 0.111849 -0.060061
H 1.488090 1.974464 0.476547
H -0.533718 1.157381 -1.180652
H -2.563513 -0.032420 0.641494
12
Aligned to gpa_Type_3.xyz, RMSD 0.09243
C -0.844349 -1.097711 -0.092076
C 0.625782 -1.103349 -0.164938
C 1.371918 0.096067 -0.075633
C 0.759003 1.240072 0.302125
C -0.703356 1.455546 0.007587
C -1.500024 0.097199 0.300603
H -1.442200 -1.934236 -0.048639
H 1.016777 -2.000029 -0.335770
H 2.440032 -0.000642 0.078445
H 1.348208 2.216726 0.409157
H -0.550722 0.994217 -0.983231
H -2.521071 0.036142 0.602371
12
Aligned to gpa_Type_1.xyz, RMSD 0.17278
C -0.734259 -1.030831 -0.065471
C 0.661515 -1.131017 0.054494
C 1.430393 -0.040520 0.300602
C 0.709838 1.082371 0.020675
C -0.657221 1.003354 -0.061251
C -1.400869 0.058376 0.823355
H -1.257684 -1.262939 -0.849910
H 1.044673 -2.127364 -0.168663
H 2.612880 -0.039946 0.365342
H 1.117666 2.031055 -0.191544
H -1.091416 1.359651 -1.001331
H -2.435516 0.097811 0.773702
12
Aligned to gpa_Type_3.xyz, RMSD 0.13697
C -0.884749 -1.047580 -0.112864
C 0.604943 -1.102538 -0.226405
C 1.435197 0.133348 -0.093488
C 0.743734 1.262924 0.247952
C -0.731791 1.515449 -0.040046
C -1.467629 0.129860 0.304014
H -1.344047 -1.993852 -0.155608
H 1.070525 -2.159133 -0.184059
H 2.374168 0.027087 0.116814
H 1.404915 2.109925 0.437971
H -0.662800 1.084113 -1.004170
H -2.542466 0.040399 0.709888
12
Aligned to gpa_Type_3.xyz, RMSD 0.14933
C -0.894941 -1.066129 -0.066668
C 0.526013 -1.099815 -0.204160
C 1.323052 0.170721 -0.157593
C 0.709221 1.299583 0.270420
C -0.798194 1.449783 -0.027268
C -1.439833 0.162907 0.285906
H -1.418530 -2.064641 0.082149
H 1.093810 -2.149749 -0.218351
H 2.375732 0.032488 -0.047635
H 1.380368 2.079737 0.610115
H -0.339714 1.249338 -1.158806
H -2.516985 -0.064223 0.631893
12
Aligned to gpa_Type_2.xyz, RMSD 0.14913
C -0.982186 -1.120283 -0.598265
C 0.470994 -1.158443 -0.134935
C 1.341266 0.053692 0.176549
C 0.753072 1.288430 -0.002665
C -0.669038 1.317671 -0.116396
C -1.412300 0.063401 0.224120
H -1.359534 -2.000486 -0.643040
H 0.978657 -2.096107 0.166146
H 2.216538 -0.072956 0.690364
H 1.457094 2.218559 -0.072850
H -1.091166 1.716502 -1.015317
H -1.703396 -0.209983 1.326290
12
Aligned to gpa_Type_2.xyz, RMSD 0.24920
C -0.872338 -1.062347 -0.405563
C 0.451476 -1.065729 0.075570
C 1.360951 -0.074431 0.205725
C 0.816773 1.161847 -0.046400
C -0.751876 1.228871 -0.095773
C -1.555050 0.102785 0.311313
H -1.065149 -1.688031 -1.058067
H 0.864966 -1.934494 0.355432
H 2.327538 -0.238017 0.489233
H 1.318958 2.147700 -0.188100
H -1.176311 1.654513 -1.037104
H -1.719937 -0.232668 1.393735
12
Aligned to gpa_Type_2.xyz, RMSD 0.31992
C -0.863495 -1.102539 -0.300450
C 0.497013 -1.070505 0.076360
C 1.400097 -0.028241 0.223530
C 0.779855 1.167967 0.014240
C -0.804973 1.226478 -0.085497
C -1.562890 0.081472 0.381889
H -1.091898 -1.790972 -1.356905
H 0.740096 -2.138559 0.546478
H 2.534115 -0.054366 0.300935
H 1.340129 2.123853 -0.217946
H -1.149746 1.703071 -0.948295
H -1.818300 -0.117659 1.365663
12
Aligned to gpa_Type_1.xyz, RMSD 0.25535
C -0.783354 -0.976033 0.202623
C 0.710812 -1.237980 0.123400
C 1.551017 -0.081339 0.030391
C 0.723376 1.146375 0.127173
C -0.717942 1.114706 -0.147780
C -1.471851 0.105117 0.775247
H -1.337927 -1.468261 -0.613630
H 1.040024 -2.119067 -0.196372
H 2.743164 -0.105686 0.086150
H 1.156045 2.237013 0.210729
H -0.954299 1.414070 -1.166868
H -2.659068 -0.028915 0.568935
12
Aligned to gpa_Type_1.xyz, RMSD 0.20200
C -0.771200 -1.016015 -0.246298
C 0.669646 -1.200686 0.230673
C 1.593837 -0.068172 0.151042
C 0.876461 1.132289 0.068062
C -0.608965 0.948390 -0.250588
C -1.570073 0.016163 0.496257
H -1.274617 -1.773949 -0.866139
H 0.857766 -2.156149 -0.023945
H 2.730268 0.014471 0.278652
H 1.085205 2.255875 -0.029573
H -1.102862 1.719550 -0.882176
H -2.485466 0.128234 1.074033
12
Aligned to gpa_Type_1.xyz, RMSD 0.22471
C -0.686523 -0.952145 -0.044279
C 0.713231 -1.290647 0.149013
C 1.526706 -0.149309 0.173341
C 0.655834 0.985994 -0.091527
C -0.787408 1.084918 -0.073027
C -1.555224 0.088062 0.637692
H -1.099048 -1.324685 -0.938398
H 1.090993 -2.291124 -0.067877
H 2.599842 0.163023 0.279363
H 1.106972 1.957084 -0.008681
H -1.005136 1.596873 -1.092798
H -2.560238 0.131955 1.077176
12
Aligned to gpa_Type_1.xyz, RMSD 0.15824
C -0.684567 -0.837931 -0.087879
C 0.725338 -1.152018 0.102284
C 1.494315 -0.003163 0.194786
C 0.628195 1.099553 0.006554
C -0.786001 1.130874 -0.134954
C -1.463699 0.161493 0.646177
H -1.283732 -1.551979 -0.842457
H 1.214529 -2.108322 -0.113628
H 2.555806 -0.267421 0.327787
H 1.181586 2.013375 -0.014947
H -1.096692 1.453884 -1.034046
H -2.485079 0.061657 0.950323
12
Aligned to gpa_Type_1.xyz, RMSD 0.26012
C -0.822684 -1.083017 -0.147844
C 0.623640 -1.223207 0.054007
C 1.470172 -0.140493 0.174691
C 0.692212 1.083591 -0.042414
C -0.759105 1.089215 -0.148328
C -1.462167 0.060572 0.508694
H -1.326397 -1.417504 -0.943156
H 1.177380 -2.133671 -0.054840
H 2.395966 0.051660 0.472815
H 1.232294 2.131572 0.058815
H -1.058414 1.475781 -1.213811
H -2.162900 0.105502 1.281371
12
Aligned to gpa_Type_2.xyz, RMSD 0.20157
C -0.842286 -1.145241 -0.434104
C 0.517722 -1.071266 -0.153478
C 1.407008 0.001013 0.158852
C 0.824844 1.295170 0.089385
C -0.607438 1.120006 -0.194579
C -1.294526 -0.009230 0.354839
H -1.506282 -1.880252 -0.799138
H 0.819443 -1.954410 0.222063
H 2.416450 -0.106942 0.352946
H 1.191430 2.292414 0.310432
H -1.093443 1.363802 -1.170657
H -1.832923 0.094934 1.263440
12
Aligned to gpa_Type_3.xyz, RMSD 0.17985
C -0.887226 -1.098306 -0.036951
C 0.514791 -1.195093 -0.235451
C 1.340247 0.026973 0.118155
C 0.758306 1.315860 0.264102
C -0.805799 1.477468 -0.071925
C -1.456584 0.088034 0.296038
H -1.624774 -2.040915 0.105109
H 1.231189 -1.997739 -0.533092
H 2.367377 0.049310 0.084483
H 1.328644 2.247422 0.554785
H -0.363132 1.075078 -1.290820
H -2.403041 0.051911 0.745568
12
Aligned to gpa_Type_3.xyz, RMSD 0.16142
C -0.886521 -1.124376 -0.092988
C 0.488920 -1.190417 -0.294501
C 1.311187 0.024021 0.156028
C 0.746269 1.284066 0.199049
C -0.806078 1.435750 -0.091359
C -1.440982 0.104495 0.274161
H -1.572254 -1.901678 0.092865
H 1.114983 -1.967009 -0.436182
H 2.464812 0.183397 0.075189
H 1.351989 2.122584 0.500650
H -0.374577 1.035458 -1.087794
H -2.397751 -0.006288 0.704883
12
Aligned to gpa_Type_1.xyz, RMSD 0.26190
C -0.761608 -1.088833 -0.113112
C 0.642779 -1.236718 0.182520
C 1.515284 -0.076817 0.031255
C 0.800079 1.150366 0.075926
C -0.704596 1.019175 0.165802
C -1.450937 -0.021234 0.797842
H -1.108248 -1.338703 -1.138173
H 0.960592 -2.193177 0.290714
H 2.688980 0.065748 0.124394
H 1.194613 2.035107 -0.325315
H -1.226209 1.491203 -0.604703
H -2.550730 0.193884 0.512849
12
Aligned to gpa_Type_2.xyz, RMSD 0.29546
C -0.966204 -1.253186 -0.349325
C 0.487864 -1.115460 0.008617
C 1.222045 0.003518 0.521218
C 0.665011 1.207002 -0.023801
C -0.671114 1.263861 -0.262686
C -1.167641 -0.035643 0.338824
H -1.358581 -2.037026 -1.081917
H 0.949031 -2.070884 -0.003340
H 2.271840 -0.013411 0.818817
H 1.303182 1.989194 -0.386628
H -1.236666 2.000224 -0.891937
H -1.498767 0.061810 1.312160
12
Aligned to gpa_Type_1.xyz, RMSD 0.21106
C -0.762972 -0.917177 -0.000533
C 0.703212 -1.173854 0.190639
C 1.654576 -0.110425 0.137860
C 0.901596 1.025857 0.007445
C -0.636645 0.935534 0.011853
C -1.551932 0.029812 0.680022
H -1.307643 -1.297490 -0.742743
H 1.019795 -2.206704 -0.076137
H 2.753660 0.066918 0.260126
H 1.154699 2.058490 -0.179060
H -1.399369 1.459038 -0.693702
H -2.528980 0.130001 0.404229
12
Aligned to gpa_Type_2.xyz, RMSD 0.29571
C -0.941296 -1.214810 -0.485132
C 0.476861 -1.192823 -0.138062
C 1.258220 -0.044130 0.428138
C 0.734554 1.243419 -0.080303
C -0.553350 1.270367 -0.271309
C -1.160302 -0.028071 0.239084
H -1.677895 -1.852981 -0.908835
H 1.026726 -2.167237 0.092305
H 2.182771 0.178803 0.939926
H 1.325540 2.121931 -0.214950
H -1.287328 1.789665 -0.940603
H -1.384501 -0.104133 1.339742
12
Aligned to gpa_Type_1.xyz, RMSD 0.20420
C -0.740681 -0.872795 -0.002939
C 0.712555 -1.190019 0.202520
C 1.638255 -0.069078 0.129002
C 0.837141 1.047169 -0.012628
C -0.646951 0.987199 -0.048359
C -1.571192 0.102794 0.646769
H -1.437312 -1.346685 -0.753166
H 1.090412 -2.272285 -0.034693
H 2.675461 0.190578 0.134919
H 1.243523 2.016018 -0.047820
H -1.152339 1.388129 -0.710950
H -2.648874 0.018976 0.497343
12
Aligned to gpa_Type_2.xyz, RMSD 0.29488
C -0.859735 -1.005257 -0.237315
C 0.624997 -1.055204 0.018768
C 1.411813 -0.041307 0.456745
C 0.699276 1.253367 0.204291
C -0.954822 1.211842 -0.091045
C -1.505060 0.038194 0.404872
H -1.192634 -1.640979 -0.980307
H 0.881062 -2.113925 -0.292665
H 2.506100 -0.094916 0.784280
H 1.190948 1.877336 -0.423720
H -1.060697 1.502880 -1.234152
H -1.741247 0.067967 1.390248
12
Aligned to gpa_Type_3.xyz, RMSD 0.14320
C -0.777110 -1.063071 0.020113
C 0.597732 -1.032666 -0.193680
C 1.425734 0.126498 -0.098037
C 0.681215 1.263377 0.193997
C -0.729756 1.379829 -0.013942
C -1.470701 0.132844 0.238422
H -1.438470 -2.004775 0.089842
H 0.898018 -2.144730 -0.456323
H 2.505858 0.174421 0.148405
H 1.249654 1.995300 0.634109
H -0.496051 1.057849 -1.252937
H -2.446123 0.115125 0.690033
12
Aligned to gpa_Type_3.xyz, RMSD 0.14667
C -0.908073 -1.117919 -0.063492
C 0.564319 -1.093299 -0.212401
C 1.324078 0.025031 0.032975
C 0.830679 1.312872 0.109742
C -0.732856 1.405822 -0.048993
C -1.348314 0.143713 0.277633
H -1.510946 -1.982098 0.148323
H 1.123316 -1.858546 -0.547507
H 2.344620 0.004681 0.182917
H 1.251161 2.126410 0.628147
H -0.565163 0.931780 -1.146231
H -2.372822 0.101552 0.638888
12
Aligned to gpa_Type_1.xyz, RMSD 0.17078
C -0.820239 -1.056991 -0.062593
C 0.652859 -1.181618 0.251453
C 1.514763 -0.044685 0.036099
C 0.851649 1.128520 -0.028024
C -0.644957 0.866965 0.003847
C -1.537230 0.001403 0.686098
H -1.344055 -1.456894 -0.963082
H 1.109334 -2.116760 0.109186
H 2.679477 -0.046215 0.156186
H 1.193107 2.246308 -0.104523
H -1.033564 1.579011 -0.764796
H -2.621147 0.080956 0.680148
12
Aligned to gpa_Type_3.xyz, RMSD 0.33149
C -0.803256 -1.175330 -0.069988
C 0.570289 -1.132287 -0.165889
C 1.295059 0.057475 0.351298
C 0.615139 1.277817 0.200750
C -0.788909 1.298934 0.016007
C -1.371301 0.092109 0.473440
H -1.333893 -1.962206 -0.556781
H 1.040823 -1.900368 -0.458463
H 2.351489 0.026198 0.374031
H 1.331828 2.116279 -0.050073
H -0.555988 0.943124 -1.051377
H -2.351282 0.358256 0.937045
12
Aligned to gpa_Type_3.xyz, RMSD 0.30776
C -0.767741 -1.175587 -0.099387
C 0.591090 -1.126425 -0.179033
C 1.310940 0.044927 0.307900
C 0.620194 1.266630 0.160203
C -0.758836 1.320780 0.039118
C -1.405830 0.153698 0.464106
H -1.391642 -1.945246 -0.412270
H 1.026482 -2.144774 -0.540699
H 2.368409 0.219601 0.400332
H 1.248694 2.068278 0.077278
H -0.515546 0.963478 -1.161592
H -2.326216 0.354642 0.944047
12
Aligned to gpa_Type_2.xyz, RMSD 0.22736
C -0.827869 -0.937602 -0.392580
C 0.525615 -1.039123 -0.112110
C 1.340696 0.027604 0.343377
C 0.767259 1.288564 0.055528
C -0.783740 1.383251 -0.132967
C -1.301782 0.078118 0.463613
H -1.190315 -1.910359 -0.894478
H 0.780811 -2.259693 -0.104526
H 2.316081 -0.209927 0.884736
H 1.267444 2.164361 -0.335998
H -1.186169 1.553108 -1.174335
H -1.708030 -0.138303 1.399742
12
Aligned to gpa_Type_3.xyz, RMSD 0.17589
C -0.888046 -1.133479 -0.059335
C 0.510880 -1.067409 -0.143542
C 1.402302 0.107172 0.145446
C 0.732658 1.280290 0.196428
C -0.822630 1.478247 -0.174026
C -1.406255 0.152505 0.292925
H -1.363891 -2.101837 0.022639
H 1.078362 -1.935747 -0.566801
H 2.364769 -0.017386 0.217189
H 1.352667 2.035033 0.556921
H -0.622483 1.038560 -1.291599
H -2.338334 0.164052 0.803755
12
Aligned to gpa_Type_2.xyz, RMSD 0.16501
C -0.774322 -1.002534 -0.659687
C 0.508309 -1.123363 -0.066347
C 1.243216 0.041299 0.324096
C 0.636523 1.291153 0.020497
C -0.694253 1.211213 -0.172045
C -1.401954 -0.015528 0.221707
H -1.322292 -1.923064 -0.638133
H 0.724633 -2.205800 0.267361
H 2.426281 -0.024208 0.433196
H 1.405688 2.183185 0.013486
H -1.118620 1.717373 -1.004851
H -1.633208 -0.149725 1.260720
12
Aligned to gpa_Type_3.xyz, RMSD 0.22314
C -0.792877 -1.118931 -0.256012
C 0.524239 -1.127105 -0.148306
C 1.304274 0.137837 0.072359
C 0.780129 1.361336 0.167791
C -0.705833 1.429087 0.063183
C -1.452480 0.039294 0.307653
H -1.465786 -1.946924 -0.391974
H 1.044811 -2.001346 -0.046894
H 2.376182 -0.047708 0.094855
H 1.420866 2.205371 0.319187
H -0.697850 1.022255 -1.015605
H -2.335676 0.046835 0.833763
12
Aligned to gpa_Type_2.xyz, RMSD 0.20570
C -0.866934 -0.943886 -0.450639
C 0.482635 -1.030350 -0.083249
C 1.308741 -0.006449 0.346873
C 0.716505 1.220553 -0.009283
C -0.674841 1.165806 -0.229676
C -1.435827 0.023312 0.342442
H -1.343247 -1.752047 -0.823614
H 1.073955 -1.917403 -0.022151
H 2.258127 -0.341574 0.797901
H 1.199769 2.117997 -0.164463
H -1.128531 1.555579 -1.167681
H -1.590352 -0.091539 1.463540
12
Aligned to gpa_Type_2.xyz, RMSD 0.19843
C -0.933030 -1.096921 -0.412102
C 0.516964 -1.039795 -0.061381
C 1.265653 -0.014366 0.348055
C 0.715158 1.233559 0.028081
C -0.643219 1.085142 -0.250763
C -1.375827 0.025006 0.388161
H -1.646476 -1.903952 -0.936326
H 1.107515 -2.045381 -0.061940
H 2.315213 -0.097552 0.751957
H 1.204138 2.304549 -0.103344
H -0.921875 1.559786 -1.172387
H -1.604212 -0.010074 1.481990
12
Aligned to gpa_Type_2.xyz, RMSD 0.19739
C -0.981651 -1.298343 -0.385690
C 0.596096 -1.136794 -0.081385
C 1.270691 0.034163 0.349035
C 0.730054 1.291522 0.106517
C -0.585971 1.028889 -0.266548
C -1.286212 0.001858 0.428970
H -1.592931 -1.863694 -0.901549
H 0.974857 -2.069419 -0.074652
H 2.283829 0.144971 0.568758
H 1.194220 2.151569 -0.003308
H -0.861838 1.601364 -1.138658
H -1.741143 0.113913 1.398513
12
Aligned to gpa_Type_2.xyz, RMSD 0.30101
C -0.919980 -0.993022 -0.240466
C 0.566011 -1.152682 -0.208986
C 1.339752 0.089681 -0.016028
C 0.727661 1.317074 0.113918
C -0.765721 1.391456 0.049572
C -1.465347 0.139209 0.399111
H -1.220388 -1.933426 -0.328892
H 1.131887 -2.131208 -0.373081
H 2.117440 -0.164737 0.631511
H 1.385278 2.207595 0.055959
H -0.711787 1.274223 -1.190589
H -2.184805 -0.044163 1.107973
12
Aligned to gpa_Type_2.xyz, RMSD 0.30740
C -0.778312 -1.097901 -0.332934
C 0.615682 -1.172786 -0.034900
C 1.398259 -0.050998 0.138441
C 0.826053 1.254636 -0.114660
C -0.666459 1.162190 -0.319519
C -1.383879 0.102958 0.377806
H -1.405776 -1.687128 -1.158601
H 0.979099 -2.168398 0.213487
H 2.197018 -0.239924 0.783739
H 1.073208 2.239640 0.001909
H -1.361784 1.492775 -0.932118
H -1.493108 0.164936 1.377350
12
Aligned to gpa_Type_2.xyz, RMSD 0.30709
C -0.870183 -0.957448 -0.373159
C 0.531153 -1.200856 -0.068429
C 1.348323 -0.056850 0.151424
C 0.766967 1.162205 -0.190969
C -0.669619 1.239645 -0.385054
C -1.357752 0.134564 0.316341
H -1.203976 -1.709683 -0.964823
H 0.895317 -2.102272 0.425547
H 2.365234 -0.311086 0.567699
H 1.102460 2.196392 0.258591
H -1.397441 1.748503 -1.189100
H -1.510482 -0.143114 1.451934
12
Aligned to gpa_Type_2.xyz, RMSD 0.30770
C -0.751607 -0.976254 -0.195737
C 0.686326 -1.185542 -0.090719
C 1.417912 -0.071364 0.252843
C 0.703030 1.136065 0.041583
C -0.778244 1.218874 -0.117635
C -1.562236 0.166784 0.433837
H -1.201108 -1.604928 -1.074911
H 1.166623 -2.222555 -0.020020
H 2.457966 -0.233991 0.524713
H 1.159988 2.132379 -0.037009
H -1.195356 1.359019 -1.212038
H -2.103292 0.281510 1.495094
12
Aligned to gpa_Type_1.xyz, RMSD 0.32164
C -0.805072 -1.210883 -0.030842
C 0.673978 -1.111889 0.074410
C 1.433300 0.009786 0.234975
C 0.805700 1.098344 -0.159380
C -0.672885 1.024226 -0.257703
C -1.549932 -0.113349 0.486674
H -1.299341 -1.241037 -1.125586
H 0.890379 -2.123559 0.083710
H 2.431823 0.151191 0.422941
H 1.234419 2.001953 -0.002438
H -0.975393 1.562229 -1.119871
H -2.166976 -0.047013 1.393108
12
Aligned to gpa_Type_3.xyz, RMSD 0.17402
C -0.843811 -1.054484 -0.006980
C 0.562665 -1.067553 -0.230722
C 1.365873 0.015031 -0.028755
C 0.696484 1.236428 0.236868
C -0.638985 1.513385 -0.131745
C -1.364482 0.211931 0.205873
H -1.387002 -1.976936 0.044615
H 1.070925 -1.971052 -0.420103
H 2.326677 -0.124675 0.152204
H 1.180155 2.184568 0.703447
H -0.685223 0.998027 -1.318095
H -2.283277 0.035331 0.793392
12
Aligned to gpa_Type_3.xyz, RMSD 0.31495
C -0.827182 -1.192349 -0.221675
C 0.493192 -1.091666 -0.002939
C 1.347919 0.112894 0.142860
C 0.780688 1.419008 0.072069
C -0.731904 1.320582 0.111313
C -1.513900 0.059296 0.252276
H -1.258460 -2.124302 -0.513746
H 1.024013 -2.025348 -0.297000
H 2.304760 -0.139563 0.377523
H 1.490365 2.301951 0.044295
H -0.657760 1.176304 -0.953694
H -2.451732 0.183194 0.988719
12
Aligned to gpa_Type_3.xyz, RMSD 0.18056
C -0.824159 -1.012654 -0.208356
C 0.591345 -1.080782 -0.196083
C 1.353815 0.055603 -0.000878
C 0.750122 1.281366 0.194116
C -0.811890 1.426322 0.028863
C -1.431465 0.079000 0.265438
H -1.294764 -2.007210 -0.208437
H 0.915148 -2.017210 -0.160312
H 2.373372 -0.035951 0.214392
H 1.337588 2.098815 0.296626
H -0.638354 1.167078 -1.018864
H -2.320760 0.045623 0.793495
12
Aligned to gpa_Type_2.xyz, RMSD 0.27808
C -0.631256 -0.931272 -0.460399
C 0.660095 -1.177900 0.091213
C 1.404260 -0.057273 0.378309
C 0.811854 1.137762 -0.052452
C -0.823747 1.216603 -0.106584
C -1.541083 0.055337 0.424902
H -1.234912 -1.670454 -0.917178
H 0.768053 -2.147541 0.053732
H 2.394719 0.101319 0.656881
H 1.365572 1.906792 -0.417927
H -1.227594 1.766619 -0.957370
H -1.945960 -0.199992 1.306874
12
Aligned to gpa_Type_2.xyz, RMSD 0.24067
C -0.769084 -0.794213 -0.470275
C 0.500930 -1.022763 -0.068971
C 1.355698 0.026089 0.361062
C 0.725680 1.218444 -0.015926
C -0.736971 1.257465 -0.179267
C -1.492514 0.054211 0.356554
H -1.122305 -1.816887 -0.787536
H 0.931338 -1.999987 0.014639
H 2.194823 -0.403620 0.783769
H 1.356882 2.083880 -0.295224
H -1.296423 1.553178 -1.026058
H -1.648053 -0.155798 1.327235
12
Aligned to gpa_Type_1.xyz, RMSD 0.33160
C -0.817879 -1.011755 -0.178824
C 0.632011 -1.074998 -0.125084
C 1.402173 -0.018871 0.422124
C 0.738033 1.135216 -0.020628
C -0.667128 1.135795 -0.153013
C -1.363212 0.041102 0.660494
H -1.525587 -1.499668 -0.740006
H 0.998368 -2.071080 -0.403862
H 2.604887 -0.000383 0.691850
H 1.165301 2.195770 -0.120697
H -0.849465 1.149958 -1.244646
H -2.317503 0.018914 1.212292
12
Aligned to gpa_Type_2.xyz, RMSD 0.18497
C -0.895885 -1.059542 -0.494540
C 0.548399 -1.216121 -0.212089
C 1.298746 0.052178 0.296273
C 0.739065 1.273449 0.001320
C -0.662691 1.197668 -0.115497
C -1.261415 -0.006820 0.311070
H -1.530974 -1.767465 -0.817172
H 1.100886 -2.189434 0.043853
H 2.206478 -0.096175 0.796378
H 1.149138 2.249065 -0.181920
H -0.964246 1.584803 -1.112538
H -1.727500 -0.021608 1.484862
12
Aligned to gpa_Type_3.xyz, RMSD 0.16888
C -0.773404 -1.127820 -0.011279
C 0.585966 -1.118945 -0.117312
C 1.351081 0.125221 -0.022131
C 0.643978 1.337717 0.181306
C -0.821581 1.398069 0.086649
C -1.515902 0.029335 0.393470
H -1.503837 -2.017737 -0.186668
H 1.137356 -1.971499 -0.202630
H 2.406795 0.065821 -0.014279
H 1.501965 1.973629 0.438958
H -0.446235 1.201262 -1.202600
H -2.566182 0.104948 0.656518
12
Aligned to gpa_Type_3.xyz, RMSD 0.14192
C -0.898506 -1.072192 -0.019096
C 0.573303 -1.116889 -0.189153
C 1.301933 0.025041 -0.061439
C 0.729250 1.257109 0.208957
C -0.694049 1.406271 0.092683
C -1.629086 0.071440 0.385662
H -1.297320 -2.001838 -0.133531
H 1.135837 -2.076936 -0.359932
H 2.380275 0.076222 0.124450
H 1.384100 2.193183 0.384440
H -0.362473 1.090658 -1.132712
H -2.623265 0.147933 0.699672
12
Aligned to gpa_Type_3.xyz, RMSD 0.14432
C -0.970284 -1.146121 0.061863
C 0.514278 -0.981779 -0.258977
C 1.350682 0.039581 -0.017909
C 0.746050 1.210956 0.133249
C -0.603354 1.368452 0.003831
C -1.502719 0.151591 0.228558
H -1.404493 -2.166563 -0.021421
H 1.008485 -1.972378 -0.463014
H 2.403602 0.115688 0.216230
H 1.225086 2.174341 0.467451
H -0.411821 1.040777 -1.051411
H -2.355513 0.165455 0.701551
12
Aligned to gpa_Type_2.xyz, RMSD 0.20268
C -0.903584 -1.067226 -0.348209
C 0.594472 -1.208175 -0.022719
C 1.328764 -0.057755 0.080051
C 0.721819 1.257237 0.027311
C -0.706844 1.189198 -0.258538
C -1.356545 0.157882 0.500028
H -1.309551 -1.810306 -1.029089
H 1.105239 -2.122209 0.132800
H 2.264970 -0.168585 0.541261
H 1.176693 2.209879 0.053566
H -1.022337 1.542499 -1.148563
H -1.893096 0.077560 1.472103
12
Aligned to gpa_Type_2.xyz, RMSD 0.27968
C -0.850808 -0.915760 -0.232772
C 0.575366 -1.064460 -0.163422
C 1.372540 -0.020853 0.355148
C 0.735810 1.147199 0.017891
C -0.608749 1.179495 -0.082121
C -1.419298 0.073839 0.569730
H -1.400730 -1.678475 -0.874289
H 1.087903 -1.984963 -0.298670
H 2.282849 0.023891 0.650928
H 1.243252 2.048591 -0.071266
H -0.936510 1.101083 -1.249082
H -2.081623 0.090414 1.377925
12
Aligned to gpa_Type_3.xyz, RMSD 0.14597
C -0.868792 -1.028254 -0.090714
C 0.559750 -1.065047 -0.190387
C 1.266689 0.108608 0.048812
C 0.690757 1.361396 0.184566
C -0.707296 1.361757 0.013370
C -1.316903 0.119947 0.407179
H -1.298880 -1.969949 -0.103463
H 0.967352 -2.146051 -0.425819
H 2.445967 -0.152296 0.108725
H 1.118727 2.292795 0.462651
H -0.466882 0.957885 -1.076094
H -2.390489 0.159209 0.661176
12
Aligned to gpa_Type_3.xyz, RMSD 0.17405
C -0.772115 -1.019507 -0.073091
C 0.633487 -1.099913 -0.224046
C 1.321178 0.080552 -0.025326
C 0.718048 1.345230 0.170501
C -0.643384 1.314252 0.075016
C -1.361539 0.157113 0.425786
H -1.291207 -1.953242 -0.066234
H 1.010153 -2.158682 -0.478526
H 2.205175 -0.090341 0.192989
H 1.169206 2.280270 0.324768
H -0.466163 0.958953 -0.852204
H -2.522840 0.185316 0.530369
12
Aligned to gpa_Type_2.xyz, RMSD 0.30757
C -0.814494 -1.089380 -0.163282
C 0.672506 -1.193792 0.048296
C 1.339956 -0.091838 0.389479
C 0.701433 1.152771 0.018229
C -0.724196 1.147863 -0.393439
C -1.514598 0.106980 0.480887
H -1.260996 -1.601197 -0.922583
H 1.066369 -2.159366 -0.300804
H 2.401014 0.082321 0.506270
H 1.424175 2.021007 0.155151
H -1.260767 1.424034 -1.286849
H -2.030401 0.200597 1.468646
12
Aligned to gpa_Type_2.xyz, RMSD 0.33920
C -0.899559 -0.968022 -0.418044
C 0.497225 -1.019238 -0.209458
C 1.159812 -0.025493 0.454388
C 0.718608 1.288871 0.134181
C -0.704645 1.356350 -0.094351
C -1.296564 0.098507 0.316761
H -1.219566 -2.001598 -0.464646
H 0.853057 -2.028045 -0.585517
H 1.996509 -0.127501 1.071842
H 1.458591 2.157413 -0.242847
H -1.120871 1.332630 -1.277380
H -1.442597 -0.063875 1.315073
12
Aligned to gpa_Type_2.xyz, RMSD 0.26590
C -0.717858 -0.977549 -0.358532
C 0.636050 -1.257728 0.019333
C 1.350314 -0.057920 0.034683
C 0.837335 1.156691 -0.122285
C -0.629722 1.113238 -0.292197
C -1.476678 0.040884 0.306734
H -1.327225 -1.823854 -0.961318
H 0.904109 -2.193593 0.410220
H 2.221726 0.094946 0.401938
H 1.243319 2.081497 0.136054
H -1.178134 1.881070 -0.960751
H -1.863235 -0.057684 1.386121
12
Aligned to gpa_Type_1.xyz, RMSD 0.19460
C -0.774852 -0.908672 -0.124988
C 0.646879 -1.213379 0.012390
C 1.450718 -0.137314 -0.015499
C 0.892521 1.133057 -0.096057
C -0.636359 1.006753 -0.258262
C -1.476627 0.103442 0.653582
H -1.334040 -1.684581 -0.544461
H 1.181664 -2.204664 0.105836
H 2.426567 0.163845 0.166340
H 1.366899 2.033623 0.268494
H -1.183337 1.692203 -0.770493
H -2.560034 0.015689 0.603115
12
Aligned to gpa_Type_2.xyz, RMSD 0.31022
C -0.814661 -1.127032 -0.431112
C 0.536054 -1.269975 -0.117566
C 1.279821 -0.132316 -0.088078
C 0.796581 1.133230 -0.166609
C -0.710137 1.119014 -0.293697
C -1.509401 0.072113 0.343173
H -1.295104 -1.716876 -1.016424
H 1.041700 -1.999899 0.586797
H 2.359279 0.049003 0.509953
H 1.314701 2.054074 0.140052
H -1.194651 1.823899 -0.839537
H -1.804181 -0.005235 1.373048
12
Aligned to gpa_Type_2.xyz, RMSD 0.23417
C -0.797069 -1.078551 -0.353160
C 0.684861 -1.163362 -0.125305
C 1.297271 0.010744 0.075966
C 0.621053 1.239933 0.010504
C -0.681480 1.125662 -0.374956
C -1.459085 0.059661 0.401727
H -1.578827 -1.737907 -0.777299
H 1.092284 -2.211210 -0.012234
H 2.225609 -0.064349 0.736864
H 1.264811 2.199883 0.210898
H -1.048827 1.594134 -1.274788
H -1.620601 0.025362 1.481784
12
Aligned to gpa_Type_2.xyz, RMSD 0.24829
C -0.811032 -1.013884 -0.197305
C 0.581683 -1.241649 0.026630
C 1.312178 -0.122869 0.192361
C 0.655608 1.108091 0.113328
C -0.825366 1.149931 -0.226733
C -1.517667 0.092510 0.415314
H -1.194391 -1.554774 -1.056587
H 0.998286 -2.146708 0.051021
H 2.425204 0.063808 0.551567
H 1.270032 2.044180 -0.179979
H -1.035289 1.578534 -1.075172
H -1.859244 0.042830 1.385556
12
Aligned to gpa_Type_2.xyz, RMSD 0.19308
C -0.847695 -1.071848 -0.380464
C 0.549268 -1.169929 -0.053081
C 1.299921 0.027512 0.216526
C 0.766583 1.260512 0.207702
C -0.779316 1.303581 0.103761
C -1.408465 0.039490 0.229245
H -1.410430 -1.958454 -0.786547
H 0.946425 -2.207986 0.204801
H 2.437940 0.092939 0.135543
H 1.253928 2.170512 0.037425
H -0.774339 1.482011 -1.112451
H -2.033819 0.031662 1.197539
12
Aligned to gpa_Type_2.xyz, RMSD 0.20408
C -0.801569 -1.114955 -0.297144
C 0.546010 -1.162160 -0.053779
C 1.289139 0.034111 0.184890
C 0.757882 1.360707 0.151936
C -0.756713 1.273278 0.037805
C -1.327587 0.043151 0.273682
H -1.354282 -1.774554 -0.749251
H 0.913849 -2.216413 0.092874
H 2.397971 -0.172846 0.257963
H 1.133175 2.370938 0.008978
H -0.784624 1.313046 -1.030620
H -2.013251 0.045696 1.122666
12
Aligned to gpa_Type_2.xyz, RMSD 0.23512
C -0.866960 -1.037425 -0.486871
C 0.504643 -1.004361 -0.182612
C 1.392172 0.042722 0.270112
C 0.782180 1.281101 0.154132
C -0.673242 1.206989 -0.119545
C -1.384711 0.046375 0.367016
H -1.579444 -1.887582 -0.488988
H 0.978141 -1.880308 -0.279693
H 2.319941 0.062878 0.828558
H 1.447708 2.051807 -0.270266
H -0.852753 1.425557 -1.117349
H -2.067674 -0.307753 1.325505
12
Aligned to gpa_Type_2.xyz, RMSD 0.25319
C -0.961187 -1.112752 -0.315524
C 0.611628 -1.048701 -0.266075
C 1.368459 0.114726 0.304095
C 0.678840 1.343328 0.110591
C -0.761125 1.243008 -0.163475
C -1.378224 -0.030454 0.551005
H -1.431415 -1.967687 -0.747297
H 1.076687 -1.979729 -0.346729
H 2.245137 -0.253506 0.733451
H 1.292391 2.227652 -0.015333
H -0.784075 1.277243 -1.291859
H -1.957116 0.186870 1.447151
12
Aligned to gpa_Type_1.xyz, RMSD 0.26383
C -0.813315 -0.979939 0.063823
C 0.684073 -1.065511 0.140007
C 1.523995 0.068973 0.301045
C 0.731248 1.177523 0.150266
C -0.786022 1.053462 -0.120548
C -1.543976 -0.037060 0.647676
H -1.226643 -1.405715 -0.792068
H 1.054215 -1.938698 -0.387289
H 2.573495 -0.132718 0.333426
H 1.385624 1.928567 -0.149983
H -0.993347 1.266681 -1.167379
H -2.589348 0.064435 0.981021
12
Aligned to gpa_Type_1.xyz, RMSD 0.29749
C -0.849566 -1.017425 -0.203021
C 0.671501 -1.205116 0.214198
C 1.466380 -0.121561 0.496959
C 0.755967 1.047757 0.117995
C -0.798570 1.051578 -0.139883
C -1.588832 0.091268 0.549474
H -1.025803 -1.502308 -1.088285
H 1.187028 -2.032778 -0.172157
H 2.678034 -0.066188 0.370179
H 1.098315 1.857348 -0.463388
H -1.113532 1.741995 -0.934697
H -2.480923 0.155431 1.252624
12
Aligned to gpa_Type_3.xyz, RMSD 0.20521
C -0.792260 -1.086297 -0.121331
C 0.552835 -1.020864 -0.241990
C 1.332212 0.030831 0.099791
C 0.717191 1.394307 0.213615
C -0.777942 1.540910 -0.099362
C -1.414459 0.118497 0.486612
H -1.266941 -2.102689 -0.169858
H 1.003609 -2.105617 -0.482319
H 2.332200 -0.178126 0.352029
H 1.379424 2.283073 0.324713
H -0.644051 1.010348 -1.119211
H -2.421820 0.115628 0.757311
12
Aligned to gpa_Type_3.xyz, RMSD 0.17501
C -0.838646 -1.120019 -0.147563
C 0.582707 -1.057943 -0.179882
C 1.348101 0.105853 0.089964
C 0.694665 1.335795 0.209408
C -0.761560 1.473484 -0.027732
C -1.391502 0.083016 0.468140
H -1.308643 -2.042208 -0.251140
H 1.002411 -2.017386 -0.332482
H 2.422211 -0.147164 0.217190
H 1.302240 2.173784 0.327348
H -0.586069 1.059284 -1.181392
H -2.465916 0.153505 0.808143
12
Aligned to gpa_Type_3.xyz, RMSD 0.31586
C -0.889307 -1.048273 -0.109320
C 0.602012 -1.132822 -0.037040
C 1.376021 0.086034 0.196053
C 0.796958 1.350316 0.155657
C -0.628414 1.210410 0.235064
C -1.515948 0.067706 0.283524
H -1.297781 -1.928654 -0.557168
H 0.893019 -2.127235 -0.394341
H 2.505700 0.035570 0.346536
H 1.200475 2.286796 0.025955
H -0.633935 0.968172 -1.116365
H -2.408802 0.231982 0.971445
12
Aligned to gpa_Type_3.xyz, RMSD 0.17671
C -0.838870 -1.053833 -0.056729
C 0.627049 -1.120876 -0.248199
C 1.383853 0.105943 -0.065889
C 0.775124 1.347006 0.169825
C -0.653184 1.312443 0.157482
C -1.462916 0.050350 0.191665
H -1.382417 -1.991234 -0.018095
H 0.936172 -2.180992 -0.461380
H 2.461626 0.146217 0.291567
H 1.416673 2.241126 0.315284
H -0.651923 0.968950 -0.837638
H -2.611189 0.174902 0.562107
12
Aligned to gpa_Type_2.xyz, RMSD 0.18688
C -0.898485 -1.083043 -0.524525
C 0.537350 -1.235319 -0.069097
C 1.263723 -0.047674 0.022076
C 0.703293 1.236112 0.074362
C -0.645559 1.158689 -0.276934
C -1.314646 0.003319 0.379519
H -1.550515 -1.841696 -0.640756
H 1.167822 -1.960732 0.141712
H 2.280477 0.022208 0.479486
H 1.321222 2.112592 0.283169
H -1.006039 1.632879 -1.213104
H -1.858642 0.002665 1.344093
12
Aligned to gpa_Type_2.xyz, RMSD 0.24098
C -0.946805 -0.969097 -0.421207
C 0.539609 -1.132602 -0.009393
C 1.229332 -0.042750 0.294869
C 0.686367 1.138025 -0.007722
C -0.722751 1.197363 -0.304141
C -1.469039 0.105857 0.396394
H -1.371157 -1.906134 -0.973648
H 0.945807 -2.229470 0.072494
H 2.210435 0.271563 0.661952
H 1.378070 1.952850 0.004537
H -1.086502 1.661755 -1.120637
H -1.393365 -0.047361 1.406501
12
Aligned to gpa_Type_1.xyz, RMSD 0.28731
C -0.802730 -1.158601 -0.250758
C 0.615744 -1.171866 0.029441
C 1.406841 -0.001937 0.143894
C 0.722798 1.152607 -0.046224
C -0.665140 1.210315 -0.145046
C -1.504890 0.011589 0.586508
H -1.242649 -1.632106 -1.057532
H 1.137118 -2.033473 0.073891
H 2.442484 -0.148658 0.373069
H 1.258623 2.159487 0.130652
H -1.046722 1.439751 -1.234192
H -2.321478 0.172892 1.396296
12
Aligned to gpa_Type_1.xyz, RMSD 0.23194
C -0.798023 -1.041894 -0.118330
C 0.591237 -1.299362 0.338835
C 1.416264 -0.019828 0.277801
C 0.774675 1.079038 -0.041872
C -0.649689 0.971782 -0.229210
C -1.502616 -0.090441 0.637532
H -1.051049 -1.386305 -1.080208
H 1.102400 -2.049970 -0.110482
H 2.494535 0.025689 0.271229
H 1.347911 2.057885 -0.151127
H -1.174662 1.559217 -0.944975
H -2.550984 0.194188 1.150806
12
Aligned to gpa_Type_1.xyz, RMSD 0.15110
C -0.771460 -0.980165 -0.099184
C 0.703285 -1.165798 0.050646
C 1.440362 -0.041050 0.182985
C 0.800800 1.222710 0.059616
C -0.687942 1.102602 -0.205122
C -1.499921 0.161477 0.776333
H -1.234536 -1.715102 -0.710976
H 1.053343 -2.130531 -0.057359
H 2.605454 -0.054790 0.165062
H 1.413568 2.001742 0.131559
H -1.287933 1.591480 -1.024973
H -2.535020 0.007425 0.731413
12
Aligned to gpa_Type_3.xyz, RMSD 0.18795
C -0.800891 -1.106238 -0.113573
C 0.612242 -1.098045 -0.307312
C 1.356510 0.124895 0.118381
C 0.625187 1.279498 0.213501
C -0.727031 1.344760 -0.071447
C -1.395462 0.123111 0.162730
H -1.417224 -2.043801 0.009179
H 0.930130 -2.092396 -0.513835
H 2.431150 0.120580 0.296072
H 1.238556 2.100093 0.462445
H -0.532125 0.964920 -1.163264
H -2.321044 0.282625 0.907124
12
Aligned to gpa_Type_3.xyz, RMSD 0.18140
C -0.862422 -1.095907 -0.082816
C 0.576310 -1.124463 -0.221915
C 1.372862 0.044499 -0.002060
C 0.733944 1.237677 0.112735
C -0.734525 1.408008 -0.082554
C -1.448340 0.137053 0.290571
H -1.368289 -1.993665 -0.015394
H 0.921927 -2.160643 -0.496278
H 2.389305 0.298153 0.316134
H 1.322872 2.079555 0.552463
H -0.595089 0.982865 -1.145693
H -2.308556 0.186869 0.774808
12
Aligned to gpa_Type_3.xyz, RMSD 0.17599
C -0.868108 -1.072276 -0.103872
C 0.593602 -1.050226 -0.178224
C 1.339531 0.147791 -0.066206
C 0.683796 1.321710 0.275589
C -0.786324 1.560569 -0.176004
C -1.451952 0.095177 0.192853
H -1.159677 -2.129087 -0.002617
H 0.862666 -2.034597 -0.238387
H 2.360646 -0.093626 0.037889
H 1.398457 2.053212 0.706091
H -0.678529 1.084768 -1.201048
H -2.294108 0.116586 0.753937
12
Aligned to gpa_Type_3.xyz, RMSD 0.17749
C -0.902209 -1.080173 -0.137916
C 0.549604 -1.033792 -0.182816
C 1.332368 0.084965 -0.034096
C 0.744271 1.284385 0.299842
C -0.752898 1.580093 -0.088022
C -1.430906 0.105325 0.194022
H -1.043072 -2.144997 -0.074513
H 0.879166 -2.120476 -0.181859
H 2.384153 -0.001910 0.039207
H 1.366781 2.015153 0.538300
H -0.678740 1.160701 -1.126095
H -2.448521 0.150726 0.753948
12
Aligned to gpa_Type_1.xyz, RMSD 0.24042
C -0.643753 -0.951437 -0.277317
C 0.759274 -1.244592 -0.063557
C 1.531208 -0.068899 0.023413
C 0.650026 1.112605 0.004181
C -0.700857 1.193313 -0.327481
C -1.205349 0.038506 0.609401
H -1.396096 -1.733060 -0.717300
H 0.957893 -2.247781 0.135220
H 2.497931 -0.054865 0.454908
H 1.051900 2.051615 0.257275
H -1.333507 1.755426 -1.089726
H -2.168670 0.149172 0.990982
12
Aligned to gpa_Type_1.xyz, RMSD 0.19441
C -0.705806 -0.893652 -0.073756
C 0.757765 -1.184055 0.050318
C 1.485866 -0.022924 0.056732
C 0.716828 1.190383 -0.000790
C -0.678231 0.998950 -0.096476
C -1.428767 0.125356 0.711738
H -1.395441 -1.537952 -0.514441
H 1.104211 -2.228883 0.066036
H 2.521238 -0.022138 0.079831
H 1.383350 1.993542 0.233194
H -1.278561 1.648054 -0.953710
H -2.482454 -0.066682 0.441323
12
Aligned to gpa_Type_1.xyz, RMSD 0.15909
C -0.673416 -0.832574 0.007100
C 0.728430 -1.159297 0.070446
C 1.508272 -0.058199 0.108501
C 0.731179 1.183471 -0.026075
C -0.707058 1.042726 -0.120810
C -1.495617 0.103320 0.682356
H -1.288325 -1.520208 -0.589361
H 1.060034 -2.259126 -0.056263
H 2.593654 -0.101302 0.113262
H 1.189074 2.111851 0.170946
H -1.092647 1.463378 -0.930633
H -2.553582 0.025960 0.570532
12
Aligned to gpa_Type_2.xyz, RMSD 0.26067
C -1.005301 -1.012525 -0.531453
C 0.493000 -0.988963 -0.316114
C 1.242690 0.048858 0.244931
C 0.824340 1.324019 0.146110
C -0.640803 1.281325 -0.038471
C -1.417920 0.081126 0.287347
H -1.370170 -1.929873 -0.278011
H 1.034110 -1.863011 -0.270032
H 2.081745 -0.188807 0.754588
H 1.332103 2.222046 -0.102120
H -0.720002 1.282430 -1.179159
H -1.853790 -0.256627 1.282385
12
Aligned to gpa_Type_2.xyz, RMSD 0.32054
C -0.823638 -1.172456 -0.094564
C 0.629012 -1.136913 0.120613
C 1.340975 -0.068111 0.112508
C 0.677767 1.275701 0.184591
C -0.869384 1.200749 -0.250454
C -1.509372 0.068060 0.437610
H -1.143040 -1.643209 -1.038011
H 1.042138 -2.168531 0.086820
H 2.531341 -0.212494 0.142076
H 1.380844 2.174863 0.276927
H -1.178051 1.421363 -1.264378
H -2.078590 0.260979 1.286264
12
Aligned to gpa_Type_2.xyz, RMSD 0.25114
C -0.777873 -1.175659 -0.704737
C 0.483883 -1.102811 -0.022644
C 1.331411 0.052586 0.313141
C 0.784396 1.338173 0.131321
C -0.699565 1.267419 -0.165114
C -1.411897 -0.041490 0.188503
H -1.281059 -2.073077 -0.565917
H 0.711393 -2.085601 0.409428
H 2.502253 -0.148920 0.246572
H 1.458582 2.231947 -0.089967
H -1.178450 1.962054 -0.855812
H -1.923074 -0.224622 1.115227
12
Aligned to gpa_Type_2.xyz, RMSD 0.17792
C -0.965566 -1.055732 -0.616162
C 0.484748 -1.151090 -0.213019
C 1.223631 -0.003134 0.195160
C 0.672467 1.200701 0.203768
C -0.698170 1.229301 -0.205685
C -1.305821 0.056663 0.147093
H -1.421681 -2.015437 -0.404625
H 0.901261 -2.063608 0.222522
H 2.372808 0.034851 0.461182
H 1.260250 2.157035 0.070350
H -0.888218 1.800428 -1.053996
H -1.635706 -0.189980 1.193413
12
Aligned to gpa_Type_3.xyz, RMSD 0.09961
C -0.896756 -1.023683 -0.100986
C 0.514026 -1.107267 -0.237852
C 1.346518 0.032179 -0.083547
C 0.784437 1.178443 0.199272
C -0.689853 1.388343 0.042244
C -1.377132 0.185966 0.286145
H -1.257836 -2.016184 0.007259
H 0.985906 -2.036443 -0.291079
H 2.496163 0.020442 0.075998
H 1.225805 2.220422 0.539505
H -0.663922 1.007291 -0.978044
H -2.467358 0.150492 0.541087
12
Aligned to gpa_Type_3.xyz, RMSD 0.12297
C -0.794951 -1.028232 -0.097356
C 0.456383 -1.058294 -0.305589
C 1.350129 0.070498 -0.146816
C 0.779471 1.231182 0.114300
C -0.703813 1.387041 0.111934
C -1.424944 0.154581 0.316485
H -1.292871 -2.040153 0.013425
H 1.055143 -1.997535 -0.207981
H 2.362313 0.010764 0.141186
H 1.205872 2.022552 0.487745
H -0.581669 1.095297 -0.957358
H -2.411063 0.152300 0.530025
12
Aligned to gpa_Type_3.xyz, RMSD 0.11963
C -1.006364 -1.097991 -0.042958
C 0.572741 -1.142087 -0.152891
C 1.381956 0.048104 0.041895
C 0.751073 1.296650 0.226925
C -0.725232 1.396657 0.081661
C -1.571615 0.116155 0.182510
H -1.343948 -2.072409 -0.042410
H 1.122502 -2.016987 -0.417516
H 2.527815 -0.032045 0.056758
H 1.401399 2.315240 0.437304
H -0.510494 1.054600 -1.062124
H -2.599836 0.134113 0.690849
12
Aligned to gpa_Type_3.xyz, RMSD 0.14228
C -0.975551 -1.100792 -0.053849
C 0.499849 -1.155114 -0.092061
C 1.416457 0.048806 0.104791
C 0.816408 1.236314 0.339872
C -0.704673 1.398828 0.103627
C -1.539074 0.181492 0.219494
H -1.448219 -2.152347 0.026727
H 1.140786 -1.995022 -0.500060
H 2.536758 0.106801 -0.035592
H 1.222845 2.205036 0.408150
H -0.498844 1.003183 -1.101279
H -2.466743 0.222815 0.580182
12
Aligned to gpa_Type_3.xyz, RMSD 0.15078
C -0.858754 -1.032809 -0.023107
C 0.575040 -0.983830 -0.198621
C 1.330881 0.108800 -0.030747
C 0.633443 1.368429 0.256168
C -0.781435 1.352504 -0.028366
C -1.433391 0.084073 0.257906
H -1.249843 -1.995012 -0.219854
H 0.960276 -1.926652 -0.151277
H 2.314696 -0.160237 -0.003751
H 1.405085 2.095372 0.467542
H -0.440803 1.045103 -1.101091
H -2.455196 0.044260 0.775198
12
Aligned to gpa_Type_1.xyz, RMSD 0.14179
C -0.654277 -0.925362 -0.264946
C 0.743409 -1.216142 0.158195
C 1.430803 -0.032145 0.090494
C 0.725506 1.160267 -0.053352
C -0.694276 1.042932 -0.182916
C -1.398834 0.061545 0.640154
H -1.154659 -1.637781 -0.736539
H 0.886330 -2.194697 0.106996
H 2.468198 -0.048388 0.181520
H 1.169780 2.041386 0.111171
H -1.150868 1.700146 -0.874221
H -2.371112 0.048240 0.823443
12
Aligned to gpa_Type_2.xyz, RMSD 0.19487
C -0.877826 -1.146449 -0.409990
C 0.596459 -1.137496 -0.213393
C 1.259005 0.078226 0.090167
C 0.601616 1.341761 0.197108
C -0.751465 1.409962 -0.027075
C -1.272526 0.035773 0.287737
H -1.547527 -2.045236 -0.578407
H 1.068235 -2.130939 -0.056352
H 2.174266 -0.099935 0.620753
H 1.372225 2.124384 0.197846
H -0.993139 1.487447 -1.349276
H -1.629324 0.082501 1.240882
12
Aligned to gpa_Type_2.xyz, RMSD 0.29578
C -0.931393 -1.115010 -0.631063
C 0.453342 -1.160142 0.083389
C 1.249920 0.003935 0.440932
C 0.786348 1.245071 0.023376
C -0.638490 1.175630 -0.221181
C -1.359550 0.004889 0.328967
H -1.392896 -2.077521 -1.130601
H 0.890738 -2.104795 0.242632
H 2.257077 0.064253 0.704721
H 1.272816 2.105310 -0.501251
H -1.086828 1.922321 -0.717458
H -1.501082 -0.063942 1.377538
12
Aligned to gpa_Type_1.xyz, RMSD 0.26824
C -0.756495 -1.030620 -0.365201
C 0.591824 -1.164834 0.157308
C 1.521584 -0.016338 0.146057
C 0.752274 1.205239 0.008686
C -0.736049 1.166157 -0.181999
C -1.451341 0.028412 0.453365
H -1.432695 -1.663727 -1.014945
H 1.029808 -2.234130 0.285094
H 2.635999 -0.082718 0.257323
H 1.332376 2.161744 0.142538
H -1.312221 1.688878 -1.117793
H -2.175063 -0.058063 1.229564
12
Aligned to gpa_Type_2.xyz, RMSD 0.32567
C -0.767455 -1.046431 -0.137305
C 0.632194 -1.136382 -0.072548
C 1.448463 -0.093690 0.184121
C 0.684702 1.245778 0.052782
C -0.573969 1.140002 -0.395185
C -1.437266 0.099211 0.399911
H -1.386652 -1.668822 -0.697556
H 1.003478 -2.116769 0.002964
H 2.453668 -0.296919 0.236208
H 0.931020 2.285900 0.552092
H -1.072140 1.461052 -1.444360
H -1.916044 0.127070 1.318877
12
Aligned to gpa_Type_3.xyz, RMSD 0.16528
C -0.826882 -1.089242 -0.036095
C 0.558838 -1.006105 -0.258558
C 1.374674 0.106689 0.069294
C 0.650073 1.291827 0.162150
C -0.819788 1.384179 -0.109015
C -1.502061 -0.001649 0.231770
H -1.309246 -2.003855 -0.008590
H 1.125424 -1.879798 -0.398887
H 2.306439 -0.234329 0.097948
H 1.273308 2.138009 0.633256
H -0.474354 1.007306 -1.230670
H -2.356425 0.286969 0.847399
12
Aligned to gpa_Type_3.xyz, RMSD 0.15092
C -0.820138 -1.128768 -0.009983
C 0.608446 -1.003962 -0.185953
C 1.380401 0.075195 0.061017
C 0.731156 1.337009 0.183933
C -0.771854 1.396846 -0.100322
C -1.511692 0.047347 0.257769
H -1.449979 -2.076458 -0.172882
H 0.994631 -2.014138 -0.441215
H 2.567624 -0.011407 0.179171
H 1.254765 2.158292 0.467727
H -0.579800 0.924964 -1.051046
H -2.403562 0.295080 0.811784
12
Aligned to gpa_Type_2.xyz, RMSD 0.24589
C -0.937573 -1.194438 -0.302613
C 0.513226 -1.185998 -0.150572
C 1.270757 0.006989 0.362303
C 0.740733 1.293295 0.060572
C -0.654547 1.299280 0.004673
C -1.411553 0.040664 0.374777
H -1.296352 -1.607313 -1.165796
H 0.971043 -2.125179 0.276208
H 2.299482 0.013291 0.408110
H 1.303372 2.209100 -0.281212
H -0.902839 1.313934 -0.954674
H -1.895747 -0.063626 1.368225
12
Aligned to gpa_Type_2.xyz, RMSD 0.25155
C -0.892231 -1.182939 -0.260593
C 0.537817 -1.184597 -0.130117
C 1.247165 0.031491 0.397037
C 0.769494 1.293290 0.075767
C -0.672737 1.321306 0.045657
C -1.363976 0.002951 0.444746
H -1.355467 -1.540136 -1.169595
H 1.082820 -2.157713 0.174496
H 2.355610 -0.050903 0.471576
H 1.168013 2.071651 -0.269458
H -0.999237 1.354013 -1.108362
H -1.877270 0.041586 1.328847
12
Aligned to gpa_Type_2.xyz, RMSD 0.19464
C -0.825867 -0.888335 -0.492461
C 0.621053 -1.153456 -0.164225
C 1.359427 -0.034712 0.341068
C 0.787966 1.131873 0.109209
C -0.620206 1.200161 -0.273279
C -1.416714 0.055701 0.349503
H -1.330443 -1.869414 -0.690118
H 0.878420 -2.188099 -0.019090
H 2.433017 -0.097354 0.583438
H 1.108232 2.198252 0.124754
H -1.246068 1.535918 -1.281918
H -1.748816 0.109464 1.413120
12
Aligned to gpa_Type_2.xyz, RMSD 0.22279
C -0.825947 -1.011469 -0.539772
C 0.554655 -1.146342 -0.246641
C 1.249472 -0.026423 0.423672
C 0.611387 1.225017 0.123219
C -0.703377 1.304038 -0.238313
C -1.182997 0.058395 0.316962
H -1.390626 -1.875181 -0.444259
H 0.860337 -2.120496 -0.106187
H 2.179851 -0.031123 0.774898
H 1.299461 2.054531 -0.063439
H -1.123237 1.804281 -1.352613
H -1.528978 -0.235228 1.352474
12
Aligned to gpa_Type_2.xyz, RMSD 0.23794
C -0.854386 -1.071941 -0.394119
C 0.465625 -1.005149 0.036655
C 1.461589 0.080477 0.334081
C 0.845825 1.208988 -0.087549
C -0.580998 1.052456 -0.205379
C -1.428170 0.036071 0.383176
H -1.284684 -1.738429 -0.956438
H 0.891417 -1.958429 0.178539
H 2.522663 -0.414181 0.503925
H 1.085938 2.286084 -0.091892
H -1.212407 1.566787 -0.972369
H -1.912411 -0.042733 1.271370
12
Aligned to gpa_Type_2.xyz, RMSD 0.30600
C -0.857376 -1.220866 -0.596587
C 0.511390 -1.163540 -0.191772
C 1.128013 0.060633 0.414850
C 0.771001 1.337858 -0.168776
C -0.582813 1.252677 -0.391241
C -1.143215 0.017912 0.242691
H -1.245300 -2.052748 -0.654441
H 0.860464 -2.126331 0.108955
H 2.128303 -0.346166 0.841843
H 1.277981 2.306947 -0.147288
H -1.329870 1.973918 -0.764318
H -1.518576 -0.040295 1.306085
12
Aligned to gpa_Type_2.xyz, RMSD 0.29814
C -0.906914 -1.178345 -0.567405
C 0.484438 -1.105299 -0.181904
C 1.134049 0.078110 0.394095
C 0.789907 1.406783 -0.127478
C -0.553260 1.270428 -0.336701
C -1.153117 0.054405 0.282625
H -1.377250 -2.222182 -0.681993
H 0.798591 -2.059454 0.179267
H 2.040776 -0.256216 0.776147
H 1.375709 2.322163 -0.152787
H -1.210877 1.922404 -0.775374
H -1.422052 -0.232799 1.191508
12
Aligned to gpa_Type_2.xyz, RMSD 0.19013
C -0.887229 -1.090829 -0.403971
C 0.485698 -1.085774 -0.132737
C 1.389198 -0.017238 -0.013659
C 0.721155 1.212207 0.022918
C -0.725515 1.299330 -0.145705
C -1.359635 0.103713 0.451090
H -1.263322 -1.883281 -0.846279
H 0.832230 -1.986603 0.334860
H 2.440412 0.017916 0.418436
H 1.351599 2.040283 0.124758
H -0.985164 1.575504 -1.115152
H -1.999427 -0.185229 1.305442
12
Aligned to gpa_Type_1.xyz, RMSD 0.27628
C -0.735319 -1.049272 -0.282427
C 0.738138 -1.221589 0.052196
C 1.464852 -0.088198 0.268929
C 0.821343 1.168133 -0.191048
C -0.670679 0.968987 -0.501464
C -1.327593 0.034489 0.538761
H -1.420214 -1.761334 -0.708161
H 1.065262 -2.243676 -0.061829
H 2.538635 -0.183582 0.507838
H 0.888310 2.308144 0.204201
H -1.199227 1.852478 -0.965846
H -2.163508 0.215420 1.138850
12
Aligned to gpa_Type_1.xyz, RMSD 0.25121
C -0.770811 -1.022100 -0.365124
C 0.721384 -1.272361 -0.013636
C 1.392239 -0.002828 0.376474
C 0.724795 1.144355 -0.009200
C -0.685886 1.016498 -0.318263
C -1.381442 0.045452 0.590306
H -1.390344 -1.729757 -0.927206
H 0.986257 -2.258434 0.039310
H 2.433435 0.196660 0.475294
H 1.339834 2.051456 -0.158205
H -1.084725 1.843874 -0.936834
H -2.284736 -0.012815 1.247084
12
Aligned to gpa_Type_3.xyz, RMSD 0.31591
C -0.811695 -1.016905 -0.155988
C 0.560552 -1.129325 -0.092149
C 1.270823 0.099504 0.241502
C 0.742502 1.375749 0.206768
C -0.693262 1.403275 0.096368
C -1.502345 0.175115 0.344439
H -1.204884 -2.064582 -0.510648
H 1.047509 -2.089187 -0.356853
H 2.260344 -0.171040 0.340641
H 1.375061 2.244417 -0.106885
H -0.584731 1.107168 -0.913592
H -2.459876 0.065811 0.906399
12
Aligned to gpa_Type_2.xyz, RMSD 0.22329
C -0.919041 -1.038225 -0.294360
C 0.595859 -1.066539 -0.057311
C 1.499518 0.055203 0.275120
C 0.794440 1.211017 -0.122087
C -0.650675 1.185283 -0.143202
C -1.511813 0.128119 0.476253
H -1.333158 -1.826476 -1.000484
H 0.925800 -2.062245 -0.048846
H 2.475454 -0.178317 0.710490
H 1.265822 2.169693 -0.005749
H -1.222563 1.416126 -1.190574
H -1.919641 0.006359 1.400749
12
Aligned to gpa_Type_3.xyz, RMSD 0.17145
C -0.876004 -1.012540 -0.208617
C 0.485172 -1.045435 -0.228182
C 1.355557 0.152272 -0.073163
C 0.820990 1.335255 0.139765
C -0.627123 1.414734 0.077376
C -1.433067 0.079825 0.224467
H -1.258820 -1.927769 0.010373
H 0.884143 -2.054276 -0.148904
H 2.447767 0.054163 0.096795
H 1.493844 2.077899 0.605357
H -0.817002 0.997721 -1.092201
H -2.475458 -0.071847 0.596936
12
Aligned to gpa_Type_3.xyz, RMSD 0.18069
C -0.928497 -1.189516 0.038718
C 0.493777 -1.013172 -0.181099
C 1.361859 0.141715 0.004780
C 0.671221 1.297011 0.242003
C -0.766830 1.259124 -0.019133
C -1.484526 0.089477 0.237541
H -1.483924 -2.035328 -0.171932
H 1.116814 -1.897528 -0.382924
H 2.443625 -0.140224 0.137084
H 1.263064 2.246265 0.362031
H -0.257484 1.122657 -1.135718
H -2.429099 0.119520 0.868651
12
Aligned to gpa_Type_3.xyz, RMSD 0.22884
C -0.868849 -1.084132 -0.018366
C 0.523174 -1.078607 -0.236988
C 1.342885 0.070904 0.016987
C 0.610010 1.215680 0.272196
C -0.807828 1.439663 -0.005678
C -1.574941 0.146174 0.237852
H -1.333792 -1.929609 0.046617
H 1.071649 -2.098489 -0.497966
H 2.375399 0.014754 0.262960
H 1.228487 2.056850 0.413473
H -0.241838 1.243446 -1.422883
H -2.324355 0.003367 0.931797
12
Aligned to gpa_Type_3.xyz, RMSD 0.17422
C -0.862222 -1.067338 -0.022642
C 0.488560 -1.141662 -0.308887
C 1.320651 0.104983 -0.047755
C 0.723029 1.289739 0.141842
C -0.873374 1.526802 -0.167742
C -1.413462 0.169022 0.275698
H -1.313969 -2.115254 0.050538
H 1.095490 -1.931011 -0.406929
H 2.452463 -0.160859 0.293206
H 1.342955 2.097005 0.610578
H -0.598941 1.156705 -1.215350
H -2.361182 0.071869 0.797444
12
Aligned to gpa_Type_3.xyz, RMSD 0.22025
C -0.854603 -1.091251 0.057820
C 0.608648 -1.000933 -0.210070
C 1.352483 0.077233 -0.076871
C 0.627330 1.226366 0.362125
C -0.796345 1.314935 0.235285
C -1.579085 0.095579 0.161380
H -1.282840 -1.985510 0.183974
H 0.922077 -2.046739 -0.391273
H 2.424449 0.052005 -0.102934
H 1.173929 2.043188 0.528407
H -0.080888 1.187815 -1.387818
H -2.515157 0.127312 0.639975
12
Aligned to gpa_Type_1.xyz, RMSD 0.26338
C -0.671017 -0.947144 0.059865
C 0.830029 -1.296023 0.344833
C 1.512208 -0.053692 0.105686
C 0.679207 1.032786 -0.105264
C -0.782052 1.085817 -0.047329
C -1.597515 0.108379 0.740540
H -0.879850 -1.171064 -0.948594
H 1.037647 -2.332240 0.030521
H 2.615218 -0.091191 0.094361
H 1.152712 1.935886 -0.143443
H -1.217101 1.732164 -0.835069
H -2.679486 -0.003679 0.703891
12
Aligned to gpa_Type_2.xyz, RMSD 0.19196
C -0.847566 -1.078730 -0.366232
C 0.493779 -1.160102 -0.138722
C 1.242508 0.081630 0.151645
C 0.691462 1.357931 0.206214
C -0.722034 1.294016 0.030130
C -1.311077 -0.044059 0.395684
H -1.241709 -1.983749 -0.763858
H 0.861500 -2.171997 -0.152935
H 2.165497 -0.086527 0.645036
H 1.459611 2.362074 -0.227196
H -0.849764 1.360389 -1.077349
H -1.942205 0.069124 1.297586
12
Aligned to gpa_Type_2.xyz, RMSD 0.18963
C -0.917363 -1.009490 -0.382788
C 0.483893 -1.159255 -0.151954
C 1.246751 0.047063 0.160243
C 0.708880 1.392993 0.148664
C -0.669874 1.316267 0.007850
C -1.323238 0.087403 0.439118
H -1.350467 -2.010509 -0.686602
H 1.007837 -2.141805 -0.169648
H 2.224027 0.020617 0.635720
H 1.295043 2.156347 -0.221681
H -0.672998 1.364977 -1.031042
H -2.032489 -0.064609 1.252121
12
Aligned to gpa_Type_1.xyz, RMSD 0.16816
C -0.710542 -0.953077 -0.179992
C 0.770572 -1.207577 0.154722
C 1.472960 -0.181248 -0.012927
C 0.815428 1.161032 -0.102580
C -0.785944 1.106949 -0.153123
C -1.346895 0.135448 0.675422
H -1.389981 -1.496468 -0.889101
H 1.247303 -2.124202 0.133874
H 2.435171 -0.141919 0.453272
H 1.360185 2.041203 -0.030560
H -1.466889 1.683340 -0.826831
H -2.401368 -0.023483 0.777826
12
Aligned to gpa_Type_1.xyz, RMSD 0.22219
C -0.730076 -0.991760 -0.290352
C 0.720345 -1.251761 0.207542
C 1.492183 -0.130093 0.167210
C 0.757731 1.073201 -0.069752
C -0.754757 1.050813 -0.303216
C -1.405348 0.049453 0.466427
H -1.278642 -1.456650 -1.052011
H 1.197729 -2.241644 0.291483
H 2.604285 -0.087090 0.246816
H 1.220423 2.096170 0.059120
H -1.439434 1.754363 -0.862106
H -2.384440 0.134997 1.138839
12
Aligned to gpa_Type_3.xyz, RMSD 0.14688
C -0.916140 -1.109190 -0.011217
C 0.473195 -1.071775 -0.167716
C 1.358011 0.053215 -0.049210
C 0.801713 1.309728 0.161624
C -0.682261 1.440060 0.131038
C -1.477853 0.113597 0.407182
H -1.380986 -2.043724 -0.083069
H 1.113335 -1.943193 -0.371060
H 2.434000 -0.038267 0.192015
H 1.345472 2.149670 0.472600
H -0.544221 1.120100 -1.358503
H -2.524266 0.019780 0.676318
12
Aligned to gpa_Type_3.xyz, RMSD 0.14290
C -0.871334 -1.037860 -0.038724
C 0.480795 -1.022765 -0.227971
C 1.345830 0.149590 0.034867
C 0.726048 1.308947 0.271305
C -0.674962 1.386861 0.164505
C -1.463678 0.071771 0.388413
H -1.360511 -1.970968 -0.167815
H 1.047551 -2.021681 -0.328371
H 2.343778 -0.026588 0.141176
H 1.411092 2.180584 0.354589
H -0.518516 0.939158 -1.253905
H -2.466093 0.042953 0.661931
12
Aligned to gpa_Type_3.xyz, RMSD 0.12143
C -0.872246 -1.111792 0.007212
C 0.543375 -1.072296 -0.143502
C 1.345390 0.097373 0.002555
C 0.671188 1.281644 0.142936
C -0.708499 1.341069 -0.046371
C -1.439141 0.100013 0.274072
H -1.372189 -1.995749 -0.095408
H 1.120196 -2.080395 -0.406330
H 2.314119 -0.010519 0.055915
H 1.155916 2.132663 0.518255
H -0.373191 1.077863 -1.050149
H -2.384920 0.240127 0.740816
12
Aligned to gpa_Type_3.xyz, RMSD 0.22394
C -0.865173 -1.078313 0.034830
C 0.498798 -1.126874 -0.170575
C 1.383194 0.022148 -0.004550
C 0.647236 1.179948 0.264972
C -0.795336 1.381397 -0.050585
C -1.531081 0.168965 0.253565
H -1.453225 -2.143509 -0.043605
H 1.057063 -1.895982 -0.444422
H 2.488894 0.072065 0.133838
H 1.190692 2.100237 0.506288
H -0.192344 1.201688 -1.439374
H -2.428716 0.118231 0.959619
12
Aligned to gpa_Type_3.xyz, RMSD 0.17703
C -0.854747 -1.069793 -0.029139
C 0.508412 -1.051920 -0.330730
C 1.371212 0.124659 0.213124
C 0.682803 1.222382 0.339780
C -0.856061 1.473249 -0.161969
C -1.492051 0.203105 0.233080
H -1.280367 -2.086608 0.188981
H 1.037600 -1.895038 -0.606415
H 2.378371 -0.034953 0.180914
H 1.439080 2.033923 0.443302
H -0.556030 0.965982 -1.118821
H -2.378222 0.115014 0.647895
12
Aligned to gpa_Type_1.xyz, RMSD 0.31472
C -0.835872 -1.032683 0.155284
C 0.649117 -1.163634 0.147988
C 1.459043 0.008407 -0.000552
C 0.756924 1.191920 0.134337
C -0.673512 1.088007 -0.051707
C -1.519141 0.107494 0.695702
H -1.240642 -1.542097 -0.747381
H 1.174499 -2.060664 0.014731
H 2.499459 -0.129154 -0.235531
H 1.230246 2.136070 0.440487
H -0.967674 1.174641 -1.098786
H -2.532447 0.221692 0.545427
12
Aligned to gpa_Type_2.xyz, RMSD 0.15132
C -0.895552 -0.948841 -0.417261
C 0.564751 -1.063989 -0.188373
C 1.269349 0.083154 0.365094
C 0.771838 1.276429 0.017590
C -0.688575 1.242241 -0.135603
C -1.319652 0.026656 0.456088
H -1.488197 -1.881945 -0.788059
H 0.923083 -2.031272 0.102292
H 2.377393 -0.067418 0.394616
H 1.374291 2.211472 0.100207
H -0.968865 1.268104 -1.169644
H -1.919863 -0.114592 1.263055
12
Aligned to gpa_Type_2.xyz, RMSD 0.18665
C -0.877100 -0.963896 -0.445153
C 0.515351 -1.108917 -0.202605
C 1.232070 0.024370 0.364198
C 0.778507 1.252313 -0.003485
C -0.599255 1.322925 -0.066110
C -1.280611 0.063009 0.483710
H -1.216119 -1.882752 -0.844383
H 0.801702 -2.090023 0.122935
H 2.283781 0.077910 0.337384
H 1.346980 2.106931 0.020328
H -0.951248 1.268571 -1.096286
H -2.034058 -0.070441 1.329468
12
Aligned to gpa_Type_1.xyz, RMSD 0.27100
C -0.838576 -1.017968 -0.226553
C 0.547160 -1.076672 0.077601
C 1.278697 0.090011 0.341801
C 0.798603 1.292225 0.054975
C -0.633128 1.042795 -0.038299
C -1.309334 -0.045567 0.624871
H -1.444786 -1.602729 -0.858042
H 1.013886 -2.054939 -0.197615
H 2.443389 -0.088297 0.393433
H 1.236099 2.188107 -0.113304
H -0.830239 1.252403 -1.138124
H -2.261772 0.020631 1.079255
12
Aligned to gpa_Type_1.xyz, RMSD 0.30492
C -0.673675 -0.950992 -0.044058
C 0.656942 -1.302429 0.073544
C 1.319828 -0.133467 0.377246
C 0.633148 1.008183 0.081963
C -0.675709 1.114529 -0.219141
C -1.308248 0.136757 0.601731
H -0.864288 -1.240040 -1.044898
H 1.125123 -2.270332 -0.161614
H 2.320243 -0.039641 0.460465
H 1.116237 1.928310 -0.262555
H -1.401473 1.515087 -1.040714
H -2.248128 0.234036 1.178030
12
Aligned to gpa_Type_1.xyz, RMSD 0.31517
C -0.736631 -1.048171 -0.118878
C 0.664488 -1.213973 0.094676
C 1.389032 -0.068102 0.363322
C 0.604610 1.064042 -0.009445
C -0.778839 1.084520 -0.234275
C -1.447087 0.021743 0.556042
H -1.328271 -1.416619 -1.010038
H 1.068885 -2.042229 -0.293721
H 2.519953 0.052508 0.657304
H 1.280724 1.978072 -0.164505
H -1.104011 1.468831 -1.223743
H -2.132854 0.119379 1.383260
12
Aligned to gpa_Type_2.xyz, RMSD 0.29049
C -0.813645 -1.094730 -0.189453
C 0.703937 -1.147854 0.106469
C 1.445648 -0.017904 0.355919
C 0.694637 1.152576 -0.061710
C -0.818894 1.080463 -0.272692
C -1.523439 0.003358 0.502607
H -1.448335 -1.540807 -0.878550
H 1.155190 -2.106463 -0.338230
H 2.370256 -0.011126 0.683333
H 1.271733 2.015232 -0.098166
H -0.981645 1.631960 -1.267876
H -2.055442 0.035292 1.458350
12
Aligned to gpa_Type_1.xyz, RMSD 0.21675
C -0.734355 -1.003094 0.076697
C 0.722582 -1.278775 0.048234
C 1.366959 -0.118770 0.014299
C 0.790991 1.164054 0.038148
C -0.792396 1.172430 0.080741
C -1.497295 0.079309 0.756277
H -1.025010 -1.276813 -0.920730
H 1.090873 -2.263228 0.025057
H 2.444159 -0.020967 0.233474
H 1.290996 2.110658 -0.100461
H -1.157119 1.309623 -0.929888
H -2.500386 0.125573 0.678150
12
Aligned to gpa_Type_3.xyz, RMSD 0.35870
C -0.895781 -1.017333 -0.183946
C 0.561588 -1.175401 0.032431
C 1.384650 0.047889 0.238476
C 0.837198 1.347796 0.325685
C -0.657643 1.363640 0.226761
C -1.522068 0.089480 0.447840
H -1.501360 -1.856050 -0.623059
H 1.049184 -2.097864 -0.124417
H 2.441688 0.041309 -0.046217
H 1.222072 2.256964 -0.179515
H -0.366048 1.121778 -0.871780
H -2.553480 -0.122209 0.757743
12
Aligned to gpa_Type_2.xyz, RMSD 0.32016
C -0.887075 -0.987881 -0.208869
C 0.557660 -1.113842 0.057180
C 1.315917 0.072751 0.157691
C 0.797889 1.363261 0.236059
C -0.678354 1.411862 0.122763
C -1.547739 0.045266 0.362072
H -1.252170 -1.823158 -0.680885
H 1.018346 -2.174119 -0.068672
H 2.394076 -0.108771 0.071455
H 1.264163 2.267794 -0.027841
H -0.612891 1.119993 -1.078662
H -2.369819 -0.073157 1.057710
12
Aligned to gpa_Type_1.xyz, RMSD 0.17771
C -0.702116 -0.973717 -0.066526
C 0.676947 -1.131340 0.048961
C 1.560442 -0.024003 0.065288
C 0.793753 1.096886 -0.001955
C -0.648188 0.969034 -0.303195
C -1.312315 0.040757 0.687084
H -1.267659 -1.502713 -0.683880
H 0.814093 -2.298237 0.157656
H 2.664517 -0.015712 0.222758
H 1.116865 2.091925 0.118477
H -1.314980 1.848619 -0.886741
H -2.381358 -0.101499 0.642071
12
Aligned to gpa_Type_3.xyz, RMSD 0.13206
C -0.851700 -1.024038 -0.080815
C 0.581754 -0.998386 -0.170424
C 1.315297 0.139058 -0.046502
C 0.646268 1.307044 0.225623
C -0.703632 1.374252 -0.001455
C -1.462792 0.164937 0.134657
H -1.312056 -1.940305 -0.013988
H 1.130276 -2.066949 -0.162882
H 2.405095 -0.131107 -0.088232
H 1.285996 1.983382 0.631345
H -0.589617 1.139628 -1.163711
H -2.444890 0.052487 0.736384
12
Aligned to gpa_Type_3.xyz, RMSD 0.12693
C -0.846282 -1.026843 -0.032563
C 0.549400 -1.077538 -0.158956
C 1.279003 0.105066 0.018422
C 0.643648 1.221206 0.295520
C -0.696590 1.413315 0.013798
C -1.457459 0.167861 0.162454
H -1.454242 -1.974675 0.044281
H 1.037643 -1.905622 -0.329997
H 2.316182 0.005805 -0.044272
H 1.337811 2.089528 0.526699
H -0.408618 1.034600 -1.153741
H -2.300498 -0.052701 0.658356
12
Aligned to gpa_Type_3.xyz, RMSD 0.15678
C -0.883143 -1.144218 -0.019999
C 0.558930 -1.177302 -0.217799
C 1.339584 0.031939 0.066981
C 0.706624 1.226302 0.383797
C -0.890203 1.429072 -0.136216
C -1.392764 0.103324 0.284839
H -1.346266 -2.179971 0.086184
H 1.018006 -2.009199 -0.471913
H 2.405185 0.020890 0.010850
H 1.233532 2.218720 0.510539
H -0.384062 1.194930 -1.157052
H -2.365424 0.285515 0.659790
12
Aligned to gpa_Type_3.xyz, RMSD 0.22638
C -0.896174 -1.129436 -0.008423
C 0.492859 -0.998132 -0.007093
C 1.449678 0.059701 0.128453
C 0.827541 1.272625 0.264211
C -0.640128 1.372823 0.084684
C -1.510020 0.084367 0.427820
H -1.443213 -1.895498 -0.432521
H 1.122277 -1.855389 -0.326232
H 2.511721 -0.072348 0.013623
H 1.374746 2.258884 0.240090
H -0.643753 0.824899 -1.055273
H -2.645535 0.077505 0.670663
12
Aligned to gpa_Type_3.xyz, RMSD 0.20120
C -0.911833 -1.136891 -0.014982
C 0.462588 -0.999155 -0.011054
C 1.443686 0.083347 0.111110
C 0.801277 1.266090 0.189910
C -0.693035 1.393696 0.042603
C -1.485657 0.074784 0.476021
H -1.519656 -1.951641 -0.355137
H 1.080585 -1.878290 -0.318013
H 2.489810 0.057940 0.029764
H 1.289055 2.077591 0.233040
H -0.523119 0.961776 -0.976624
H -2.433701 0.050753 0.593362
12
Aligned to gpa_Type_2.xyz, RMSD 0.25557
C -0.808418 -0.986289 -0.339092
C 0.610905 -1.161492 -0.013308
C 1.355218 0.011841 0.054524
C 0.700056 1.208856 -0.064545
C -0.783821 1.095270 -0.314399
C -1.388099 0.054386 0.418677
H -1.351565 -1.819752 -1.016111
H 1.058815 -2.174960 0.398724
H 2.426797 -0.054527 0.489459
H 1.395009 1.985966 0.020766
H -1.259450 1.866163 -0.916700
H -1.955446 -0.025464 1.282005
12
Aligned to gpa_Type_1.xyz, RMSD 0.26727
C -0.743799 -0.874371 -0.194633
C 0.715589 -1.180366 -0.110945
C 1.503096 -0.066128 -0.129957
C 0.851083 1.175701 0.046069
C -0.771009 1.051184 -0.134777
C -1.472773 0.052444 0.582877
H -1.070665 -1.858834 -0.771650
H 0.774025 -2.130035 0.421107
H 2.568996 0.094301 0.094967
H 1.448041 1.960291 0.270249
H -1.369345 1.693790 -0.799213
H -2.433239 0.082024 0.725905
12
Aligned to gpa_Type_2.xyz, RMSD 0.28546
C -0.770566 -1.016703 -0.347299
C 0.633662 -1.207222 0.089912
C 1.355382 -0.039798 0.304258
C 0.710487 1.094826 -0.106561
C -0.702888 1.145449 -0.177288
C -1.563140 0.074108 0.399981
H -1.319750 -1.523147 -1.035914
H 0.947258 -2.248533 -0.131278
H 2.302136 0.056237 0.785013
H 1.250634 2.126498 -0.089224
H -1.204360 1.477516 -1.235461
H -1.638855 0.060770 1.543862
12
Aligned to gpa_Type_2.xyz, RMSD 0.29950
C -0.784911 -1.042104 -0.367161
C 0.620312 -1.251737 0.180720
C 1.389453 -0.022888 0.327075
C 0.717705 1.156541 -0.016779
C -0.774826 1.177607 -0.144561
C -1.608242 0.107350 0.384269
H -1.190618 -1.544554 -1.135133
H 1.150778 -2.215661 0.341747
H 2.327142 -0.136919 0.134551
H 1.292418 2.093793 0.002775
H -1.148464 1.674830 -1.167627
H -1.990748 0.003739 1.460125
12
Aligned to gpa_Type_1.xyz, RMSD 0.28849
C -0.738631 -1.068529 -0.298265
C 0.668668 -1.297416 0.067448
C 1.480154 0.071752 0.132077
C 0.817582 1.249453 -0.017380
C -0.670719 1.139358 -0.172433
C -1.511349 -0.057073 0.416917
H -1.399874 -1.678286 -1.182690
H 0.988991 -2.244949 0.371746
H 2.525219 0.010978 0.319138
H 1.283691 2.090441 0.024000
H -1.262124 1.716260 -0.976143
H -2.181609 0.068011 1.315583
12
Aligned to gpa_Type_2.xyz, RMSD 0.21679
C -0.835800 -1.038323 -0.354914
C 0.441402 -1.087767 0.079878
C 1.267387 -0.039071 0.156841
C 0.726723 1.194974 0.039295
C -0.757200 1.294336 -0.122754
C -1.377195 0.054599 0.346123
H -1.469772 -1.635440 -0.980808
H 1.211034 -1.936007 0.266414
H 2.332218 -0.163879 0.512800
H 1.436768 2.140880 -0.236334
H -1.044624 1.527296 -0.992528
H -1.930939 -0.311600 1.285988
12
Aligned to gpa_Type_2.xyz, RMSD 0.20180
C -0.807329 -1.121551 -0.386334
C 0.547798 -1.119618 0.125067
C 1.329846 0.107674 0.220270
C 0.691373 1.275530 0.095903
C -0.703888 1.195532 -0.044006
C -1.314537 -0.011058 0.337066
H -1.333749 -1.870932 -0.910744
H 0.830531 -2.267711 0.307998
H 2.439809 -0.151617 0.127443
H 1.187608 2.259175 0.117261
H -1.014744 1.676580 -1.146322
H -1.852719 0.027996 1.156398
12
Aligned to gpa_Type_1.xyz, RMSD 0.19281
C -0.739877 -0.942097 -0.250294
C 0.621724 -1.266212 0.160542
C 1.359611 -0.098791 0.159707
C 0.837386 1.102579 -0.124180
C -0.757915 1.171707 -0.108452
C -1.379234 0.068128 0.686717
H -1.008766 -1.539318 -1.005363
H 1.093702 -2.275806 0.194704
H 2.401948 -0.039482 0.275693
H 1.298883 2.061845 -0.099201
H -1.309826 1.764517 -0.855595
H -2.417637 -0.007071 0.965721
12
Aligned to gpa_Type_1.xyz, RMSD 0.19677
C -0.853406 -0.955797 -0.216883
C 0.688385 -1.236384 0.046485
C 1.442559 -0.068923 0.075185
C 0.792617 1.167695 0.045003
C -0.665604 1.039620 -0.223515
C -1.477147 0.118326 0.622351
H -1.460259 -1.731418 -0.591806
H 1.367296 -2.058256 -0.089253
H 2.482353 -0.065651 0.305271
H 1.256576 2.039645 0.228310
H -1.105853 1.643762 -1.122631
H -2.467519 0.107380 0.921483
12
Aligned to gpa_Type_1.xyz, RMSD 0.25896
C -0.798674 -0.960907 -0.097719
C 0.737358 -1.179735 0.017594
C 1.478588 -0.093882 0.148303
C 0.772088 1.152795 -0.133780
C -0.816396 1.087028 -0.208135
C -1.510109 0.104334 0.489133
H -1.157121 -1.628985 -0.991973
H 1.198496 -2.120268 0.023666
H 2.498957 -0.079429 0.408216
H 1.444824 1.942011 0.227596
H -1.493722 1.508350 -1.116215
H -2.354291 0.268687 1.233313
12
Aligned to gpa_Type_2.xyz, RMSD 0.19314
C -0.916374 -0.982394 -0.522023
C 0.499298 -1.080702 -0.052762
C 1.363390 0.062499 0.076040
C 0.751592 1.294836 0.061936
C -0.698232 1.213857 -0.071221
C -1.480708 0.019464 0.196377
H -1.513809 -1.848213 -0.869703
H 0.976903 -1.944505 0.322789
H 2.456593 0.009889 0.489251
H 1.468263 2.018870 0.084031
H -1.137544 1.339404 -1.019947
H -1.769371 -0.103005 1.305232
12
Aligned to gpa_Type_2.xyz, RMSD 0.20149
C -0.976819 -0.977892 -0.581280
C 0.558373 -1.067935 -0.059638
C 1.361054 0.048759 0.110337
C 0.778096 1.299230 0.135535
C -0.717899 1.207250 -0.250429
C -1.407505 0.053802 0.283542
H -1.465357 -1.914971 -0.384006
H 0.882355 -2.097628 0.124586
H 2.397370 -0.165936 0.401329
H 1.196232 2.319948 0.254705
H -0.833318 1.624209 -1.292339
H -1.772582 -0.328837 1.257660
12
Aligned to gpa_Type_2.xyz, RMSD 0.25463
C -0.891853 -1.232313 -0.231756
C 0.522439 -1.073857 -0.293870
C 1.302721 0.137373 0.087414
C 0.774512 1.376114 0.162425
C -0.821663 1.457222 0.006498
C -1.317184 -0.028541 0.490257
H -1.471438 -2.055173 -0.507802
H 0.977044 -2.080129 -0.241566
H 2.346723 -0.046906 0.573052
H 1.373483 2.173785 0.112973
H -0.663719 1.432618 -1.365470
H -2.131064 -0.060193 1.207846
12
Aligned to gpa_Type_2.xyz, RMSD 0.25556
C -0.933296 -1.206905 -0.515363
C 0.550326 -1.347340 -0.011488
C 1.350193 0.112417 0.252452
C 0.709584 1.277561 0.046406
C -0.648761 1.314191 -0.221386
C -1.263918 -0.059972 0.327862
H -1.459730 -2.058189 -0.963933
H 0.939747 -2.177636 0.531961
H 2.388065 -0.056887 0.274520
H 1.306193 2.240964 -0.012822
H -1.134964 2.014701 -0.904667
H -1.803438 -0.052905 1.196458
12
Aligned to gpa_Type_2.xyz, RMSD 0.17703
C -0.894359 -1.070019 -0.423668
C 0.438548 -1.060684 0.018307
C 1.270796 0.008523 0.075620
C 0.720830 1.282869 0.006156
C -0.697128 1.248759 -0.120879
C -1.520436 -0.049538 0.321679
H -1.237392 -1.983779 -0.933009
H 0.976334 -2.001686 0.170051
H 2.143813 -0.168919 0.578850
H 1.280660 2.132114 -0.050700
H -0.881549 1.701015 -1.105845
H -1.600117 -0.038656 1.463440
12
Aligned to gpa_Type_2.xyz, RMSD 0.27578
C -0.764737 -1.021458 -0.484313
C 0.461284 -1.062337 0.138674
C 1.497653 -0.004767 0.197065
C 0.866421 1.279143 0.137515
C -0.600132 1.250539 -0.075029
C -1.444326 0.108224 0.383637
H -1.176169 -1.874477 -0.901889
H 0.617552 -2.030834 0.376129
H 2.543044 -0.123615 0.238461
H 1.302596 2.212028 -0.237077
H -1.146530 1.632475 -0.923395
H -2.156654 -0.364921 1.150223
12
Aligned to gpa_Type_2.xyz, RMSD 0.30742
C -0.800973 -1.006397 -0.191655
C 0.741550 -1.070765 -0.312676
C 1.373387 0.010582 0.148727
C 0.688749 1.207153 0.031638
C -0.850896 1.245338 -0.420846
C -1.277927 0.086615 0.582123
H -1.477869 -1.753149 -0.510792
H 1.089446 -1.921158 -0.082110
H 2.371499 -0.286675 0.458876
H 1.176929 2.027838 0.471367
H -0.978051 1.469410 -1.441378
H -2.055843 -0.008793 1.266728
12
Aligned to gpa_Type_2.xyz, RMSD 0.30959
C -0.974676 -1.116131 -0.200135
C 0.505575 -1.017185 -0.042369
C 1.388810 0.005111 0.173943
C 0.708364 1.305112 0.215432
C -0.745087 1.231532 -0.003813
C -1.482059 0.086089 0.389217
H -1.363058 -1.990100 -0.584993
H 1.010318 -1.972609 -0.312120
H 2.510767 -0.211327 0.324003
H 1.019406 2.339800 0.070120
H -0.412105 1.245405 -1.204782
H -2.166256 0.094303 1.175498
12
Aligned to gpa_Type_2.xyz, RMSD 0.18460
C -0.872927 -1.126976 -0.590350
C 0.437077 -1.023247 -0.076069
C 1.306941 0.089475 0.192014
C 0.750209 1.287712 0.104033
C -0.654682 1.252327 -0.036392
C -1.431194 -0.013946 0.192335
H -1.414528 -2.008097 -0.619797
H 0.960584 -1.976715 0.396389
H 2.277408 -0.129692 0.374832
H 1.434955 2.076031 -0.051590
H -1.049417 1.888966 -1.062694
H -1.744425 -0.315838 1.177291
12
Aligned to gpa_Type_2.xyz, RMSD 0.28942
C -0.846556 -1.245796 -0.354291
C 0.544871 -1.126027 0.071700
C 1.348150 0.011596 0.169646
C 0.791628 1.159900 -0.094500
C -0.746215 1.264138 -0.091790
C -1.496719 0.059172 0.436828
H -1.311704 -1.725838 -1.341189
H 0.975988 -2.181070 0.366917
H 2.323660 0.005839 0.606444
H 1.349809 2.099135 -0.267653
H -1.152760 1.754930 -0.986848
H -1.780150 -0.075981 1.484736
12
Aligned to gpa_Type_1.xyz, RMSD 0.27433
C -0.762673 -0.990305 -0.162299
C 0.727483 -1.265517 0.090222
C 1.382266 -0.079063 0.298664
C 0.684488 1.145061 0.071203
C -0.649187 1.132697 -0.418356
C -1.369424 0.115911 0.579605
H -1.430865 -1.696573 -0.604567
H 1.259208 -2.219533 -0.225059
H 2.453062 -0.051586 0.229685
H 1.100652 2.094383 0.372468
H -1.188574 1.557764 -1.256476
H -2.206438 0.256762 1.024908
12
Aligned to gpa_Type_1.xyz, RMSD 0.26194
C -0.725699 -1.042194 -0.233531
C 0.731720 -1.232981 0.025643
C 1.514407 -0.041994 0.002000
C 0.803329 1.160883 -0.228999
C -0.663196 1.096458 -0.191112
C -1.472988 0.072670 0.568510
H -1.365187 -1.381540 -1.004870
H 0.872585 -2.099676 0.427929
H 2.721607 -0.113768 0.370391
H 1.078672 2.090478 0.071888
H -1.119536 1.765089 -0.926074
H -2.375716 -0.273424 1.118224
12
Aligned to gpa_Type_1.xyz, RMSD 0.26669
C -0.685329 -1.025606 -0.258875
C 0.671164 -1.238817 0.126873
C 1.545299 -0.064203 0.168445
C 0.810680 1.060310 -0.207554
C -0.674536 1.058390 -0.158002
C -1.448468 -0.002125 0.594524
H -1.280447 -1.268136 -1.157634
H 1.005348 -2.380890 0.431083
H 2.482580 -0.004746 0.313711
H 1.084280 2.203385 -0.194555
H -1.139386 1.817088 -0.739502
H -2.371186 -0.154650 1.081484
12
Aligned to gpa_Type_2.xyz, RMSD 0.29796
C -0.899819 -1.037859 -0.605336
C 0.534459 -1.055919 -0.115449
C 1.161744 0.091640 0.352535
C 0.702931 1.273032 0.082624
C -0.733374 1.245139 -0.033243
C -1.376571 0.003914 0.349405
H -1.292046 -2.035794 -1.106339
H 0.708205 -1.993701 0.361016
H 2.288787 -0.006656 0.739416
H 1.327065 1.885416 -0.485529
H -1.056971 1.804087 -0.916149
H -1.364409 -0.173301 1.377049
12
Aligned to gpa_Type_2.xyz, RMSD 0.16433
C -0.845004 -0.991876 -0.558684
C 0.477092 -1.140068 0.080545
C 1.250803 0.044527 0.351660
C 0.770875 1.246095 0.089587
C -0.607737 1.113330 -0.153986
C -1.414536 0.000514 0.309598
H -1.309656 -1.790572 -0.871146
H 1.068823 -2.085690 0.103791
H 2.216652 -0.104438 0.529172
H 1.354528 2.122503 -0.296870
H -1.132107 1.630500 -0.907876
H -1.829732 -0.044826 1.324210
12
Aligned to gpa_Type_2.xyz, RMSD 0.29925
C -0.788797 -1.056371 -0.279353
C 0.716626 -1.223108 -0.004292
C 1.446062 -0.176664 0.148254
C 0.723206 1.193438 0.109735
C -0.724562 1.151017 -0.399754
C -1.286439 0.133996 0.474011
H -1.408144 -1.897001 -0.717282
H 0.903062 -2.287055 0.071140
H 2.659178 -0.096501 0.321721
H 0.975376 2.273992 0.356620
H -1.177444 1.824211 -1.286072
H -2.038124 0.160045 1.205274
12
Aligned to gpa_Type_2.xyz, RMSD 0.27037
C -0.955770 -1.085811 -0.303967
C 0.581445 -1.235091 -0.106343
C 1.350137 -0.106015 0.142205
C 0.796742 1.235903 0.147106
C -0.654459 1.157917 -0.056814
C -1.491469 0.024085 0.369647
H -1.489332 -1.571994 -1.211823
H 1.032943 -2.070099 0.295648
H 2.287802 0.144655 0.566613
H 1.190690 2.160760 -0.172880
H -0.940644 1.387673 -1.158364
H -1.708083 -0.041984 1.488971
12
Aligned to gpa_Type_3.xyz, RMSD 0.22952
C -0.837857 -1.142382 -0.066491
C 0.493663 -1.024910 -0.336339
C 1.440162 0.107520 0.158771
C 0.660213 1.190476 0.270330
C -0.760288 1.423357 -0.178653
C -1.465516 0.048154 0.223908
H -1.346487 -2.129836 0.136809
H 0.925264 -1.865927 -0.657983
H 2.441810 -0.048974 0.342051
H 1.120522 2.112254 0.337232
H -0.366107 1.048012 -1.058994
H -2.305380 0.282258 0.829362
12
Aligned to gpa_Type_1.xyz, RMSD 0.18881
C -0.731260 -0.948158 0.056382
C 0.743830 -1.109927 0.280458
C 1.540246 -0.015429 0.193528
C 0.726322 1.066746 -0.071257
C -0.735236 1.023368 -0.119147
C -1.483930 0.057625 0.708292
H -1.289993 -1.361277 -0.865265
H 1.173843 -2.092882 -0.259240
H 2.685890 -0.300031 0.348875
H 1.118116 2.115837 -0.050836
H -1.189087 1.456626 -1.050512
H -2.558743 0.107503 0.828722
12
Aligned to gpa_Type_2.xyz, RMSD 0.32811
C -0.920011 -1.229340 -0.639874
C 0.487978 -1.169169 -0.021899
C 1.262328 -0.065820 0.303334
C 0.752866 1.280814 0.051615
C -0.658551 1.254355 -0.171264
C -1.258178 -0.079836 0.292137
H -1.686909 -1.967058 -1.115209
H 0.942088 -2.021344 0.385790
H 2.231739 0.051800 0.824350
H 1.186325 2.117533 -0.329675
H -1.127269 1.956451 -0.994273
H -1.212403 -0.128386 1.414969
12
Aligned to gpa_Type_2.xyz, RMSD 0.24057
C -0.794758 -0.998314 -0.406569
C 0.582800 -1.120315 -0.033151
C 1.464395 0.145202 0.273438
C 0.695120 1.187745 -0.100460
C -0.700536 0.944616 -0.222111
C -1.463565 0.007775 0.441008
H -1.293365 -1.883240 -0.926619
H 0.797563 -2.139973 0.161075
H 2.600397 -0.034017 0.527470
H 1.298216 2.063686 -0.141908
H -1.074731 1.837678 -0.908501
H -2.111535 -0.010843 1.336330
12
Aligned to gpa_Type_3.xyz, RMSD 0.17132
C -0.840106 -1.131580 -0.183005
C 0.607837 -1.167906 -0.336045
C 1.318246 0.096101 -0.003571
C 0.733519 1.317271 0.154224
C -0.850522 1.381236 0.012777
C -1.390188 0.126738 0.228159
H -1.572137 -1.943096 0.082786
H 1.158852 -1.927709 -0.263707
H 2.268634 -0.053883 0.200128
H 1.417237 2.139496 0.484617
H -0.559442 1.177733 -1.088254
H -2.291932 -0.014401 0.711893
12
Aligned to gpa_Type_3.xyz, RMSD 0.18674
C -0.850163 -1.159951 -0.190524
C 0.594990 -1.162771 -0.318138
C 1.336581 0.103856 -0.006053
C 0.763175 1.324919 0.117234
C -0.867351 1.372162 -0.008368
C -1.385239 0.124994 0.234961
H -1.599739 -1.927095 0.034090
H 1.163456 -1.959766 -0.271193
H 2.303876 0.012691 0.257372
H 1.388458 2.082104 0.488679
H -0.572388 1.175549 -1.129875
H -2.275658 0.013309 0.791815
12
Aligned to gpa_Type_1.xyz, RMSD 0.18888
C -0.731834 -0.910415 -0.272170
C 0.648009 -1.157383 0.171886
C 1.393444 0.088673 0.280510
C 0.823169 1.220278 0.084772
C -0.665705 1.061443 -0.049295
C -1.439941 0.014096 0.576058
H -1.251380 -1.613948 -0.981105
H 0.908451 -2.189283 -0.021006
H 2.509639 -0.106079 0.342190
H 1.276701 2.164233 -0.303610
H -1.079084 1.443432 -0.844950
H -2.391471 -0.015046 1.016718
12
Aligned to gpa_Type_2.xyz, RMSD 0.27383
C -0.903959 -1.092463 -0.227761
C 0.540935 -0.972356 0.041975
C 1.336271 0.020993 0.375270
C 0.819931 1.293327 0.219363
C -0.800002 1.166312 -0.055274
C -1.525957 0.039269 0.436118
H -1.458788 -1.714025 -0.875265
H 1.190725 -1.961526 -0.141738
H 2.554521 -0.067699 0.345731
H 1.300389 2.010592 -0.270876
H -0.752464 1.342131 -1.077383
H -2.301601 -0.064556 1.229841
12
Aligned to gpa_Type_2.xyz, RMSD 0.28157
C -0.892517 -1.074235 -0.271397
C 0.566641 -1.024605 0.018971
C 1.337864 -0.005396 0.428209
C 0.767181 1.237972 0.235543
C -0.848335 1.163978 -0.003630
C -1.493583 0.040728 0.471859
H -1.518723 -1.617987 -0.875089
H 1.265805 -2.077039 -0.092238
H 2.487044 -0.017024 0.317781
H 1.381456 2.121555 -0.306477
H -0.776860 1.321819 -1.105004
H -2.275971 -0.069767 1.181474
12
Aligned to gpa_Type_2.xyz, RMSD 0.33843
C -0.744514 -1.087518 -0.072419
C 0.669388 -1.154794 0.064608
C 1.451168 -0.076180 0.122472
C 0.608724 1.161586 0.133511
C -0.657790 1.115439 -0.343662
C -1.442675 0.090346 0.362204
H -1.341624 -1.740507 -0.889704
H 1.102462 -2.082527 -0.136924
H 2.522052 -0.286921 0.288054
H 0.906146 2.192373 0.338974
H -0.985044 1.449458 -1.246275
H -2.088292 0.419244 1.379162
12
Aligned to gpa_Type_2.xyz, RMSD 0.26661
C -0.852112 -1.037569 -0.297567
C 0.616788 -1.080917 -0.005657
C 1.376047 -0.000823 0.442001
C 0.765779 1.226183 0.235333
C -0.838150 1.171805 0.008240
C -1.464899 0.031069 0.482480
H -1.538291 -1.612123 -0.907354
H 1.225239 -2.041620 -0.050771
H 2.376604 -0.004041 0.331348
H 1.392719 2.096574 -0.312485
H -0.850735 1.298064 -1.099940
H -2.208989 -0.046602 1.174372
12
Aligned to gpa_Type_2.xyz, RMSD 0.26531
C -0.872481 -1.049003 -0.291912
C 0.627610 -1.087941 0.016141
C 1.396745 -0.011568 0.442915
C 0.803439 1.222840 0.252626
C -0.844880 1.148626 -0.002182
C -1.479480 0.002724 0.482118
H -1.540890 -1.625434 -0.950481
H 1.204299 -2.002016 -0.061870
H 2.376014 -0.007068 0.369092
H 1.380936 2.103606 -0.346996
H -0.866633 1.346346 -1.128999
H -2.184677 -0.041114 1.219549
12
Aligned to gpa_Type_2.xyz, RMSD 0.28678
C -0.865791 -1.135228 -0.307599
C 0.538972 -1.176337 0.175098
C 1.390948 -0.018660 0.231348
C 0.818520 1.234734 -0.052292
C -0.661720 1.147782 -0.047367
C -1.537886 0.064285 0.407915
H -1.303093 -1.534236 -1.169000
H 1.104011 -2.120793 0.185979
H 2.518819 -0.296963 0.405377
H 1.121704 2.362570 -0.136050
H -1.087534 1.432186 -1.057282
H -2.036949 0.040659 1.363874
12
Aligned to gpa_Type_3.xyz, RMSD 0.15768
C -0.831238 -1.072080 -0.121609
C 0.482562 -1.069102 -0.094050
C 1.323840 0.013678 0.112161
C 0.733428 1.275084 0.311520
C -0.729586 1.520976 -0.017722
C -1.560924 0.193956 0.179996
H -1.245343 -2.028301 -0.199862
H 1.084845 -2.114229 -0.257576
H 2.485770 0.059255 -0.032039
H 1.304855 2.046777 0.399528
H -0.583834 1.051430 -1.106827
H -2.464376 0.122556 0.826482
12
Aligned to gpa_Type_1.xyz, RMSD 0.17690
C -0.688834 -0.902927 0.023001
C 0.748386 -1.198317 0.215099
C 1.496049 -0.019029 0.140411
C 0.752418 1.082331 -0.141362
C -0.675355 1.004445 -0.212185
C -1.333307 0.075522 0.696958
H -1.151441 -1.429360 -0.856383
H 0.928051 -2.298708 0.001364
H 2.583260 -0.005544 0.147028
H 1.172970 1.998906 0.228729
H -1.400748 1.542514 -0.946734
H -2.431450 0.150168 0.704073
12
Aligned to gpa_Type_2.xyz, RMSD 0.23649
C -0.914608 -1.144595 -0.594256
C 0.385888 -1.129202 -0.085649
C 1.189964 0.016804 0.325759
C 0.816114 1.295448 0.118582
C -0.592258 1.317240 -0.046566
C -1.323051 0.009340 0.032439
H -1.352723 -2.161327 -0.502110
H 0.765975 -1.985078 0.336044
H 2.249693 0.099807 0.126652
H 1.427542 2.179362 0.168535
H -0.974478 1.699205 -0.970009
H -1.678056 -0.197005 1.090579
12
Aligned to gpa_Type_2.xyz, RMSD 0.24084
C -0.728493 -1.019255 -0.323884
C 0.662491 -1.175402 -0.066679
C 1.273724 0.047168 0.319529
C 0.694670 1.159362 -0.162370
C -0.671023 1.082532 -0.300124
C -1.517596 0.057023 0.372088
H -1.398869 -1.524403 -0.909313
H 1.025581 -2.180467 0.196028
H 2.328204 -0.090456 0.505400
H 1.199521 2.040253 0.105042
H -1.149909 1.692552 -1.174605
H -1.718301 -0.088909 1.438889
12
Aligned to gpa_Type_2.xyz, RMSD 0.37143
C -0.771336 -1.088054 -0.398844
C 0.481309 -1.118442 0.146314
C 1.297808 -0.013665 0.386272
C 0.850045 1.287206 0.124156
C -0.742804 1.063467 -0.111170
C -1.243987 -0.092640 0.564280
H -1.239604 -1.613927 -1.178496
H 1.047690 -1.971230 -0.135748
H 2.244798 -0.134481 0.884774
H 1.160294 1.877229 -0.782809
H -1.142603 1.693660 -0.825578
H -1.941608 0.110876 1.326851
12
Aligned to gpa_Type_2.xyz, RMSD 0.26919
C -0.831503 -1.213319 -0.761968
C 0.474884 -1.116871 0.059170
C 1.259811 0.120705 0.326637
C 0.747962 1.409811 -0.011593
C -0.651474 1.360186 0.008613
C -1.442671 -0.003161 0.222330
H -1.494470 -2.024757 -0.751223
H 0.865323 -2.038451 0.405482
H 2.270516 -0.171887 0.528233
H 1.347226 2.162757 -0.372219
H -0.953521 1.968893 -0.873368
H -1.592080 -0.453907 1.219907
12
Aligned to gpa_Type_2.xyz, RMSD 0.38711
C -0.960281 -1.092176 0.118943
C 0.687012 -1.235965 -0.027796
C 1.361405 -0.075528 0.246692
C 0.623257 1.139980 0.271898
C -0.680589 1.179983 -0.241523
C -1.459247 0.280159 0.447951
H -1.298901 -1.733615 -0.789517
H 1.128683 -2.194523 -0.352610
H 2.517155 0.101936 0.207491
H 1.144154 2.027430 0.430788
H -0.994630 1.269372 -1.469621
H -2.068018 0.332946 1.157306
12
Aligned to gpa_Type_3.xyz, RMSD 0.32289
C -0.776268 -1.014266 -0.331508
C 0.565119 -0.973430 -0.303515
C 1.434975 0.092693 0.267752
C 0.767069 1.329631 0.167339
C -0.700465 1.348249 0.008085
C -1.379596 0.107374 0.337389
H -1.525402 -1.920762 -0.107668
H 0.860259 -2.087166 -0.527106
H 2.444149 -0.085300 0.582679
H 1.166408 2.229170 0.019398
H -0.571192 1.077319 -1.086256
H -2.285058 -0.103510 0.973413
12
Aligned to gpa_Type_2.xyz, RMSD 0.26392
C -0.834785 -1.103469 -0.712422
C 0.460702 -1.176365 0.016157
C 1.371193 0.029844 0.138043
C 0.893645 1.206109 -0.061674
C -0.633288 1.187757 -0.091256
C -1.424373 -0.028884 0.281847
H -1.277002 -2.046243 -0.802155
H 0.854739 -2.130940 0.413927
H 2.404187 -0.008860 0.518376
H 1.446335 2.247981 -0.220177
H -1.198378 2.010683 -0.817717
H -2.062975 -0.187616 1.337052
12
Aligned to gpa_Type_2.xyz, RMSD 0.23756
C -0.865251 -1.035332 -0.604263
C 0.417114 -1.023530 -0.016709
C 1.238851 -0.009762 0.286005
C 0.788449 1.254606 -0.005796
C -0.603557 1.194366 -0.132232
C -1.464190 -0.004484 0.269529
H -1.287814 -1.879343 -1.044794
H 0.849247 -2.058204 0.344250
H 2.179268 -0.195532 0.618130
H 1.262255 2.300200 -0.219243
H -1.078825 1.622747 -1.025434
H -1.435547 -0.165734 1.530559
12
Aligned to gpa_Type_2.xyz, RMSD 0.28825
C -1.034351 -1.064334 -0.735662
C 0.336658 -1.116598 -0.015770
C 1.205994 0.039307 0.330742
C 0.743723 1.378419 -0.007056
C -0.597696 1.387554 0.007475
C -1.393050 0.124781 0.252476
H -1.344992 -2.195040 -0.726172
H 0.942561 -1.988327 0.455328
H 2.284096 -0.132429 0.485287
H 1.472257 2.202751 -0.346899
H -0.980510 1.903388 -0.831590
H -1.634688 -0.539474 1.131843
12
Aligned to gpa_Type_3.xyz, RMSD 0.19805
C -0.879818 -1.190750 0.025674
C 0.491858 -1.091589 -0.119596
C 1.299402 0.052326 0.120934
C 0.683736 1.304952 0.171000
C -0.756166 1.562964 -0.188601
C -1.549135 0.045156 0.426128
H -1.385504 -2.057860 -0.284916
H 1.140035 -1.948956 -0.284362
H 2.576899 0.028281 0.046709
H 1.424018 2.013646 0.507656
H -0.596199 1.142976 -1.232723
H -2.449127 0.138855 0.812098
12
Aligned to gpa_Type_3.xyz, RMSD 0.17263
C -0.883469 -1.050948 -0.076918
C 0.537956 -1.037202 -0.292825
C 1.281389 0.185324 -0.085560
C 0.658796 1.329503 0.131285
C -0.687481 1.455886 0.067798
C -1.396559 0.108112 0.368647
H -1.374116 -2.176133 0.117156
H 1.237588 -1.976674 -0.448652
H 2.263432 -0.104891 0.308181
H 1.375722 1.974627 0.507380
H -0.589385 1.094211 -1.218009
H -2.423873 0.198185 0.621517
12
Aligned to gpa_Type_3.xyz, RMSD 0.16553
C -0.898336 -1.118590 -0.134049
C 0.567333 -1.078286 -0.343714
C 1.277666 0.151639 -0.097349
C 0.645343 1.304603 0.135489
C -0.671184 1.339759 0.107354
C -1.357948 0.072917 0.393261
H -1.333560 -1.888136 0.114347
H 1.052710 -2.006882 -0.413237
H 2.229807 -0.017773 0.337434
H 1.442177 2.137526 0.429953
H -0.547900 1.038929 -1.071976
H -2.406109 0.064296 0.542488
12
Aligned to gpa_Type_3.xyz, RMSD 0.22001
C -0.885492 -1.077829 -0.131800
C 0.630998 -1.028945 -0.470806
C 1.401877 0.110893 -0.092534
C 0.789702 1.292438 0.178652
C -0.640158 1.423818 0.062507
C -1.333971 0.152013 0.269368
H -1.585119 -2.075919 0.361720
H 1.039963 -2.060485 -0.543804
H 2.335559 0.140514 0.413917
H 1.283461 2.063997 0.538887
H -0.650046 0.986767 -1.134466
H -2.386775 0.072738 0.548360
12
Aligned to gpa_Type_2.xyz, RMSD 0.32377
C -0.892819 -1.169948 -0.207473
C 0.579599 -1.087508 -0.141315
C 1.384759 0.074422 0.176999
C 0.743644 1.283067 0.144318
C -0.607148 1.276972 0.041401
C -1.471582 -0.020779 0.442847
H -1.500555 -1.894668 -0.737926
H 1.008021 -2.017862 -0.237349
H 2.340111 0.012394 0.330740
H 1.124848 2.303788 0.052716
H -0.465935 1.027903 -1.048300
H -2.242943 0.212219 1.183343
12
Aligned to gpa_Type_1.xyz, RMSD 0.21835
C -0.719334 -0.919289 -0.038349
C 0.722818 -1.244679 0.125750
C 1.420816 -0.087165 -0.018104
C 0.759164 1.076271 -0.060830
C -0.693053 1.071504 -0.122958
C -1.525808 0.066050 0.748939
H -1.067216 -1.597849 -0.564654
H 1.173010 -2.263315 0.028142
H 2.405820 0.076193 0.020941
H 1.238242 1.929465 0.224039
H -1.131942 1.715954 -0.824569
H -2.582517 0.176859 0.481652
12
Aligned to gpa_Type_2.xyz, RMSD 0.31405
C -0.812051 -1.143334 -0.664299
C 0.467725 -1.110059 0.066735
C 1.416517 0.055959 0.213659
C 0.861741 1.204806 0.117312
C -0.641373 1.318851 -0.083771
C -1.326346 -0.023259 0.176976
H -1.310666 -2.228334 -0.515192
H 0.620136 -2.078878 0.455485
H 2.463406 -0.013908 0.075747
H 1.339657 2.293693 -0.010940
H -1.018753 2.001101 -0.800541
H -2.059993 -0.276639 0.968830
12
Aligned to gpa_Type_1.xyz, RMSD 0.29098
C -0.766102 -0.904231 -0.265624
C 0.612484 -1.231261 0.165920
C 1.525521 -0.157732 0.418058
C 0.737368 1.115425 0.098711
C -0.713244 1.121208 -0.277959
C -1.491458 0.131815 0.417127
H -1.348328 -1.633739 -0.859625
H 1.011535 -2.239407 -0.201789
H 2.652223 0.167047 0.437575
H 1.344303 1.999890 -0.020665
H -1.406115 1.619723 -1.203738
H -2.158189 0.011261 1.292009
12
Aligned to gpa_Type_2.xyz, RMSD 0.31828
C -0.856008 -1.166691 -0.680311
C 0.485726 -1.113918 0.033997
C 1.400899 -0.045766 0.330506
C 0.883398 1.209161 0.191804
C -0.582339 1.334710 -0.129304
C -1.365016 0.082019 0.193847
H -1.289355 -2.077724 -0.622947
H 0.799163 -2.065741 0.604778
H 2.444782 -0.095526 -0.080622
H 1.252318 2.244209 0.039477
H -1.175629 1.922820 -0.863287
H -1.997939 -0.227554 0.982064
12
Aligned to gpa_Type_2.xyz, RMSD 0.29104
C -0.963766 -1.025899 -0.245646
C 0.521362 -1.107281 0.182307
C 1.387374 0.080069 0.407587
C 0.873584 1.266620 0.027612
C -0.591062 1.144088 -0.152865
C -1.474256 0.109782 0.487752
H -1.155252 -1.706527 -1.081724
H 1.008922 -2.294722 0.121051
H 2.485085 -0.189104 0.142524
H 1.157599 2.306561 -0.121710
H -1.004484 1.474303 -1.024248
H -2.245105 -0.057892 1.257361
12
Aligned to gpa_Type_1.xyz, RMSD 0.26167
C -0.751657 -0.947319 -0.517367
C 0.591027 -1.264359 0.027315
C 1.347456 -0.004162 0.194033
C 0.781044 1.157703 -0.128741
C -0.750955 1.147222 -0.176143
C -1.379011 -0.071617 0.523914
H -1.315302 -1.762142 -0.882096
H 1.275475 -2.119407 0.327747
H 2.404086 -0.080492 0.317875
H 1.453098 2.016351 0.077797
H -1.351972 1.811462 -0.906040
H -2.303291 0.116759 1.141705
12
Aligned to gpa_Type_3.xyz, RMSD 0.12338
C -0.805995 -1.015502 -0.041102
C 0.499797 -1.053885 -0.281715
C 1.332801 0.082743 -0.118953
C 0.640816 1.251322 0.229417
C -0.780484 1.292263 0.118657
C -1.454028 0.088243 0.161887
H -1.247696 -1.975390 0.156421
H 0.975815 -1.891775 -0.379646
H 2.476201 -0.114877 0.175123
H 1.264583 2.072335 0.474452
H -0.455572 1.128361 -1.115466
H -2.446239 0.136162 0.620928
12
Aligned to gpa_Type_3.xyz, RMSD 0.12011
C -0.862558 -1.012781 -0.135458
C 0.558512 -1.045178 -0.277429
C 1.320427 0.031213 -0.064394
C 0.677168 1.182300 0.302730
C -0.673504 1.321538 0.044958
C -1.452048 0.175438 0.215390
H -1.327287 -1.925752 0.197977
H 1.129950 -2.068422 -0.487362
H 2.367533 0.043370 0.153688
H 1.203473 2.135270 0.487337
H -0.492467 0.960874 -1.059075
H -2.449200 0.202131 0.621638
12
Aligned to gpa_Type_2.xyz, RMSD 0.25818
C -0.861782 -1.138321 -0.572620
C 0.512291 -1.162866 -0.030424
C 1.280447 0.064991 0.306752
C 0.797155 1.269471 -0.109952
C -0.614770 1.223497 -0.236182
C -1.320965 -0.018862 0.232181
H -1.529139 -1.870496 -1.041177
H 0.844860 -2.108788 0.379189
H 2.264630 0.036344 0.706064
H 1.268322 2.091919 -0.178506
H -1.196118 1.802465 -0.880977
H -1.444929 -0.189355 1.425651
12
Aligned to gpa_Type_2.xyz, RMSD 0.28694
C -0.819585 -1.110464 -0.512457
C 0.518129 -1.153135 0.043250
C 1.306402 -0.006826 0.303192
C 0.744209 1.239120 0.014778
C -0.777769 1.233251 -0.213119
C -1.351732 -0.041527 0.385611
H -1.408430 -1.727089 -1.116149
H 0.965192 -2.060573 0.377072
H 2.288594 -0.220008 0.740242
H 1.421851 2.208079 -0.418077
H -1.338656 1.865534 -0.929823
H -1.548204 -0.226364 1.325479
12
Aligned to gpa_Type_2.xyz, RMSD 0.25164
C -0.746697 -0.948195 -0.264610
C 0.629670 -1.240785 0.170743
C 1.328729 -0.051606 0.364548
C 0.697007 1.130027 0.076962
C -0.679583 1.150798 -0.157059
C -1.537916 0.090395 0.362570
H -1.267711 -1.623430 -1.070843
H 0.968130 -2.249166 -0.033986
H 2.376419 0.097192 0.362444
H 1.168184 2.054868 -0.104553
H -1.021816 1.499718 -1.163994
H -1.914415 0.090184 1.457779
12
Aligned to gpa_Type_2.xyz, RMSD 0.26698
C -0.820623 -1.000948 -0.206493
C 0.683608 -1.242782 0.097421
C 1.374584 -0.034167 0.302535
C 0.698269 1.072265 -0.011195
C -0.667064 1.092938 -0.202607
C -1.610868 0.094360 0.367770
H -1.378579 -1.511549 -0.881136
H 1.121945 -2.196120 -0.079509
H 2.448366 0.039383 0.361654
H 1.125293 2.146501 0.044241
H -0.925904 1.464034 -1.133403
H -2.049025 0.076084 1.340723
12
Aligned to gpa_Type_1.xyz, RMSD 0.13064
C -0.731626 -0.911022 -0.065855
C 0.709783 -1.220989 -0.011203
C 1.417096 -0.047241 0.078894
C 0.783914 1.139778 0.041243
C -0.625892 0.957538 -0.092615
C -1.438904 0.100090 0.672303
H -1.227316 -1.639702 -0.758791
H 0.998713 -2.229449 0.015098
H 2.475573 -0.005591 0.188151
H 1.239987 2.253852 0.121576
H -1.123270 1.422856 -0.925493
H -2.478059 0.179881 0.736691
12
Aligned to gpa_Type_1.xyz, RMSD 0.11718
C -0.711428 -0.862510 -0.065415
C 0.730525 -1.210787 0.024837
C 1.428805 -0.062125 0.140730
C 0.747855 1.119874 0.080351
C -0.606351 0.925348 -0.131093
C -1.477228 0.100131 0.611558
H -1.197249 -1.528034 -0.773144
H 1.033236 -2.250984 -0.039674
H 2.528958 -0.012467 0.219402
H 1.168658 2.175283 0.012269
H -1.120584 1.418233 -0.896793
H -2.525199 0.188038 0.816972
12
Aligned to gpa_Type_1.xyz, RMSD 0.16094
C -0.693287 -0.851566 -0.055141
C 0.726942 -1.176326 0.066073
C 1.487761 -0.032374 0.202640
C 0.763025 1.128211 0.091226
C -0.582296 0.932781 -0.097552
C -1.483717 0.117721 0.666783
H -1.334856 -1.467081 -0.542929
H 1.135241 -2.215117 -0.114544
H 2.591262 -0.028267 0.133604
H 1.118515 2.004131 -0.034992
H -1.119465 1.504807 -0.802323
H -2.609126 0.083079 0.487154
12
Aligned to gpa_Type_1.xyz, RMSD 0.20740
C -0.628784 -0.896598 -0.024944
C 0.700990 -1.163064 0.100854
C 1.518158 -0.046964 0.197749
C 0.785902 1.130420 0.053942
C -0.631142 0.924747 -0.013037
C -1.497989 0.023181 0.732894
H -1.245847 -1.479867 -0.705301
H 1.042117 -2.202389 0.031419
H 2.544778 -0.046214 0.097890
H 1.255413 2.042864 -0.167264
H -1.365510 1.531419 -0.568176
H -2.478087 0.182465 0.263972
12
Aligned to gpa_Type_1.xyz, RMSD 0.25022
C -0.707092 -0.901750 -0.028905
C 0.677732 -1.127261 0.146321
C 1.558061 -0.032208 0.271116
C 0.765822 1.127265 0.083312
C -0.673626 0.954595 -0.041207
C -1.549784 0.047946 0.771272
H -1.215947 -1.625692 -0.656486
H 1.096277 -2.242005 -0.065033
H 2.591565 -0.036598 0.104571
H 1.262480 1.950895 -0.239267
H -1.398551 1.691183 -0.515972
H -2.406937 0.193631 0.170278
12
Aligned to gpa_Type_2.xyz, RMSD 0.28404
C -0.819753 -1.066966 -0.163172
C 0.628754 -1.206867 0.010458
C 1.405413 -0.038525 0.081239
C 0.743954 1.172062 -0.102061
C -0.735163 1.147248 -0.165243
C -1.625390 0.072704 0.348817
H -1.337015 -1.462713 -1.042338
H 1.129842 -2.119767 0.276927
H 2.456782 -0.088576 0.434275
H 1.367845 2.148972 0.051253
H -1.164161 1.533564 -1.077423
H -2.051106 -0.091138 1.347269
12
Aligned to gpa_Type_3.xyz, RMSD 0.17743
C -0.845696 -1.043227 -0.014003
C 0.588495 -1.103137 -0.186211
C 1.342483 0.079825 0.006828
C 0.677163 1.244804 0.139568
C -0.763145 1.448888 -0.104615
C -1.479802 0.125165 0.288580
H -1.473821 -1.848203 -0.055519
H 1.226336 -1.940182 -0.532105
H 2.367599 -0.042391 0.334539
H 1.340720 2.032204 0.328847
H -0.520599 1.025009 -0.971645
H -2.459735 0.021245 0.765737
12
Aligned to gpa_Type_3.xyz, RMSD 0.14132
C -0.855341 -1.028295 0.110255
C 0.567395 -1.071068 -0.134238
C 1.339995 0.097430 0.063999
C 0.724662 1.275035 0.218456
C -0.723594 1.430846 0.067930
C -1.524000 0.136624 0.286511
H -1.336177 -1.896341 -0.008900
H 1.164092 -1.944045 -0.514359
H 2.445645 -0.063038 0.070318
H 1.427876 2.055389 0.533268
H -0.600210 0.965228 -1.318085
H -2.630343 0.042238 0.624846
12
Aligned to gpa_Type_3.xyz, RMSD 0.13242
C -0.885744 -1.037244 0.020752
C 0.555627 -1.046092 -0.165359
C 1.337884 0.078685 0.100251
C 0.784059 1.236897 0.157601
C -0.783548 1.446042 -0.016933
C -1.528102 0.136269 0.139802
H -1.434359 -2.053369 0.039073
H 1.048153 -1.933175 -0.378931
H 2.391916 0.117594 -0.000638
H 1.453674 2.001205 0.449633
H -0.509810 1.074181 -0.895986
H -2.429751 -0.020991 0.550736
12
Aligned to gpa_Type_3.xyz, RMSD 0.21764
C -0.879837 -1.159445 0.009705
C 0.533950 -0.996264 -0.337587
C 1.368650 0.099732 -0.037979
C 0.715428 1.273824 0.213800
C -0.753299 1.415440 0.034778
C -1.417295 0.221483 0.305826
H -1.186991 -2.163877 0.011889
H 1.072908 -1.898547 -0.463280
H 2.374107 -0.313389 0.321272
H 1.104852 2.146039 0.531079
H -0.599898 1.075331 -1.385560
H -2.332576 0.299674 0.796059
12
Aligned to gpa_Type_1.xyz, RMSD 0.22057
C -0.766219 -0.993427 -0.043580
C 0.702237 -1.153853 0.232499
C 1.515136 -0.053916 0.197865
C 0.816134 1.164554 -0.050203
C -0.731736 0.921063 0.049195
C -1.558960 0.049474 0.680572
H -1.270316 -1.243188 -0.995226
H 1.181451 -2.081237 0.141725
H 2.629461 -0.096121 0.091273
H 1.431310 2.019829 -0.190527
H -1.339321 1.413337 -0.669614
H -2.609177 0.053483 0.556020
12
Aligned to gpa_Type_3.xyz, RMSD 0.20333
C -0.886907 -1.160630 -0.050161
C 0.555710 -1.004238 -0.307073
C 1.382111 0.046120 -0.007731
C 0.749808 1.277765 0.192957
C -0.751096 1.376819 0.052958
C -1.446338 0.201015 0.322987
H -1.178383 -2.182482 0.080815
H 1.032855 -1.990617 -0.580034
H 2.366982 -0.152100 0.359706
H 1.229375 2.228886 0.550417
H -0.647499 0.997658 -1.352421
H -2.406620 0.361804 0.737581
12
Aligned to gpa_Type_3.xyz, RMSD 0.26030
C -0.865096 -0.998740 -0.044870
C 0.571253 -1.072905 -0.110525
C 1.342489 0.059542 0.113300
C 0.742568 1.283726 0.189882
C -0.742288 1.448047 -0.002538
C -1.477476 0.127596 0.374075
H -1.369347 -1.824999 -0.466716
H 0.973452 -2.055695 -0.243832
H 2.467592 -0.119993 0.194892
H 1.230167 2.208089 0.077610
H -0.490170 1.092890 -0.901510
H -2.383144 -0.147557 0.820232
12
Aligned to gpa_Type_2.xyz, RMSD 0.31763
C -0.809637 -1.057173 -0.155309
C 0.547105 -1.061640 -0.116173
C 1.350824 -0.008741 0.159647
C 0.808439 1.285682 0.283426
C -0.714311 1.344223 0.189806
C -1.415885 0.183136 0.420172
H -1.328484 -1.918826 -0.658671
H 1.058017 -1.995131 -0.108270
H 2.343330 -0.180179 0.187246
H 1.186530 2.259567 -0.073493
H -0.658177 1.127343 -1.089826
H -2.367748 0.021738 0.961446
12
Aligned to gpa_Type_1.xyz, RMSD 0.30791
C -0.701489 -1.010926 -0.251790
C 0.729758 -1.335790 0.139771
C 1.449885 -0.050083 0.099636
C 0.711861 1.035727 -0.165002
C -0.760006 1.014753 -0.442583
C -1.463826 -0.005946 0.601055
H -1.386392 -1.357795 -1.061496
H 1.236227 -2.381611 0.220152
H 2.473304 0.074999 0.653552
H 1.188365 2.046275 -0.340480
H -1.143998 2.064787 -0.610245
H -2.333691 -0.094389 1.157429
12
Aligned to gpa_Type_1.xyz, RMSD 0.26156
C -0.708860 -1.018698 -0.233030
C 0.755171 -1.274637 0.113060
C 1.492267 -0.053634 0.090113
C 0.746248 1.070173 -0.159096
C -0.753543 1.012390 -0.442693
C -1.443203 0.023957 0.558978
H -1.302082 -1.389028 -1.059543
H 1.149135 -2.320590 0.209178
H 2.348468 0.034146 0.590776
H 1.176821 2.040952 -0.210266
H -1.185822 1.859107 -0.625992
H -2.274600 0.015860 1.168516
12
Aligned to gpa_Type_2.xyz, RMSD 0.15252
C -0.848804 -1.006888 -0.561908
C 0.549077 -1.075519 -0.156491
C 1.348096 0.122022 0.180706
C 0.708960 1.243786 0.144792
C -0.666376 1.282917 -0.054595
C -1.365162 0.085453 0.228826
H -1.428841 -2.047488 -0.435098
H 0.826017 -2.072289 0.020538
H 2.446779 -0.075374 0.418057
H 1.282330 2.208288 0.118749
H -0.893961 1.404426 -1.061036
H -1.958114 -0.069335 1.157460
12
Aligned to gpa_Type_2.xyz, RMSD 0.14708
C -0.895944 -0.977363 -0.514922
C 0.542276 -0.975730 -0.160058
C 1.392319 0.062126 0.191967
C 0.719760 1.246999 0.123464
C -0.658359 1.262959 -0.016225
C -1.396091 0.106713 0.303319
H -1.470812 -1.893044 -0.649639
H 0.838188 -1.954808 0.110544
H 2.390863 -0.024401 0.533963
H 1.285883 2.051158 -0.036773
H -0.877161 1.397768 -1.211538
H -1.870920 -0.302379 1.325898
12
Aligned to gpa_Type_3.xyz, RMSD 0.19774
C -0.881759 -1.067240 -0.052730
C 0.582331 -1.016004 -0.257281
C 1.391643 0.124676 -0.043022
C 0.681608 1.239303 0.199003
C -0.751160 1.412545 0.047590
C -1.441356 0.085644 0.289923
H -1.487434 -1.990386 -0.198869
H 1.054506 -2.025698 -0.153988
H 2.364351 0.027454 0.185956
H 1.399836 2.063430 0.476483
H -0.543437 1.174284 -1.391835
H -2.369129 -0.028006 0.898772
12
Aligned to gpa_Type_3.xyz, RMSD 0.16371
C -0.881914 -1.117168 -0.109016
C 0.551577 -1.062162 -0.262584
C 1.347570 0.089148 -0.018839
C 0.630787 1.236051 0.330721
C -0.748376 1.390990 0.067329
C -1.502991 0.116166 0.301077
H -1.403209 -2.023375 -0.076979
H 1.156883 -1.913942 -0.301909
H 2.479244 -0.139638 0.117873
H 1.152325 2.124758 0.403034
H -0.395150 1.077235 -1.293034
H -2.386749 0.221939 0.842328
12
Aligned to gpa_Type_3.xyz, RMSD 0.16601
C -0.812205 -1.049933 0.033394
C 0.623416 -1.113682 -0.138659
C 1.395489 0.074311 -0.029250
C 0.632774 1.338930 0.195701
C -0.752888 1.461911 -0.086689
C -1.458155 0.143707 0.367191
H -1.414887 -2.048646 -0.119950
H 1.125645 -1.960187 -0.499133
H 2.385512 -0.217541 0.191316
H 1.198057 2.193921 0.554499
H -0.508426 1.000263 -1.288359
H -2.414333 0.176947 0.819939
12
Aligned to gpa_Type_3.xyz, RMSD 0.20459
C -0.936129 -1.090171 -0.107664
C 0.543308 -1.132572 -0.064504
C 1.389779 0.067022 0.006810
C 0.754227 1.364392 0.206790
C -0.642996 1.345937 0.115818
C -1.488217 0.092710 0.369208
H -1.286777 -1.977372 -0.372933
H 1.002704 -2.216871 -0.157727
H 2.362330 0.145181 -0.003088
H 1.531565 2.297269 0.474471
H -0.718110 0.986501 -1.163783
H -2.511684 0.117976 0.696605
12
Aligned to gpa_Type_3.xyz, RMSD 0.14950
C -0.832495 -1.147714 0.017160
C 0.555159 -1.057203 -0.287736
C 1.328001 0.049197 -0.106086
C 0.794668 1.279784 0.297880
C -0.717650 1.450853 -0.001618
C -1.370908 0.164211 0.448604
H -1.508354 -2.038067 -0.181831
H 1.172644 -1.857885 -0.197258
H 2.442841 -0.140602 0.004103
H 1.171515 2.189187 0.491146
H -0.536466 0.944547 -1.082994
H -2.498956 0.163692 0.598633
12
Aligned to gpa_Type_3.xyz, RMSD 0.19014
C -0.939287 -1.030032 0.103999
C 0.466554 -1.038109 -0.129471
C 1.370137 0.063806 0.007077
C 0.822296 1.348319 0.204759
C -0.668006 1.407219 -0.080339
C -1.446432 0.184793 0.255081
H -1.346138 -2.051631 -0.239886
H 1.014998 -1.913398 -0.428073
H 2.555849 0.054315 0.192680
H 1.459750 2.121191 0.554232
H -0.837416 0.761462 -1.152781
H -2.452307 0.092066 0.712722
12
Aligned to gpa_Type_3.xyz, RMSD 0.22210
C -0.843467 -1.115529 0.050911
C 0.513815 -0.982946 -0.071054
C 1.409265 0.150830 0.246771
C 0.632656 1.320605 0.294000
C -0.859047 1.306474 -0.136591
C -1.550473 0.113579 0.221587
H -1.397588 -2.194827 0.159726
H 1.005873 -1.742727 -0.629139
H 2.440186 -0.212191 -0.174063
H 1.329601 2.161440 0.546161
H -0.191850 1.038010 -1.119006
H -2.488973 0.157283 0.610698
12
Aligned to gpa_Type_3.xyz, RMSD 0.23233
C -0.788429 -1.140277 -0.163661
C 0.559943 -1.142975 -0.343066
C 1.410031 0.078161 0.157678
C 0.726518 1.226858 0.141793
C -0.786300 1.338221 -0.025394
C -1.451884 0.144313 0.289467
H -1.306408 -1.999400 0.045322
H 1.029548 -2.108818 -0.641103
H 2.406576 -0.084639 0.420667
H 1.064557 2.286269 0.283908
H -0.486395 1.055247 -0.984965
H -2.377757 0.347041 0.819356
12
Aligned to gpa_Type_3.xyz, RMSD 0.26126
C -0.901150 -1.035626 -0.174084
C 0.537863 -1.129103 -0.408843
C 1.331794 -0.050716 0.132452
C 0.738949 1.263065 0.225321
C -0.788911 1.380544 0.035601
C -1.493808 0.171988 0.268928
H -1.192116 -2.144992 -0.026293
H 0.903209 -2.216267 -0.509477
H 2.378816 0.085290 0.461672
H 1.207877 2.319624 0.244133
H -0.416043 1.159063 -1.180589
H -2.306481 0.197131 0.931180
12
Aligned to gpa_Type_3.xyz, RMSD 0.18969
C -0.746600 -1.150868 -0.144967
C 0.562651 -1.077728 -0.102040
C 1.361831 0.161553 0.047196
C 0.694249 1.265480 0.227323
C -0.797811 1.377230 0.006828
C -1.412698 0.093329 0.300371
H -1.466460 -1.901305 -0.165188
H 1.176751 -1.885378 -0.286296
H 2.346159 -0.271139 0.117231
H 1.249414 2.125536 0.389459
H -0.532966 1.180505 -1.268908
H -2.434520 0.082786 0.878992
12
Aligned to gpa_Type_2.xyz, RMSD 0.35715
C -0.852652 -1.020242 -0.733035
C 0.392197 -1.115799 -0.080974
C 1.112905 -0.024172 0.354084
C 0.745876 1.298235 -0.043507
C -0.614358 1.265457 -0.028315
C -1.254944 0.052954 0.328276
H -1.242508 -2.050262 -0.910293
H 0.829126 -1.930446 0.311662
H 2.021407 -0.089284 0.891824
H 1.470117 2.071545 -0.643357
H -1.195874 1.852728 -0.666985
H -1.411293 -0.310716 1.220623
12
Aligned to gpa_Type_2.xyz, RMSD 0.28763
C -0.784005 -1.169301 -0.560186
C 0.556108 -1.190360 0.006026
C 1.417873 0.145552 0.258651
C 0.735422 1.255597 -0.186613
C -0.675538 1.165973 -0.302358
C -1.297476 -0.110659 0.285487
H -1.497496 -1.908278 -0.954551
H 0.783412 -2.273474 0.367452
H 2.357386 -0.087743 0.697219
H 1.175919 2.197933 -0.124500
H -1.221268 2.023101 -0.781760
H -1.550337 -0.048342 1.295135
12
Aligned to gpa_Type_2.xyz, RMSD 0.27639
C -0.732156 -1.050549 -0.661976
C 0.463001 -1.096421 0.089905
C 1.294701 0.050782 0.285112
C 0.704460 1.214709 0.013741
C -0.568417 1.216264 -0.364038
C -1.470883 -0.031993 0.104116
H -1.282314 -2.057968 -0.675009
H 0.699782 -2.006448 0.431837
H 2.326877 -0.140354 0.332355
H 1.405674 2.178715 -0.044388
H -1.194725 2.028702 -0.800861
H -1.645998 -0.305442 1.289208
12
Aligned to gpa_Type_2.xyz, RMSD 0.30130
C -0.710907 -1.024640 -0.661415
C 0.479177 -1.097003 0.188308
C 1.292859 0.091205 0.319453
C 0.699540 1.289082 0.023506
C -0.578590 1.199886 -0.254501
C -1.470236 -0.052949 0.148944
H -1.299566 -1.930305 -0.771830
H 0.694566 -2.081653 0.563416
H 2.351192 -0.150470 0.149734
H 1.337485 2.127166 -0.075641
H -1.176944 1.924226 -0.731293
H -1.618575 -0.294548 1.101320
12
Aligned to gpa_Type_2.xyz, RMSD 0.17426
C -0.876325 -1.122512 -0.528010
C 0.488153 -1.125260 -0.016382
C 1.195648 0.054172 0.438725
C 0.644602 1.220799 0.086563
C -0.677295 1.127348 -0.305883
C -1.250890 -0.060213 0.244284
H -1.420192 -1.960052 -0.761648
H 1.007532 -2.044193 0.071399
H 2.223656 -0.015222 0.539566
H 1.343300 2.013712 -0.121027
H -1.089229 1.876348 -0.954590
H -1.588959 0.035071 1.307003
12
Aligned to gpa_Type_2.xyz, RMSD 0.29331
C -0.737637 -1.025724 -0.114236
C 0.657752 -1.149576 -0.005190
C 1.424396 -0.081381 0.278504
C 0.533973 1.100802 0.120016
C -0.814840 1.224491 -0.317347
C -1.407672 0.138670 0.382175
H -1.278803 -1.645749 -0.922529
H 1.023212 -2.185131 -0.138344
H 2.511727 -0.165229 0.506093
H 1.127719 2.005377 0.198412
H -1.261550 1.500663 -1.346775
H -1.778277 0.282788 1.359222
12
Aligned to gpa_Type_2.xyz, RMSD 0.18840
C -0.909409 -1.096878 -0.614754
C 0.560928 -1.089319 -0.211582
C 1.222628 0.020421 0.299971
C 0.660471 1.374017 0.124072
C -0.732885 1.330983 -0.066155
C -1.444502 -0.034826 0.299127
H -1.463024 -1.931316 -0.750496
H 0.814656 -2.079767 0.144499
H 2.185799 -0.032643 0.642823
H 1.310400 2.206759 -0.112767
H -0.817855 1.467432 -1.144645
H -1.387205 -0.134864 1.389908
12
Aligned to gpa_Type_2.xyz, RMSD 0.19190
C -0.984524 -1.068521 -0.521486
C 0.482767 -1.057332 -0.180383
C 1.254555 0.062590 0.225753
C 0.758774 1.434445 0.122955
C -0.718668 1.342866 -0.017772
C -1.442746 0.004299 0.284001
H -1.429869 -2.123726 -0.799331
H 0.918133 -2.034082 0.123394
H 2.242826 -0.285723 0.706015
H 1.232824 2.337410 -0.199868
H -0.803620 1.549516 -1.126671
H -1.510451 -0.161745 1.383395
12
Aligned to gpa_Type_1.xyz, RMSD 0.19133
C -0.770690 -0.857255 -0.306111
C 0.668340 -1.212073 -0.138140
C 1.521543 -0.109056 0.074092
C 0.753080 1.011728 -0.027684
C -0.643752 1.136421 -0.194444
C -1.369416 0.132372 0.634623
H -1.322583 -1.801413 -0.760105
H 1.073530 -2.249373 0.184478
H 2.594842 0.140964 0.379215
H 1.176707 1.982585 0.145727
H -1.216937 1.767062 -0.989953
H -2.464666 0.058038 0.998301
12
Aligned to gpa_Type_1.xyz, RMSD 0.13349
C -0.760172 -1.082147 -0.139413
C 0.642036 -1.052821 0.009612
C 1.486603 -0.016157 0.111949
C 0.732877 1.151897 -0.080558
C -0.701935 0.915265 -0.285163
C -1.424946 -0.010754 0.695356
H -1.212579 -1.633605 -0.780637
H 0.943177 -2.121768 -0.036310
H 2.464929 0.019438 0.441902
H 1.309891 2.057146 -0.011922
H -1.066016 1.675318 -0.851281
H -2.413867 0.098187 0.926464
12
Aligned to gpa_Type_1.xyz, RMSD 0.15476
C -0.866160 -1.008170 -0.059542
C 0.606873 -1.211997 0.074911
C 1.474518 0.016068 0.236837
C 0.861780 1.120738 -0.037374
C -0.639918 1.068718 -0.090616
C -1.522230 0.030989 0.725111
H -1.127195 -1.372460 -0.932488
H 1.067083 -2.155096 0.032965
H 2.527954 -0.017906 0.264393
H 1.348639 2.091588 -0.223500
H -1.201877 1.428736 -0.732336
H -2.529468 0.008791 0.741636
12
Aligned to gpa_Type_2.xyz, RMSD 0.29283
C -0.810983 -1.015912 -0.163938
C 0.663386 -1.146032 -0.019587
C 1.406354 -0.053208 0.224894
C 0.788938 1.181990 -0.155490
C -0.620782 1.049098 -0.222284
C -1.454459 0.168531 0.573218
H -1.242682 -1.838528 -0.991222
H 1.016126 -2.188548 -0.263159
H 2.242863 -0.017676 0.706191
H 1.299415 2.139406 0.080269
H -1.244435 1.454158 -1.149860
H -2.043740 0.266721 1.380969
12
Aligned to gpa_Type_2.xyz, RMSD 0.19254
C -0.826567 -1.093750 -0.405526
C 0.559528 -1.201939 -0.083261
C 1.254885 0.014618 0.360743
C 0.658824 1.175671 0.036876
C -0.747163 1.278460 -0.233869
C -1.156785 0.017268 0.332861
H -1.458113 -1.988199 -0.658378
H 0.982348 -2.127831 -0.182127
H 2.231040 -0.102486 0.800366
H 1.208489 2.144122 -0.072770
H -1.125425 1.825343 -1.167698
H -1.581060 0.058721 1.272785
12
Aligned to gpa_Type_2.xyz, RMSD 0.25488
C -0.759955 -1.129195 -0.463137
C 0.660381 -1.238678 -0.013487
C 1.366577 0.033487 0.237389
C 0.792434 1.217836 -0.097001
C -0.655777 1.065941 -0.346626
C -1.572121 -0.018777 0.429665
H -1.417107 -1.772052 -1.014607
H 0.992298 -2.205634 0.259026
H 2.399503 -0.051039 0.598992
H 1.309314 2.204701 -0.147943
H -1.193062 1.883239 -0.863128
H -1.922483 0.010171 1.420859
12
Aligned to gpa_Type_2.xyz, RMSD 0.21938
C -0.868702 -1.033052 -0.545858
C 0.581415 -1.102194 -0.061910
C 1.244424 0.092017 0.437967
C 0.721056 1.278584 0.052415
C -0.676778 1.093942 -0.206485
C -1.533602 0.014058 0.341730
H -1.349636 -1.982203 -1.021093
H 0.927445 -2.088359 0.234270
H 2.322340 -0.120680 0.619908
H 1.352247 2.065954 -0.344516
H -1.119673 1.847694 -0.931405
H -1.600535 -0.065762 1.424977
12
Aligned to gpa_Type_2.xyz, RMSD 0.26015
C -0.847893 -1.089347 -0.492259
C 0.561922 -1.193851 -0.035489
C 1.243134 -0.018852 0.376352
C 0.721077 1.252326 0.093354
C -0.720755 1.327434 -0.164030
C -1.147402 0.019531 0.258066
H -1.330021 -1.901312 -1.008698
H 0.775178 -2.286219 0.189921
H 2.264294 0.092557 0.748127
H 1.305620 2.030612 -0.367508
H -1.312235 1.817188 -0.910165
H -1.512917 -0.050068 1.312331
12
Aligned to gpa_Type_2.xyz, RMSD 0.34517
C -0.842424 -1.206077 -0.733594
C 0.497534 -1.124602 -0.070111
C 1.154556 0.151137 0.398933
C 0.730046 1.329457 -0.226957
C -0.566104 1.209939 -0.250308
C -1.304618 -0.057601 0.300903
H -1.477101 -1.981818 -0.851080
H 0.926764 -1.984767 0.281809
H 2.063091 -0.244305 0.906396
H 1.372624 2.206297 -0.454755
H -1.111413 2.006664 -0.660979
H -1.442955 -0.304325 1.359744
12
Aligned to gpa_Type_3.xyz, RMSD 0.30693
C -0.841256 -1.114497 -0.169401
C 0.600396 -1.097724 -0.132371
C 1.258584 0.081456 0.086998
C 0.841264 1.346118 0.165756
C -0.669199 1.452608 0.137100
C -1.524315 0.051233 0.492726
H -1.285098 -1.936420 -0.668972
H 1.090642 -2.098444 -0.036611
H 2.441461 0.011242 0.148732
H 1.394431 2.147202 0.084188
H -0.734217 0.961589 -0.909471
H -2.572694 0.195639 0.801326
12
Aligned to gpa_Type_3.xyz, RMSD 0.29342
C -0.815693 -1.095026 -0.210894
C 0.591500 -1.073300 -0.179457
C 1.262520 0.102912 0.046014
C 0.813793 1.381551 0.175267
C -0.698382 1.469201 0.156567
C -1.523415 0.068124 0.489592
H -1.273257 -1.992915 -0.581666
H 1.114745 -2.062525 0.003570
H 2.399372 -0.116854 0.159559
H 1.501562 2.184456 0.124929
H -0.789333 1.003716 -0.933805
H -2.583413 0.130661 0.750325
12
Aligned to gpa_Type_2.xyz, RMSD 0.34629
C -0.790409 -1.056038 -0.240285
C 0.598713 -1.163447 0.042409
C 1.277794 -0.117986 0.533205
C 0.666635 1.271271 0.144975
C -0.825109 1.118858 -0.384992
C -1.525517 -0.011673 0.550793
H -1.414944 -1.623817 -1.018969
H 1.281323 -2.185581 -0.418104
H 2.360547 -0.213273 0.697495
H 1.263780 2.246552 -0.126403
H -1.064665 1.495644 -1.457490
H -1.828146 0.239486 1.677366
12
Aligned to gpa_Type_1.xyz, RMSD 0.26605
C -0.714471 -0.825780 0.023371
C 0.748628 -1.221850 -0.065168
C 1.425565 0.025855 0.142008
C 0.795093 1.217145 -0.029232
C -0.622231 0.971954 -0.220784
C -1.443383 0.075760 0.752337
H -1.155900 -1.657987 -0.560814
H 1.098756 -2.357102 -0.457622
H 2.349597 0.028423 0.741123
H 1.448280 2.065858 -0.308536
H -1.286105 1.507218 -0.683377
H -2.643831 0.170507 0.666694
12
Aligned to gpa_Type_2.xyz, RMSD 0.33523
C -0.748948 -1.055291 -0.127188
C 0.744041 -1.179208 -0.221385
C 1.400616 -0.064476 -0.030454
C 0.693219 1.170916 -0.006146
C -0.706009 1.220357 -0.442413
C -1.228015 0.079287 0.534269
H -1.520410 -1.708726 -0.771100
H 1.065050 -2.182381 0.287605
H 2.497893 -0.106733 0.327677
H 1.005921 2.053208 0.498522
H -1.108693 1.722699 -1.270333
H -2.094665 0.050346 1.220946
12
Aligned to gpa_Type_3.xyz, RMSD 0.31994
C -0.852121 -0.962239 -0.204454
C 0.458112 -1.141439 -0.110152
C 1.458567 0.018387 -0.050240
C 0.719414 1.272455 0.019160
C -0.700334 1.207867 0.160155
C -1.625613 0.096465 0.265632
H -1.127099 -2.076237 -0.488791
H 0.724581 -1.979056 0.215452
H 2.504957 0.058902 -0.046184
H 1.410655 2.214375 0.364101
H -0.459033 1.324628 -0.995134
H -2.512087 -0.034106 0.870457
12
Aligned to gpa_Type_2.xyz, RMSD 0.46802
C -0.897297 -0.831805 -0.489097
C 0.450118 -1.023148 -0.093813
C 1.306791 -0.073303 0.486094
C 0.612843 1.242713 -0.031944
C -0.763140 1.170277 -0.172399
C -1.458306 0.205051 0.538969
H -1.371587 -1.675589 -0.955054
H 0.899879 -1.959387 -0.308111
H 2.025784 -0.080308 1.380310
H 1.352184 1.995094 -0.611318
H -1.149120 1.353823 -1.140463
H -1.008149 -0.323419 1.396827
12
Aligned to gpa_Type_2.xyz, RMSD 0.47778
C -0.864716 -0.858299 -0.417164
C 0.391968 -1.013051 0.123392
C 1.109263 0.039304 0.604865
C 0.676018 1.214563 -0.035201
C -0.733878 1.122216 -0.261980
C -1.432808 0.026581 0.488052
H -1.203840 -1.501917 -1.284886
H 1.040010 -1.894633 -0.134550
H 2.152021 -0.042997 1.046899
H 1.455241 1.571487 -0.540395
H -1.450238 1.408539 -1.057791
H -1.139041 -0.071796 1.468759
12
Aligned to gpa_Type_2.xyz, RMSD 0.25183
C -0.867516 -1.014410 -0.215834
C 0.608678 -1.173006 -0.057539
C 1.359548 -0.113123 0.136768
C 0.635214 1.027807 0.148593
C -0.840765 1.286468 -0.182394
C -1.498154 0.100637 0.478382
H -1.378121 -1.631901 -1.011468
H 1.107504 -2.066815 0.230659
H 2.530825 0.078767 0.343452
H 1.256836 2.006131 0.039496
H -0.933012 1.559437 -1.271843
H -1.981037 -0.059991 1.361729
12
Aligned to gpa_Type_3.xyz, RMSD 0.12015
C -0.910739 -1.082526 -0.091055
C 0.532034 -1.027156 -0.298762
C 1.408777 0.072180 0.059733
C 0.624238 1.235544 0.210907
C -0.836309 1.339813 -0.096181
C -1.369706 0.118685 0.243790
H -1.370424 -2.059527 0.115589
H 1.046421 -1.928538 -0.430037
H 2.465986 -0.068529 0.133615
H 1.356867 2.178163 0.604486
H -0.578573 1.017892 -1.142647
H -2.368574 0.203999 0.690562
12
Aligned to gpa_Type_3.xyz, RMSD 0.10868
C -0.879849 -1.055861 -0.100697
C 0.534268 -1.040777 -0.251530
C 1.375786 0.017895 0.100315
C 0.693715 1.225835 0.193309
C -0.791859 1.318437 -0.058097
C -1.352647 0.124645 0.273463
H -1.387979 -1.897051 0.001799
H 1.034639 -1.925642 -0.401096
H 2.445127 0.043026 0.122995
H 1.300282 2.103673 0.479542
H -0.574770 0.946571 -1.038644
H -2.396715 0.139251 0.678642
12
Aligned to gpa_Type_2.xyz, RMSD 0.14165
C -0.862067 -0.978259 -0.501929
C 0.476222 -1.040343 -0.017719
C 1.314351 0.108454 0.239513
C 0.612730 1.302418 0.064301
C -0.694480 1.276014 -0.193381
C -1.443237 0.023977 0.241828
H -1.295504 -2.031606 -0.678172
H 0.844345 -2.043781 0.258812
H 2.325216 -0.233941 0.320274
H 1.357433 2.154936 0.092614
H -0.962388 1.679962 -1.089198
H -1.672619 -0.217835 1.263058
12
Aligned to gpa_Type_2.xyz, RMSD 0.18729
C -0.800514 -1.038298 -0.649966
C 0.524589 -1.130358 -0.087403
C 1.232732 -0.008667 0.218716
C 0.667006 1.273030 0.102722
C -0.654959 1.152682 -0.329113
C -1.387416 -0.004692 0.252403
H -1.336528 -1.974455 -0.565984
H 0.872273 -2.125763 0.229698
H 2.326874 -0.080946 0.519398
H 1.256782 2.065546 0.069426
H -1.138699 1.938320 -1.051195
H -1.562139 -0.066400 1.291298
12
Aligned to gpa_Type_2.xyz, RMSD 0.22752
C -0.878906 -1.294029 -0.357036
C 0.486157 -1.186031 -0.010386
C 1.224714 -0.047188 0.428588
C 0.746499 1.234952 0.027153
C -0.677297 1.274248 -0.091260
C -1.223311 -0.056854 0.341074
H -1.396419 -1.777875 -1.053610
H 0.973116 -2.074053 0.108099
H 2.181080 -0.030163 0.640310
H 1.228503 2.230847 -0.434258
H -0.952199 1.817589 -0.964608
H -1.711935 -0.091444 1.365935
12
Aligned to gpa_Type_2.xyz, RMSD 0.27297
C -0.855153 -1.225522 -0.222904
C 0.567261 -1.164615 -0.008444
C 1.310942 -0.061515 0.095773
C 0.742802 1.165223 0.156900
C -0.695881 1.010569 -0.206994
C -1.593109 -0.002883 0.407968
H -1.174298 -1.670309 -1.079606
H 1.142985 -2.009220 0.087098
H 2.243286 -0.054084 0.448782
H 1.427837 2.156907 -0.102758
H -1.072074 1.584857 -0.994708
H -2.044596 0.270592 1.418894
12
Aligned to gpa_Type_2.xyz, RMSD 0.23710
C -0.847336 -0.971855 -0.275737
C 0.668224 -1.190451 -0.087447
C 1.404523 -0.020033 0.171486
C 0.676450 1.168731 0.081641
C -0.771458 1.269634 -0.223668
C -1.430821 0.136374 0.418078
H -1.358654 -1.599569 -0.902819
H 1.162578 -2.202864 0.243814
H 2.400377 -0.090644 0.289287
H 1.192918 2.028895 0.156779
H -1.055809 1.487547 -1.217826
H -2.040991 -0.015765 1.346413
12
Aligned to gpa_Type_2.xyz, RMSD 0.25763
C -0.765030 -1.030308 -0.243291
C 0.573570 -1.168307 0.096041
C 1.280271 -0.058216 0.130191
C 0.654229 1.202405 -0.033144
C -0.648956 1.015565 -0.350074
C -1.555830 0.131621 0.394355
H -1.102346 -1.807879 -0.887937
H 0.948659 -2.260571 -0.017650
H 2.221398 0.095599 0.355020
H 1.329347 2.087656 0.139779
H -0.918103 1.743454 -1.114513
H -2.017210 0.048978 1.531222
12
Aligned to gpa_Type_2.xyz, RMSD 0.24248
C -0.774867 -1.079432 -0.698401
C 0.448653 -1.154695 -0.089979
C 1.217899 0.044891 0.286930
C 0.674725 1.254313 0.095526
C -0.750394 1.330830 -0.183523
C -1.196640 -0.017482 0.138057
H -1.368568 -2.078442 -0.698226
H 1.000772 -2.031718 0.274585
H 2.227416 -0.193606 0.626701
H 1.444525 2.040202 -0.143606
H -1.378290 1.809884 -0.787502
H -1.545229 0.075255 1.179438
12
Aligned to gpa_Type_2.xyz, RMSD 0.24916
C -0.816113 -1.201884 -0.611109
C 0.525988 -1.165331 -0.226732
C 1.128203 -0.003319 0.280095
C 0.733476 1.286158 0.097770
C -0.659710 1.259122 -0.244350
C -1.169064 -0.059897 0.266883
H -1.340787 -2.077269 -0.567639
H 1.008695 -2.074185 0.071308
H 2.100001 -0.298323 0.760549
H 1.204532 2.219428 -0.082957
H -1.216055 1.956914 -0.999463
H -1.499165 0.158585 1.255645
12
Aligned to gpa_Type_2.xyz, RMSD 0.27258
C -0.847830 -1.177456 -0.526863
C 0.532088 -1.271965 -0.116390
C 1.192613 0.089698 0.354920
C 0.618304 1.288681 -0.026287
C -0.603022 1.283918 -0.307368
C -1.141099 -0.044754 0.315554
H -1.407812 -1.982949 -0.705114
H 0.891440 -2.294266 0.166727
H 2.123934 0.038911 0.727442
H 1.308895 2.128862 -0.292401
H -1.049191 2.166698 -0.864055
H -1.618317 -0.225379 1.273837
12
Aligned to gpa_Type_2.xyz, RMSD 0.22564
C -0.896016 -1.098723 -0.619500
C 0.389985 -1.111808 -0.208418
C 1.191784 -0.031354 0.340237
C 0.758557 1.478923 -0.025617
C -0.626434 1.325855 -0.092727
C -1.212038 0.080578 0.342440
H -1.122234 -2.192362 -0.510512
H 0.728185 -2.033788 -0.024421
H 2.278035 -0.199839 0.750650
H 1.456262 2.248794 -0.208969
H -1.138960 1.727979 -0.945433
H -1.807124 -0.194256 1.202270
12
Aligned to gpa_Type_2.xyz, RMSD 0.22289
C -0.952907 -1.197878 -0.489171
C 0.518800 -1.167813 -0.019955
C 1.396642 -0.000970 0.396795
C 0.752774 1.253054 0.049447
C -0.687344 1.253868 -0.256277
C -1.357307 -0.042713 0.261512
H -1.522471 -1.861868 -1.007800
H 0.943308 -2.140735 0.210890
H 2.540897 -0.001334 0.609147
H 1.301191 2.133376 -0.031301
H -1.372510 1.689087 -1.043783
H -1.561070 0.083924 1.320497
12
Aligned to gpa_Type_2.xyz, RMSD 0.26351
C -0.697823 -1.093242 -0.219013
C 0.548632 -1.269868 0.090388
C 1.196289 -0.064843 0.339523
C 0.573450 1.146393 0.020640
C -0.754262 1.283120 -0.368608
C -1.035476 0.134513 0.305979
H -1.486546 -1.800583 -0.668326
H 1.009738 -2.244719 -0.327326
H 2.250883 0.019495 0.729743
H 1.140068 2.083287 0.032663
H -1.118147 1.787421 -1.194874
H -1.626805 0.019026 1.259212
12
Aligned to gpa_Type_2.xyz, RMSD 0.22970
C -0.824240 -1.107205 -0.661127
C 0.480286 -1.163872 -0.143677
C 1.236304 0.073201 0.364724
C 0.718376 1.269942 0.005735
C -0.649306 1.207834 -0.312212
C -1.230250 -0.022791 0.272274
H -1.471650 -2.038169 -0.725022
H 1.108967 -2.172083 0.080290
H 2.246897 -0.068721 0.805522
H 1.371659 2.069512 -0.250041
H -1.230511 1.924978 -0.830538
H -1.756533 0.027372 1.394073
12
Aligned to gpa_Type_2.xyz, RMSD 0.24992
C -0.843039 -1.175746 -0.531578
C 0.457369 -1.101363 -0.018037
C 1.297148 0.073767 0.285672
C 0.750688 1.277855 0.005689
C -0.618387 1.210462 -0.126913
C -1.383401 -0.099559 0.217060
H -1.433832 -1.894221 -1.012119
H 0.870034 -2.153514 0.456774
H 2.264594 -0.019407 0.548958
H 1.225986 2.074809 -0.259635
H -1.102007 1.937590 -0.851868
H -1.485152 -0.130675 1.285997
12
Aligned to gpa_Type_1.xyz, RMSD 0.23015
C -0.886296 -1.025436 -0.028575
C 0.643567 -1.144593 0.098033
C 1.420418 -0.041645 0.082772
C 0.817524 1.141129 -0.038062
C -0.695444 1.176527 -0.023054
C -1.375967 0.157210 0.818887
H -1.384452 -1.521887 -0.786793
H 1.403593 -1.950187 -0.057012
H 2.522301 -0.234935 0.179673
H 1.269365 2.024660 0.207692
H -1.220619 1.266312 -1.056025
H -2.513989 0.152845 0.602463
12
Aligned to gpa_Type_1.xyz, RMSD 0.23601
C -0.620187 -0.924694 -0.149110
C 0.768783 -1.239818 -0.012268
C 1.412179 -0.065815 0.221869
C 0.611373 1.111550 -0.033304
C -0.774091 1.029753 -0.159779
C -1.534793 0.092219 0.507507
H -1.168313 -1.585890 -0.925921
H 1.076876 -2.233968 -0.094295
H 2.353731 0.146203 0.449444
H 1.390361 1.914970 -0.030768
H -1.121804 1.524434 -1.025261
H -2.394116 0.231056 1.251884
12
Aligned to gpa_Type_1.xyz, RMSD 0.20685
C -0.653410 -0.941579 -0.263119
C 0.739696 -1.189819 -0.047412
C 1.447724 -0.052189 0.175242
C 0.629230 1.150518 0.005151
C -0.824398 1.069176 -0.168123
C -1.502841 0.041528 0.543739
H -1.299642 -1.523081 -0.787613
H 0.999791 -2.270829 -0.024463
H 2.560052 0.040518 0.537701
H 1.234758 1.992449 -0.084665
H -1.057418 1.647489 -1.068079
H -2.273542 0.035820 1.181641
12
Aligned to gpa_Type_1.xyz, RMSD 0.18868
C -0.845012 -0.935636 -0.243788
C 0.723722 -1.252128 -0.020035
C 1.421837 -0.105710 0.213287
C 0.746397 1.096853 0.062459
C -0.775898 1.127747 -0.128129
C -1.461532 0.137109 0.670376
H -1.357082 -1.693232 -0.752635
H 1.257300 -2.294225 -0.118377
H 2.536236 0.124389 0.383891
H 1.274064 2.072279 0.027391
H -1.056019 1.578991 -1.129804
H -2.464014 0.143564 1.035363
12
Aligned to gpa_Type_1.xyz, RMSD 0.14227
C -0.726669 -0.854437 -0.129582
C 0.709985 -1.131264 0.005244
C 1.520630 0.044042 0.130385
C 0.689100 1.096429 0.027219
C -0.637280 1.049811 0.055524
C -1.530984 0.146699 0.817129
H -1.274107 -1.570287 -0.682508
H 1.060533 -2.302138 -0.090045
H 2.631343 -0.055706 0.321765
H 1.205217 2.038932 -0.126340
H -1.147970 1.489145 -0.879010
H -2.499799 0.048774 0.550219
12
Aligned to gpa_Type_1.xyz, RMSD 0.17022
C -0.759846 -0.857830 -0.095561
C 0.736949 -1.156443 0.061735
C 1.500373 0.034636 0.141399
C 0.679446 1.070456 0.016140
C -0.684322 1.068279 0.025374
C -1.524867 0.110173 0.830193
H -1.245036 -1.744516 -0.620851
H 1.032603 -2.196427 -0.134675
H 2.624038 -0.038848 0.220778
H 1.233692 2.044916 -0.083029
H -1.030919 1.596286 -0.824483
H -2.562112 0.069318 0.462980
12
Aligned to gpa_Type_1.xyz, RMSD 0.17954
C -0.809853 -0.974096 -0.261056
C 0.598271 -1.212510 0.147818
C 1.473624 0.057573 0.215841
C 0.879001 1.238485 -0.076515
C -0.641743 1.032901 -0.149046
C -1.285218 -0.010335 0.666422
H -1.354894 -1.695971 -0.965860
H 1.098908 -2.073458 0.044719
H 2.523971 -0.251055 0.387411
H 1.309396 2.218698 -0.011148
H -1.474753 1.480348 -0.875488
H -2.316711 0.189420 0.876901
12
Aligned to gpa_Type_3.xyz, RMSD 0.12806
C -0.823652 -1.099680 -0.070838
C 0.555484 -1.024591 -0.187297
C 1.334866 0.121095 0.024152
C 0.785485 1.357421 0.131254
C -0.730124 1.371606 0.111629
C -1.414245 0.116057 0.346290
H -1.334894 -2.083151 0.107400
H 0.894764 -1.999392 -0.469462
H 2.359979 -0.020860 0.125983
H 1.362692 2.148413 0.437027
H -0.568437 1.025686 -0.934010
H -2.421920 0.087397 0.377871
12
Aligned to gpa_Type_3.xyz, RMSD 0.27233
C -0.948018 -1.087859 -0.087215
C 0.552897 -1.117326 -0.099755
C 1.399259 0.134471 0.029313
C 0.787183 1.348716 0.182349
C -0.612588 1.334639 0.061996
C -1.445143 0.101061 0.362652
H -1.456334 -1.944662 -0.589239
H 1.215186 -2.015669 -0.206164
H 2.461659 -0.083520 0.204669
H 1.296874 2.269649 0.234893
H -0.801560 0.809539 -0.951650
H -2.449417 0.250961 0.858152
12
Aligned to gpa_Type_2.xyz, RMSD 0.30974
C -0.864723 -1.130930 -0.287607
C 0.618518 -1.147675 -0.155578
C 1.277843 -0.002410 0.221046
C 0.660093 1.162210 -0.014533
C -0.665344 1.059008 -0.311146
C -1.360698 0.074431 0.449996
H -1.378008 -1.607826 -1.027408
H 1.145729 -2.062218 0.056129
H 1.985664 -0.282839 0.845648
H 1.070234 2.168438 -0.069601
H -1.117072 1.642890 -1.177556
H -1.372236 0.126921 1.470612
12
Aligned to gpa_Type_2.xyz, RMSD 0.27099
C -0.832820 -0.968080 -0.369129
C 0.588490 -1.182019 -0.181767
C 1.263344 -0.050524 0.200877
C 0.741886 1.235511 0.041423
C -0.649275 1.147859 -0.273243
C -1.493508 0.120192 0.420211
H -1.390396 -1.776407 -0.994208
H 1.183000 -2.056644 -0.017745
H 2.144868 -0.260107 0.948499
H 1.147751 2.178841 -0.223370
H -1.126363 1.542880 -1.105542
H -1.576977 0.068498 1.553993
12
Aligned to gpa_Type_2.xyz, RMSD 0.19905
C -0.759143 -0.938179 -0.405360
C 0.591444 -1.187598 -0.049927
C 1.334731 -0.083062 0.346756
C 0.746020 1.298619 0.123809
C -0.746942 1.155209 -0.203294
C -1.592275 0.048742 0.415679
H -1.295956 -1.720502 -0.746051
H 0.998474 -2.202700 -0.155276
H 2.371233 0.051176 0.618783
H 1.480088 2.109267 -0.178324
H -1.137657 1.505376 -1.140587
H -1.990016 -0.036349 1.373793
12
Aligned to gpa_Type_3.xyz, RMSD 0.17773
C -0.832414 -1.122038 -0.090420
C 0.521987 -1.110470 -0.090791
C 1.310219 0.123050 -0.027265
C 0.764643 1.335570 0.277948
C -0.738315 1.325636 0.207571
C -1.496254 0.076597 0.407146
H -1.428610 -2.013491 -0.087661
H 0.989467 -2.036374 -0.319367
H 2.455803 0.098275 -0.047736
H 1.420688 2.203939 0.278946
H -0.498216 0.984465 -0.804149
H -2.469000 0.134843 0.295780
12
Aligned to gpa_Type_3.xyz, RMSD 0.19745
C -0.836281 -1.053850 0.033877
C 0.527030 -1.078171 -0.122133
C 1.408546 0.108143 -0.143811
C 0.796162 1.226392 0.182738
C -0.670287 1.378482 0.126637
C -1.572186 0.099772 0.362588
H -1.284672 -1.894239 -0.390880
H 1.024121 -2.034555 -0.039243
H 2.453304 -0.098105 -0.124603
H 1.292116 2.297726 0.454677
H -0.524776 0.981859 -0.933350
H -2.613077 0.066545 0.593503
12
Aligned to gpa_Type_3.xyz, RMSD 0.17297
C -0.830571 -1.026833 -0.066180
C 0.599726 -1.100866 -0.332350
C 1.384235 0.071259 -0.119373
C 0.694825 1.247355 0.148772
C -0.823848 1.371125 -0.016474
C -1.445075 0.096720 0.284501
H -1.295173 -1.970096 0.041862
H 1.075699 -2.050164 -0.495704
H 2.397387 0.015995 0.431747
H 1.298412 2.067687 0.507457
H -0.645316 0.981600 -1.155278
H -2.410301 0.296220 0.771021
12
Aligned to gpa_Type_2.xyz, RMSD 0.14351
C -0.847462 -1.086439 -0.601851
C 0.471457 -1.053639 -0.137346
C 1.263218 0.107679 0.400666
C 0.799596 1.290856 0.025155
C -0.575246 1.195372 -0.245335
C -1.348007 -0.015444 0.326801
H -1.263941 -2.090739 -0.530563
H 0.751665 -2.093248 -0.019949
H 2.375813 -0.120526 0.505370
H 1.322933 2.224201 0.022743
H -1.072150 1.707411 -1.055403
H -1.877875 -0.065484 1.309713
12
Aligned to gpa_Type_2.xyz, RMSD 0.20721
C -0.987214 -1.019803 -0.468316
C 0.528282 -1.188111 -0.054797
C 1.449400 -0.012560 0.149393
C 0.820479 1.294315 0.121896
C -0.660165 1.310583 -0.134410
C -1.316953 0.120441 0.378402
H -1.553915 -1.811211 -0.826560
H 0.975831 -2.116649 0.354043
H 2.531345 -0.119893 0.413901
H 1.244303 2.394105 -0.028977
H -1.026959 1.527785 -1.157238
H -2.004432 -0.379004 1.252663
12
Aligned to gpa_Type_2.xyz, RMSD 0.17961
C -0.877059 -1.022252 -0.392516
C 0.509665 -1.174179 0.003697
C 1.406628 0.043016 0.203205
C 0.829355 1.255945 0.136715
C -0.667538 1.278681 -0.115597
C -1.309831 0.025423 0.397866
H -1.563640 -1.734666 -0.909571
H 1.031078 -2.057827 0.253511
H 2.441734 -0.100927 0.401243
H 1.266645 2.253097 -0.072918
H -1.102743 1.392404 -1.036488
H -1.964292 -0.158717 1.130854
12
Aligned to gpa_Type_1.xyz, RMSD 0.19997
C -0.811412 -0.940918 -0.003004
C 0.734629 -1.258937 -0.001457
C 1.450229 -0.099455 0.234495
C 0.861551 1.059607 -0.128150
C -0.714078 1.012526 -0.334030
C -1.458448 0.119079 0.734532
H -1.129251 -1.578515 -0.766648
H 1.225530 -2.309603 -0.195055
H 2.519111 0.095209 0.521888
H 1.362374 1.954932 -0.076721
H -1.524940 1.689072 -0.738346
H -2.515295 0.257002 0.752494
12
Aligned to gpa_Type_1.xyz, RMSD 0.18003
C -0.796711 -0.904297 -0.017429
C 0.725737 -1.269214 0.047647
C 1.473425 -0.026297 0.223358
C 0.845352 1.098792 -0.161896
C -0.708434 1.028229 -0.369931
C -1.393740 0.147870 0.712702
H -1.170877 -1.667631 -0.767714
H 1.178177 -2.379696 -0.152589
H 2.461073 0.008463 0.458050
H 1.280022 2.069911 -0.014285
H -1.449809 1.665574 -0.656263
H -2.444215 0.228296 0.698350
12
Aligned to gpa_Type_2.xyz, RMSD 0.23088
C -0.857734 -1.135390 -0.563816
C 0.432475 -1.118160 0.030812
C 1.331916 0.049458 0.142178
C 0.745286 1.201037 -0.037024
C -0.612765 1.055773 -0.375089
C -1.359208 -0.009591 0.282033
H -1.329884 -2.097112 -0.663390
H 0.830797 -2.001712 0.291911
H 2.360117 -0.156062 0.342900
H 1.182400 2.337781 0.105511
H -0.899523 1.910974 -0.756182
H -1.823876 -0.036997 1.200158
12
Aligned to gpa_Type_2.xyz, RMSD 0.26653
C -0.824788 -1.130944 -0.649565
C 0.444209 -1.108928 -0.117294
C 1.370935 0.058367 0.086635
C 0.728979 1.247723 0.007577
C -0.594190 1.018856 -0.315381
C -1.338588 -0.038848 0.264134
H -1.305902 -2.046738 -0.457020
H 0.758408 -2.070447 0.354988
H 2.367667 -0.098180 0.366289
H 1.213570 2.322331 0.038244
H -0.834684 2.034849 -0.779822
H -1.985614 -0.188042 1.201217
12
Aligned to gpa_Type_2.xyz, RMSD 0.24213
C -0.869864 -1.232626 -0.501426
C 0.410294 -1.138232 -0.017975
C 1.222244 0.088806 0.077703
C 0.797926 1.265495 0.022800
C -0.575245 1.298543 -0.030712
C -1.346458 -0.030571 0.308900
H -1.349250 -2.012272 -0.905383
H 0.872746 -2.068825 0.572883
H 2.363780 -0.058433 0.261703
H 1.363946 2.258340 -0.078378
H -0.980227 1.858124 -0.862566
H -1.909891 -0.228352 1.152452
12
Aligned to gpa_Type_3.xyz, RMSD 0.28216
C -0.864747 -1.132309 -0.247104
C 0.583947 -1.154390 -0.016811
C 1.330418 0.070811 0.208896
C 0.647783 1.285444 0.338757
C -0.741317 1.312643 0.093440
C -1.494253 0.190184 0.204131
H -1.495477 -1.932877 -0.389748
H 1.171272 -2.064804 -0.035157
H 2.367156 0.042305 -0.182956
H 1.224613 2.059611 0.105792
H -0.397718 1.263885 -0.926183
H -2.331679 0.059499 0.846944
12
Aligned to gpa_Type_3.xyz, RMSD 0.13399
C -0.892847 -1.132912 -0.148899
C 0.540601 -1.088544 -0.142492
C 1.321215 0.081885 -0.053671
C 0.689192 1.227840 0.176847
C -0.793519 1.339936 0.045331
C -1.443741 0.034158 0.141624
H -1.408252 -1.997477 -0.026648
H 0.991901 -1.956670 -0.218728
H 2.411453 0.067574 0.078549
H 1.389331 2.121000 0.505556
H -0.556579 1.178844 -1.061784
H -2.248756 0.124366 0.704315
12
Aligned to gpa_Type_3.xyz, RMSD 0.18875
C -0.882129 -1.100332 -0.209403
C 0.562252 -1.035378 -0.162029
C 1.357423 0.126647 -0.119694
C 0.764118 1.275212 0.095589
C -0.799183 1.336105 0.036481
C -1.484340 0.105528 0.262213
H -1.372644 -2.132480 -0.205756
H 1.220522 -2.024608 -0.061804
H 2.391223 -0.018036 0.067907
H 1.319689 1.997532 0.548045
H -0.576241 1.177392 -1.131107
H -2.500690 0.292419 0.879559
12
Aligned to gpa_Type_3.xyz, RMSD 0.24431
C -0.861586 -1.018688 -0.194858
C 0.556533 -1.068302 -0.156218
C 1.444492 0.112389 -0.145770
C 0.795765 1.315379 0.173471
C -0.661141 1.506806 0.120298
C -1.493533 0.221053 0.362631
H -1.332100 -2.072787 -0.266563
H 1.065745 -2.122451 0.131799
H 2.517832 -0.069518 -0.061063
H 1.444677 2.088054 0.536388
H -0.836964 1.217407 -1.162166
H -2.639721 -0.109340 0.662051
12
Aligned to gpa_Type_3.xyz, RMSD 0.17594
C -0.842870 -1.035071 -0.166101
C 0.561021 -1.122208 -0.185449
C 1.400820 0.071317 -0.137929
C 0.748681 1.262307 0.187255
C -0.692293 1.421812 0.128104
C -1.506462 0.038358 0.343370
H -1.422979 -1.866323 -0.162641
H 0.913858 -2.063643 -0.056566
H 2.503553 0.110084 0.054873
H 1.440833 2.173684 0.465142
H -0.687699 1.082750 -1.044171
H -2.416462 -0.073065 0.574113
12
Aligned to gpa_Type_3.xyz, RMSD 0.17378
C -0.892917 -1.057370 -0.046445
C 0.533830 -1.107378 -0.186872
C 1.404144 0.097548 0.075120
C 0.729703 1.366323 0.247612
C -0.698560 1.434175 -0.051542
C -1.461195 0.191394 0.351438
H -1.176965 -2.076309 -0.141771
H 1.141047 -2.038157 -0.440676
H 2.412712 -0.155316 0.087787
H 1.341596 2.212459 0.579717
H -0.831519 0.784390 -1.131130
H -2.501877 0.348242 0.656761
12
Aligned to gpa_Type_2.xyz, RMSD 0.24149
C -0.973644 -1.055739 -0.303970
C 0.544286 -1.090813 0.162039
C 1.387111 0.034579 0.338618
C 0.766158 1.277162 0.120461
C -0.585701 1.096795 -0.219232
C -1.451484 -0.001679 0.443853
H -1.515228 -1.691476 -0.983432
H 1.093798 -1.891115 -0.173085
H 2.457069 -0.244223 0.556149
H 1.065484 2.199432 -0.077810
H -0.975383 1.301923 -1.196418
H -1.812467 0.065154 1.332828
12
Aligned to gpa_Type_2.xyz, RMSD 0.23081
C -0.846104 -1.143392 -0.344390
C 0.579733 -1.126120 0.026771
C 1.411241 0.006382 0.275477
C 0.685630 1.293915 0.108319
C -0.758523 1.162817 -0.200954
C -1.509319 -0.038281 0.565743
H -1.236901 -1.867188 -1.061978
H 0.882111 -2.083486 -0.034349
H 2.518463 -0.084751 0.396126
H 1.277922 2.157577 -0.016710
H -0.931755 1.499444 -1.202704
H -2.072497 0.223083 1.488650
12
Aligned to gpa_Type_2.xyz, RMSD 0.27987
C -0.870442 -1.171099 -0.313294
C 0.569396 -1.115111 -0.084271
C 1.362155 0.077944 -0.003950
C 0.677350 1.204816 0.071307
C -0.831885 1.334047 0.031583
C -1.488351 0.094771 0.306860
H -1.505947 -1.934287 -0.570171
H 1.349564 -1.999608 -0.156199
H 2.349859 -0.193853 0.421946
H 1.307860 2.198434 0.199405
H -0.691590 1.308369 -1.120409
H -2.227967 0.195575 1.217193
12
Aligned to gpa_Type_2.xyz, RMSD 0.18040
C -0.834831 -1.051676 -0.623380
C 0.505621 -1.056767 -0.207897
C 1.265807 0.050449 0.378496
C 0.711734 1.317914 0.139452
C -0.624973 1.224305 -0.117697
C -1.382341 0.018632 0.292613
H -1.441267 -1.994798 -0.940177
H 0.890618 -2.055015 0.364041
H 2.397143 -0.046540 0.536285
H 1.293532 2.007049 -0.254882
H -1.101406 1.668700 -0.948601
H -1.679634 -0.082253 1.381749
12
Aligned to gpa_Type_2.xyz, RMSD 0.15642
C -0.900239 -1.001088 -0.600911
C 0.480278 -1.029475 -0.032639
C 1.233680 0.142705 0.413705
C 0.741661 1.376629 0.051952
C -0.653363 1.206186 -0.102111
C -1.437977 0.038304 0.197001
H -1.315945 -1.980662 -0.668798
H 0.823960 -2.181240 0.004332
H 2.346783 -0.015300 0.568704
H 1.473360 2.121186 -0.240610
H -0.950282 1.617171 -1.027332
H -1.841916 -0.294416 1.436708
12
Aligned to gpa_Type_2.xyz, RMSD 0.24767
C -0.900221 -1.123081 -0.560799
C 0.547768 -1.139783 -0.018756
C 1.084902 0.095305 0.508491
C 0.709499 1.334845 -0.018508
C -0.709404 1.330789 -0.287326
C -1.196481 0.009345 0.164943
H -1.498849 -2.128308 -0.696845
H 0.995532 -2.283428 -0.103049
H 2.210444 0.033534 0.765436
H 1.415377 2.028118 -0.129470
H -1.178104 1.908716 -1.032552
H -1.480462 -0.066052 1.408436
12
Aligned to gpa_Type_2.xyz, RMSD 0.19560
C -0.905586 -0.970096 -0.466453
C 0.518187 -1.049726 -0.128309
C 1.327025 -0.000276 0.348096
C 0.856374 1.262738 0.174914
C -0.700144 1.157850 -0.010563
C -1.509434 0.062366 0.339535
H -1.275472 -1.878335 -0.807422
H 0.990145 -1.901420 0.003088
H 2.413213 -0.250946 0.594389
H 1.323729 2.242169 -0.375886
H -0.949782 1.490918 -1.118493
H -2.088255 -0.165242 1.447104
12
Aligned to gpa_Type_2.xyz, RMSD 0.17717
C -0.883030 -0.970501 -0.387661
C 0.526027 -0.976682 -0.071528
C 1.381318 0.062072 0.313919
C 0.837026 1.333508 0.185937
C -0.705393 1.165629 0.053824
C -1.503229 0.066235 0.429831
H -1.290731 -1.909558 -0.851388
H 0.945890 -2.024155 -0.049321
H 2.339579 -0.171107 0.559207
H 1.246015 2.074696 -0.332777
H -0.928843 1.393858 -1.065227
H -1.964629 -0.043996 1.215185
12
Aligned to gpa_Type_2.xyz, RMSD 0.21745
C -0.882922 -1.035029 -0.469125
C 0.533140 -1.102630 -0.082263
C 1.304735 0.018918 0.138471
C 0.736315 1.297236 -0.000500
C -0.681446 1.309630 -0.164566
C -1.347575 0.067870 0.358232
H -1.217526 -2.007257 -0.982673
H 0.931770 -2.260143 -0.008698
H 2.178943 -0.009264 0.734203
H 1.349345 2.066545 0.033170
H -1.180247 1.466632 -1.151175
H -1.724530 0.187492 1.594926
12
Aligned to gpa_Type_2.xyz, RMSD 0.22997
C -0.952570 -1.116458 -0.485498
C 0.376146 -1.169845 -0.066892
C 1.242831 0.026459 0.461823
C 0.711595 1.258481 0.013658
C -0.588945 1.154245 -0.316887
C -1.190287 -0.014906 0.322200
H -1.263834 -2.025644 -0.722140
H 0.980495 -2.182647 -0.073390
H 2.193504 -0.066413 0.754215
H 1.303644 2.181715 -0.236965
H -1.212509 1.885400 -0.841872
H -1.600070 0.069610 1.191750
12
Aligned to gpa_Type_2.xyz, RMSD 0.21011
C -0.888254 -1.146620 -0.546440
C 0.435862 -1.100021 -0.041767
C 1.266224 0.118276 0.426025
C 0.820766 1.373212 -0.038604
C -0.529442 1.193469 -0.377613
C -1.262462 0.031744 0.229141
H -1.517434 -2.099127 -0.838929
H 0.859889 -2.114992 0.202799
H 2.393866 -0.098804 0.585747
H 1.361076 2.232908 -0.076929
H -1.255217 1.787173 -0.844446
H -1.684872 -0.177220 1.321019
12
Aligned to gpa_Type_2.xyz, RMSD 0.23274
C -0.920410 -1.120738 -0.561126
C 0.556431 -1.192096 -0.089512
C 1.191467 -0.058017 0.288745
C 0.638499 1.236617 0.079395
C -0.730056 1.256648 -0.236005
C -1.208814 -0.000875 0.289851
H -1.394297 -2.037677 -0.798492
H 0.866542 -2.138228 0.092132
H 2.201935 -0.042500 0.840868
H 1.370628 2.231938 -0.201170
H -1.192717 1.907899 -1.047093
H -1.379207 -0.042972 1.342409
12
Aligned to gpa_Type_2.xyz, RMSD 0.23960
C -0.863412 -1.096903 -0.487698
C 0.561673 -1.132523 -0.133210
C 1.344157 -0.070672 0.262956
C 0.765842 1.199441 0.104601
C -0.666644 1.130950 -0.208529
C -1.624247 0.051727 0.371881
H -1.325007 -1.724841 -1.098699
H 0.950873 -1.955087 0.355490
H 2.338797 -0.179895 0.542960
H 1.218763 2.258574 -0.191994
H -1.017429 1.624269 -1.134822
H -1.683365 -0.105041 1.617065
12
Aligned to gpa_Type_3.xyz, RMSD 0.14403
C -0.850377 -1.072003 -0.066804
C 0.561677 -1.053773 -0.377687
C 1.282418 0.108442 -0.001342
C 0.741823 1.236007 0.256753
C -0.738337 1.507819 -0.062820
C -1.389029 0.199118 0.240010
H -1.208680 -2.189413 0.104462
H 0.873760 -2.054682 -0.307774
H 2.271026 0.082546 0.105782
H 1.400102 2.087038 0.577129
H -0.515605 1.064946 -1.113006
H -2.428778 0.083956 0.645298
12
Aligned to gpa_Type_3.xyz, RMSD 0.22256
C -0.815627 -1.106366 -0.035438
C 0.619777 -1.024425 -0.389386
C 1.299732 0.155478 -0.068844
C 0.682263 1.325969 0.272317
C -0.793376 1.414563 -0.026984
C -1.453759 0.049385 0.220834
H -1.289192 -2.042645 0.281613
H 0.734179 -2.178266 -0.585261
H 2.401059 0.090041 0.339633
H 1.320170 2.122930 0.351076
H -0.282013 1.149889 -0.928201
H -2.423213 0.043449 0.568640
12
Aligned to gpa_Type_1.xyz, RMSD 0.17155
C -0.682119 -1.058259 -0.008572
C 0.825940 -1.184813 0.040067
C 1.527265 -0.082391 0.092350
C 0.771178 1.217659 -0.099533
C -0.678487 0.983829 -0.152796
C -1.340842 0.126816 0.837428
H -1.377507 -1.583106 -0.788016
H 0.821024 -2.314191 -0.045665
H 2.559775 0.027175 0.422156
H 1.132790 2.161416 -0.005441
H -1.286558 1.630845 -0.807751
H -2.272462 0.075020 0.515772
12
Aligned to gpa_Type_2.xyz, RMSD 0.28302
C -0.851003 -1.107445 -0.399997
C 0.552637 -1.120585 -0.047292
C 1.508460 0.142468 0.049713
C 0.786798 1.282381 0.163371
C -0.615983 1.155561 0.048502
C -1.381694 0.021374 0.481694
H -1.473157 -1.688492 -0.826821
H 0.790734 -2.137606 0.326050
H 2.584318 -0.063341 0.254154
H 1.209942 2.368302 -0.086952
H -0.843494 1.353844 -0.997821
H -2.267557 -0.206463 1.035399
12
Aligned to gpa_Type_2.xyz, RMSD 0.26740
C -0.821423 -1.087765 -0.461363
C 0.557878 -1.154122 0.064699
C 1.514693 0.220553 0.105859
C 0.785219 1.296166 0.143721
C -0.502123 1.138443 -0.011222
C -1.414776 -0.009465 0.336479
H -1.578842 -1.919036 -0.913308
H 0.881539 -2.113596 0.318211
H 2.514753 -0.067801 0.117155
H 1.068174 2.254153 0.097661
H -0.844024 1.398191 -0.986435
H -2.161068 0.044279 1.188545
12
Aligned to gpa_Type_1.xyz, RMSD 0.28887
C -0.666264 -0.898334 -0.369912
C 0.633139 -1.189011 0.005543
C 1.489982 -0.107781 0.077918
C 0.831586 1.179979 -0.096736
C -0.628934 1.086787 -0.303329
C -1.482998 0.108178 0.352565
H -1.199090 -1.686896 -0.815723
H 0.808465 -2.112029 0.367509
H 2.534877 -0.166890 0.260709
H 1.179149 2.222398 0.238532
H -1.277666 1.730338 -0.960543
H -2.222248 -0.166737 1.243466
12
Aligned to gpa_Type_2.xyz, RMSD 0.23695
C -0.843550 -1.086455 -0.464664
C 0.583356 -1.226107 -0.067237
C 1.433598 0.026063 0.129134
C 0.770735 1.229554 -0.132343
C -0.674547 1.092868 -0.231666
C -1.333398 0.025777 0.535693
H -1.486187 -1.888316 -0.927241
H 0.993243 -1.997162 0.380990
H 2.491403 -0.075854 0.464941
H 1.325953 2.175914 0.012926
H -1.120869 1.840304 -0.958556
H -2.139736 -0.116586 1.258025
12
Aligned to gpa_Type_3.xyz, RMSD 0.26269
C -0.810881 -1.036365 -0.100257
C 0.515115 -1.067488 -0.273723
C 1.327791 0.037284 0.171796
C 0.695345 1.363445 0.203436
C -0.802742 1.435926 -0.077806
C -1.467633 0.139010 0.323053
H -1.367214 -1.845209 -0.086664
H 0.976830 -1.939972 -0.600326
H 2.350432 -0.110586 0.512142
H 1.434900 2.186460 0.155424
H -0.497593 0.999906 -1.099229
H -2.354350 -0.162411 0.872153
12
Aligned to gpa_Type_1.xyz, RMSD 0.17471
C -0.808085 -0.955013 -0.147845
C 0.610713 -1.218347 0.001107
C 1.560578 -0.074850 0.013171
C 0.860371 1.119419 0.151600
C -0.646536 1.158182 -0.107227
C -1.452661 0.094513 0.684460
H -1.300572 -1.708053 -0.816324
H 1.055550 -2.126551 0.145498
H 2.564923 0.026014 0.098424
H 1.221137 2.158002 0.184472
H -1.152020 1.373176 -0.965554
H -2.513399 0.153510 0.758217
12
Aligned to gpa_Type_3.xyz, RMSD 0.14875
C -0.843673 -1.104145 -0.184113
C 0.575047 -0.984780 -0.184268
C 1.365980 0.196202 -0.133683
C 0.769503 1.304878 0.185879
C -0.776211 1.486868 0.049877
C -1.452502 0.066776 0.185159
H -1.419884 -2.049842 0.031304
H 1.027590 -1.968019 -0.172574
H 2.403223 -0.180765 0.123741
H 1.397057 2.078828 0.508438
H -0.640995 1.196165 -1.090046
H -2.405135 -0.042164 0.680286
12
Aligned to gpa_Type_3.xyz, RMSD 0.12760
C -0.785004 -1.063582 -0.009808
C 0.663379 -1.039905 -0.241727
C 1.338082 0.177949 -0.094377
C 0.692279 1.300733 0.158458
C -0.681286 1.325567 0.011136
C -1.434271 0.153674 0.236205
H -1.415610 -1.988887 -0.128397
H 1.095208 -2.046594 -0.206547
H 2.394413 -0.152034 0.006129
H 1.176868 2.122690 0.653475
H -0.626242 0.967852 -1.104665
H -2.417818 0.242538 0.720120
12
Aligned to gpa_Type_3.xyz, RMSD 0.11043
C -0.841402 -1.090702 0.005898
C 0.625519 -1.118708 -0.253681
C 1.357632 0.125959 0.014339
C 0.713908 1.238638 0.211304
C -0.694115 1.348872 0.034377
C -1.395599 0.105210 0.237018
H -1.454754 -1.909730 -0.059192
H 1.119281 -2.051811 -0.346456
H 2.390235 0.053864 -0.003669
H 1.227982 2.139776 0.521394
H -0.602157 0.877113 -0.926767
H -2.446531 0.281520 0.565437
12
Aligned to gpa_Type_3.xyz, RMSD 0.14974
C -0.825216 -1.088384 0.142454
C 0.635028 -1.077207 -0.215832
C 1.386092 0.135208 0.129476
C 0.677281 1.254063 0.243923
C -0.749915 1.387248 -0.013115
C -1.479009 0.163884 0.280741
H -1.485962 -2.024594 0.064630
H 1.069721 -1.974464 -0.664040
H 2.513047 -0.018918 0.077666
H 1.204392 2.124244 0.434562
H -0.413259 0.909542 -1.035214
H -2.532203 0.209379 0.554751
12
Aligned to gpa_Type_3.xyz, RMSD 0.20029
C -0.811853 -1.134595 0.124377
C 0.620107 -1.055851 -0.217077
C 1.418111 0.111274 0.080057
C 0.744087 1.246269 0.244093
C -0.750460 1.413171 -0.035186
C -1.513912 0.104074 0.300562
H -1.502204 -1.888096 0.132447
H 1.020595 -1.871584 -0.759380
H 2.431075 0.077154 0.250857
H 1.404405 2.102861 0.531057
H -0.539790 0.780916 -1.262584
H -2.520161 0.114409 0.610777
12
Aligned to gpa_Type_2.xyz, RMSD 0.31727
C -0.774134 -1.008368 -0.208601
C 0.600224 -1.158837 0.198255
C 1.448134 -0.018504 0.286423
C 0.697532 1.100569 0.150787
C -0.760587 1.121827 -0.059775
C -1.607289 0.009849 0.445219
H -1.035098 -1.770642 -0.961608
H 0.730574 -2.226993 -0.118788
H 2.548055 0.116676 0.196702
H 1.111546 2.087948 -0.155438
H -0.738537 1.574100 -1.079105
H -2.220419 0.172373 1.305928
12
Aligned to gpa_Type_2.xyz, RMSD 0.23849
C -0.808958 -1.062899 -0.310531
C 0.659685 -1.105433 -0.032086
C 1.381623 0.014300 0.209973
C 0.695675 1.280905 0.227741
C -0.723311 1.103558 -0.089645
C -1.511120 0.047268 0.505146
H -1.402530 -1.811661 -0.807139
H 1.053943 -2.020832 -0.147784
H 2.443256 -0.037136 0.374576
H 1.427840 2.130927 -0.029838
H -0.947466 1.285094 -1.130834
H -2.268637 0.175909 1.230422
12
Aligned to gpa_Type_2.xyz, RMSD 0.28360
C -0.773321 -1.031999 -0.247347
C 0.668385 -1.167472 0.110239
C 1.326659 0.013282 0.253692
C 0.745018 1.395936 0.144896
C -0.740801 1.165771 -0.094951
C -1.571225 0.107104 0.513355
H -1.249321 -1.744228 -0.887778
H 1.137896 -2.120330 -0.098590
H 2.420190 -0.296628 0.239754
H 1.450488 2.257620 -0.007955
H -1.051528 1.356371 -1.233599
H -2.362438 0.064571 1.308285
12
Aligned to gpa_Type_2.xyz, RMSD 0.26588
C -0.807037 -0.940418 -0.343164
C 0.611144 -1.126110 -0.051462
C 1.349195 0.039066 0.184432
C 0.754664 1.279191 0.193392
C -0.782184 1.193295 -0.113993
C -1.506425 0.006439 0.480279
H -1.217978 -1.813785 -0.832736
H 1.025123 -2.135575 0.123279
H 2.360999 0.049758 0.142418
H 1.597326 1.972424 0.161650
H -1.133131 1.351497 -1.174668
H -2.251695 0.124217 1.230573
12
Aligned to gpa_Type_3.xyz, RMSD 0.15555
C -0.870398 -0.995829 0.008363
C 0.537175 -1.216187 -0.186881
C 1.306780 0.036094 -0.002224
C 0.734612 1.192751 0.233339
C -0.784316 1.426174 -0.018277
C -1.503052 0.182516 0.273334
H -1.423039 -1.919036 -0.097724
H 1.270517 -2.103742 -0.243139
H 2.381213 0.061783 -0.166636
H 1.181307 2.141707 0.588116
H -0.327580 1.075211 -1.099129
H -2.503221 0.118558 0.710857
12
Aligned to gpa_Type_2.xyz, RMSD 0.23174
C -0.757345 -1.161815 -0.588004
C 0.523772 -1.233837 -0.054316
C 1.313950 -0.034855 0.136990
C 0.622880 1.252967 0.021854
C -0.634195 1.239725 -0.333782
C -1.273352 -0.009810 0.294249
H -1.459960 -1.981221 -0.852509
H 0.847282 -2.107792 0.454317
H 2.328165 -0.034319 0.367248
H 1.115145 2.161129 0.171442
H -1.022484 1.894784 -0.984542
H -1.603857 0.015044 1.367053
12
Aligned to gpa_Type_2.xyz, RMSD 0.20041
C -0.897573 -1.103438 -0.311223
C 0.478169 -0.981170 -0.060662
C 1.243050 0.040952 0.370696
C 0.750933 1.262836 0.134725
C -0.729117 1.289045 0.072889
C -1.411448 0.105967 0.358522
H -1.334438 -1.921340 -0.713984
H 1.132405 -1.821657 -0.149781
H 2.246232 -0.337632 0.438284
H 1.301738 2.203130 -0.202881
H -0.774748 1.344492 -1.133633
H -2.005201 -0.081185 1.197047
12
Aligned to gpa_Type_2.xyz, RMSD 0.27586
C -0.789372 -1.019813 -0.321475
C 0.635143 -1.256698 0.062696
C 1.318151 -0.008767 0.194487
C 0.719559 1.321033 0.128709
C -0.710118 1.089465 -0.214355
C -1.451105 -0.028954 0.447985
H -1.502014 -1.563931 -0.876751
H 1.196874 -2.225418 -0.056999
H 2.365485 0.098859 0.374658
H 1.488071 2.140713 0.102838
H -1.139327 1.250601 -1.089132
H -2.131346 0.202910 1.247342
12
Aligned to gpa_Type_1.xyz, RMSD 0.29534
C -0.717277 -1.010346 -0.177097
C 0.597550 -1.283453 0.240818
C 1.437938 -0.042531 0.297335
C 0.695547 1.200681 0.170284
C -0.672690 1.116352 -0.161951
C -1.549202 0.088430 0.462655
H -1.003414 -1.458146 -1.142389
H 0.919021 -2.266129 -0.000680
H 2.481320 -0.044756 0.229633
H 1.107715 2.104430 -0.169923
H -1.110187 1.507778 -1.081289
H -2.186322 0.087689 1.332603
12
Aligned to gpa_Type_2.xyz, RMSD 0.30956
C -0.907007 -1.119561 -0.133638
C 0.526993 -1.085817 -0.061256
C 1.391563 -0.020610 0.212117
C 0.783559 1.363831 0.066175
C -0.684000 1.328079 0.071231
C -1.430991 0.087897 0.405787
H -1.465202 -1.899352 -0.786006
H 0.929970 -2.161847 -0.271757
H 2.564748 0.048201 0.398650
H 1.260015 2.315429 0.178894
H -0.834013 0.956645 -1.152558
H -2.135634 0.187104 1.072361
12
Aligned to gpa_Type_3.xyz, RMSD 0.31358
C -0.873550 -1.093938 -0.098725
C 0.579688 -1.120620 -0.271499
C 1.287706 0.061769 0.185517
C 0.689500 1.334486 0.111007
C -0.685030 1.189065 0.020067
C -1.436338 0.050568 0.385596
H -1.482052 -1.991480 -0.449978
H 1.009343 -2.079358 -0.420451
H 2.415745 0.071427 0.459508
H 1.167583 2.279801 0.063017
H -0.371252 1.040375 -1.036357
H -2.301344 0.257905 1.052299
12
Aligned to gpa_Type_3.xyz, RMSD 0.20285
C -0.825821 -1.153949 -0.007882
C 0.568496 -1.081837 -0.224515
C 1.467326 0.144405 0.041079
C 0.740774 1.291753 0.078038
C -0.717038 1.388064 -0.041059
C -1.459860 0.092043 0.199759
H -1.357163 -1.994303 -0.299856
H 0.901374 -2.117321 -0.330258
H 2.465062 0.068579 0.286646
H 1.250638 2.148321 0.481023
H -0.668449 0.977653 -1.139648
H -2.365341 0.236594 0.956674
12
Aligned to gpa_Type_2.xyz, RMSD 0.19671
C -0.914644 -1.151528 -0.407595
C 0.508986 -1.159447 -0.210425
C 1.429212 -0.029021 0.162085
C 0.734676 1.222905 0.093062
C -0.587985 1.056715 -0.253389
C -1.428843 0.050220 0.311262
H -1.544827 -1.927633 -0.913329
H 0.982201 -2.059208 0.315637
H 2.404980 -0.076144 0.555652
H 1.135877 2.321492 0.052093
H -1.043005 1.717796 -1.060203
H -1.676627 0.033851 1.355149
12
Aligned to gpa_Type_3.xyz, RMSD 0.27069
C -0.841413 -1.038364 -0.204200
C 0.537201 -1.176870 -0.069280
C 1.369933 0.081475 -0.075754
C 0.744269 1.312273 0.263715
C -0.758986 1.299441 0.193145
C -1.465836 0.103727 0.317686
H -1.510266 -1.956395 -0.320523
H 0.930187 -2.029429 0.187458
H 2.547803 0.126217 -0.285141
H 1.379409 2.147699 0.367107
H -0.402636 1.259264 -0.992376
H -2.529666 -0.129038 0.618163
12
Aligned to gpa_Type_3.xyz, RMSD 0.27905
C -0.864380 -1.091396 -0.191027
C 0.584048 -1.125196 -0.175518
C 1.318811 0.116167 -0.159817
C 0.730624 1.296543 0.265239
C -0.712434 1.263631 0.205519
C -1.425266 0.122047 0.361665
H -1.506999 -1.914071 -0.306364
H 0.999567 -2.143651 0.256754
H 2.312068 0.094134 -0.269592
H 1.300082 2.186672 0.457521
H -0.350919 1.281518 -1.079581
H -2.385202 -0.086397 0.635201
12
Aligned to gpa_Type_2.xyz, RMSD 0.20811
C -0.918409 -1.249792 -0.353701
C 0.528994 -1.084960 -0.113181
C 1.337517 0.122265 0.199235
C 0.724232 1.249598 0.102246
C -0.634546 1.169429 -0.174901
C -1.402063 -0.022523 0.441454
H -1.217193 -1.856972 -1.088434
H 0.929639 -1.965034 0.238089
H 2.307466 -0.272312 0.467240
H 1.258735 2.143835 -0.016199
H -1.134930 1.576750 -1.084304
H -1.779442 0.189715 1.382456
12
Aligned to gpa_Type_3.xyz, RMSD 0.15446
C -0.875986 -1.169557 -0.035708
C 0.544402 -1.100800 -0.256441
C 1.392937 -0.021521 0.038821
C 0.713008 1.265728 0.283826
C -0.741622 1.444028 -0.081545
C -1.506526 0.142069 0.183540
H -1.364693 -2.082811 -0.071707
H 0.977322 -1.964346 -0.357825
H 2.416663 0.161100 0.120190
H 1.281046 2.098711 0.556181
H -0.535304 0.988529 -1.230546
H -2.301248 0.238868 0.851214
12
Aligned to gpa_Type_3.xyz, RMSD 0.16295
C -0.884171 -1.120384 -0.125626
C 0.528508 -1.033557 -0.308301
C 1.295939 0.045977 0.033477
C 0.671123 1.280997 0.285090
C -0.747629 1.457334 -0.004569
C -1.490067 0.141648 0.235784
H -1.341768 -2.175669 -0.004111
H 1.013650 -2.100529 -0.438367
H 2.513159 0.127239 0.295786
H 1.392071 2.115861 0.293792
H -0.497098 1.072645 -1.026146
H -2.453718 0.188439 0.763192
12
Aligned to gpa_Type_3.xyz, RMSD 0.27526
C -0.840920 -1.100657 -0.158253
C 0.527206 -1.111733 -0.122296
C 1.371272 -0.040326 0.162143
C 0.813414 1.386214 0.043886
C -0.675568 1.283768 0.021147
C -1.380577 0.098518 0.358220
H -1.444895 -1.886072 -0.480244
H 0.993068 -1.948624 -0.316893
H 2.372551 -0.020130 0.359501
H 1.284060 2.305937 0.197715
H -0.666514 0.969669 -1.024821
H -2.353096 0.063435 0.959895
12
Aligned to gpa_Type_3.xyz, RMSD 0.21270
C -0.848988 -1.120503 -0.025347
C 0.493982 -1.056942 -0.262217
C 1.426858 0.036531 -0.006246
C 0.710317 1.311638 0.091868
C -0.731288 1.371481 -0.031763
C -1.389227 0.097550 0.216318
H -1.547649 -2.017440 -0.142222
H 0.968238 -2.125260 -0.384082
H 2.531098 0.205049 0.340028
H 1.278787 2.135704 0.558786
H -0.716794 0.982330 -1.202976
H -2.175336 0.179863 0.847853
12
Aligned to gpa_Type_3.xyz, RMSD 0.30466
C -0.912011 -1.199983 -0.136360
C 0.512080 -1.202768 -0.242146
C 1.122558 0.058217 0.073386
C 0.679793 1.259291 0.623267
C -0.520560 1.260334 -0.101828
C -1.423599 0.149792 0.211710
H -1.461963 -2.266109 -0.107572
H 1.140630 -2.108617 -0.095340
H 2.097900 0.342065 -0.125998
H 1.519783 2.149814 0.275843
H -0.415783 1.427258 -1.108648
H -2.338827 0.130708 0.733688
12
Aligned to gpa_Type_2.xyz, RMSD 0.26657
C -0.816828 -1.038529 -0.338488
C 0.616474 -1.188085 -0.125181
C 1.507588 0.003255 0.167103
C 0.803198 1.080059 -0.153123
C -0.666200 1.154251 -0.136851
C -1.391485 0.017350 0.573027
H -1.499174 -1.714781 -0.998046
H 1.040871 -2.092405 0.147824
H 2.512112 0.040651 0.536507
H 1.114406 2.102825 0.116492
H -1.109249 1.438608 -1.049743
H -2.111713 0.196801 1.260478
12
Aligned to gpa_Type_1.xyz, RMSD 0.27210
C -0.884023 -0.986575 -0.177905
C 0.772101 -1.241896 -0.005310
C 1.494714 -0.035747 0.089105
C 0.730013 1.131700 0.106195
C -0.654616 0.971847 -0.205758
C -1.398390 0.069718 0.630595
H -1.558284 -1.820102 -0.457008
H 1.187400 -2.258704 -0.089049
H 2.691565 0.125185 0.117009
H 0.996145 2.118488 0.395753
H -0.941926 1.582342 -1.059331
H -2.434699 0.343745 0.655703
12
Aligned to gpa_Type_1.xyz, RMSD 0.31623
C -0.805089 -1.130005 -0.199356
C 0.675235 -1.247540 0.090809
C 1.348509 -0.108335 0.321325
C 0.777462 1.138316 0.005485
C -0.838608 1.234113 -0.183399
C -1.547468 0.026221 0.503424
H -1.224601 -1.491961 -1.176131
H 1.250053 -2.205657 0.274891
H 2.455754 -0.023508 0.084910
H 1.289757 2.061016 0.113304
H -1.125884 1.662051 -1.208047
H -2.255120 0.085289 1.372785
12
Aligned to gpa_Type_1.xyz, RMSD 0.28083
C -0.745872 -1.079870 -0.113772
C 0.669924 -1.301067 0.169623
C 1.536557 -0.145232 -0.005484
C 0.733843 1.041131 0.012474
C -0.713537 1.168114 0.070392
C -1.505856 0.079329 0.723026
H -1.019760 -1.242729 -1.146557
H 1.030819 -2.234620 0.477096
H 2.542926 0.083796 -0.040840
H 1.170174 2.000697 -0.110520
H -1.160951 1.612774 -0.734656
H -2.538269 0.017678 0.699217
12
Aligned to gpa_Type_1.xyz, RMSD 0.25117
C -0.733916 -1.134568 -0.384311
C 0.727840 -1.191895 0.265706
C 1.570576 -0.105936 -0.028639
C 0.785748 1.075179 -0.082262
C -0.693159 0.940975 -0.128032
C -1.445944 -0.030607 0.599506
H -1.339585 -1.526114 -1.163612
H 1.116162 -2.214998 0.386122
H 2.567775 0.017485 0.362626
H 1.148681 2.114159 -0.216083
H -1.286309 1.819432 -0.525701
H -2.417871 0.236887 0.914677
12
Aligned to gpa_Type_1.xyz, RMSD 0.26465
C -0.675870 -1.083568 -0.342742
C 0.755766 -1.175895 0.206204
C 1.518148 0.003574 -0.026142
C 0.831197 1.150458 -0.076600
C -0.715952 0.989514 -0.081717
C -1.422261 -0.030081 0.526357
H -1.183700 -1.513967 -1.196920
H 0.858270 -2.247388 0.507368
H 2.610479 -0.073168 0.239931
H 1.187717 2.117112 -0.129634
H -1.344979 1.727250 -0.585789
H -2.418816 0.136159 0.959684
12
Aligned to gpa_Type_2.xyz, RMSD 0.18896
C -0.951585 -1.108195 -0.389075
C 0.501006 -1.055063 -0.147701
C 1.348309 0.012857 0.269779
C 0.744281 1.374804 0.043087
C -0.732030 1.330344 -0.130250
C -1.439094 0.029978 0.353991
H -1.613469 -2.001024 -0.591673
H 1.197699 -1.933252 -0.209632
H 2.334816 -0.128544 0.637777
H 1.421692 2.162344 0.129272
H -0.923805 1.360374 -1.264028
H -1.887820 -0.044625 1.298452
12
Aligned to gpa_Type_2.xyz, RMSD 0.16719
C -0.946181 -0.966564 -0.416580
C 0.551089 -0.954063 -0.083123
C 1.335502 0.057691 0.314756
C 0.808754 1.337886 0.044870
C -0.738118 1.301409 -0.072709
C -1.452271 0.105022 0.433717
H -1.298233 -1.972070 -0.906863
H 0.892023 -1.983578 0.028375
H 2.390795 -0.224108 0.539165
H 1.406523 2.150106 -0.079398
H -1.054705 1.270650 -1.154162
H -1.895177 -0.122382 1.351952
12
Aligned to gpa_Type_2.xyz, RMSD 0.19578
C -0.761639 -0.983228 -0.421386
C 0.558517 -1.122395 -0.045663
C 1.371559 0.055130 0.334606
C 0.810283 1.200827 0.083721
C -0.663775 1.132460 -0.100665
C -1.439452 0.030925 0.417938
H -1.212623 -1.757407 -0.930335
H 0.798444 -2.138133 0.106331
H 2.411744 -0.090670 0.537001
H 1.215468 2.151096 -0.357112
H -1.046543 1.621008 -0.978460
H -2.041981 -0.099616 1.354025
12
Aligned to gpa_Type_3.xyz, RMSD 0.17170
C -0.870392 -1.118144 0.082858
C 0.516327 -0.988022 -0.157293
C 1.360857 0.071619 0.108828
C 0.780146 1.309892 0.238631
C -0.785235 1.353979 0.083597
C -1.546874 0.077179 0.387290
H -1.263854 -2.159802 0.053599
H 1.044543 -1.886160 -0.648608
H 2.351565 0.002145 0.066836
H 1.365392 2.124891 0.474647
H -0.383393 0.884995 -1.202357
H -2.569084 0.327429 0.511971
12
Aligned to gpa_Type_3.xyz, RMSD 0.20496
C -0.884185 -1.068567 -0.218898
C 0.688999 -1.191548 -0.271225
C 1.350602 0.121837 0.001164
C 0.718387 1.322282 0.273693
C -0.718910 1.415685 0.171350
C -1.580182 0.096000 0.346101
H -1.469507 -2.133088 -0.072625
H 1.304321 -2.125922 -0.310713
H 2.387145 0.035990 0.130470
H 1.504238 2.216169 0.263617
H -0.685709 0.981488 -0.851804
H -2.615201 0.329676 0.538872
12
Aligned to gpa_Type_3.xyz, RMSD 0.16179
C -0.821475 -1.055254 -0.097218
C 0.565443 -1.155648 -0.117250
C 1.394214 0.143390 -0.027562
C 0.710470 1.375035 0.135766
C -0.682395 1.340479 0.067508
C -1.493398 0.166146 0.245897
H -1.326436 -1.995991 -0.237761
H 1.157233 -2.079114 -0.240251
H 2.539070 -0.201220 0.062600
H 1.311948 2.239871 0.521406
H -0.813830 0.991321 -1.037704
H -2.540845 0.230986 0.724569
12
Aligned to gpa_Type_2.xyz, RMSD 0.17878
C -1.026504 -1.173868 -0.284090
C 0.498327 -1.092615 -0.054344
C 1.210999 0.027723 0.482636
C 0.750199 1.378688 0.154261
C -0.678914 1.284965 -0.090736
C -1.328052 0.068662 0.314948
H -1.387083 -1.911879 -0.993274
H 0.976461 -2.060791 -0.095391
H 2.332462 -0.016061 0.585874
H 1.353919 2.137783 -0.313937
H -0.934833 1.415679 -1.027477
H -1.766980 -0.058285 1.321530
12
Aligned to gpa_Type_2.xyz, RMSD 0.22711
C -1.106310 -1.216160 -0.372185
C 0.482481 -1.076895 -0.079705
C 1.299591 0.047884 0.467901
C 0.708496 1.412095 0.162854
C -0.663930 1.200010 -0.044557
C -1.312843 -0.003520 0.282506
H -1.653067 -1.973982 -0.897968
H 1.125704 -2.002049 -0.144864
H 2.280317 -0.039266 0.814225
H 1.346147 2.138104 -0.328845
H -0.964411 1.598442 -1.175939
H -1.542175 -0.084665 1.316577
12
Aligned to gpa_Type_2.xyz, RMSD 0.29991
C -0.894181 -1.032998 -0.211345
C 0.611409 -1.079334 0.041564
C 1.403858 0.016151 0.181515
C 0.763458 1.218220 0.048428
C -0.823559 1.243892 -0.015014
C -1.614072 0.032981 0.526964
H -1.022323 -1.787573 -1.032695
H 0.987586 -2.011337 -0.219852
H 2.303936 -0.164845 0.569841
H 1.443300 2.121422 -0.231573
H -0.938184 1.266290 -1.068269
H -2.221227 0.177129 1.410437
12
Aligned to gpa_Type_2.xyz, RMSD 0.27366
C -0.839864 -1.016030 -0.281350
C 0.563498 -1.109287 0.085225
C 1.324307 0.000126 0.239824
C 0.787083 1.338012 0.087671
C -0.781699 1.272059 -0.007489
C -1.637612 0.033618 0.450612
H -1.256082 -1.678628 -0.995368
H 1.242941 -1.990270 -0.102127
H 2.459762 -0.299344 0.520121
H 1.359927 2.079144 -0.259612
H -1.013476 1.318014 -1.111242
H -2.208784 0.052585 1.373736
12
Aligned to gpa_Type_3.xyz, RMSD 0.27585
C -0.805183 -1.139030 0.102430
C 0.619888 -1.189162 -0.042650
C 1.266754 0.124591 0.104734
C 0.766603 1.345716 0.720073
C -0.538185 1.154929 -0.158540
C -1.443506 0.077159 0.301459
H -1.373529 -2.132514 -0.155415
H 1.052283 -2.052750 -0.238066
H 2.226581 0.018669 -0.398117
H 1.465557 2.308349 0.460970
H -0.575696 1.304638 -1.243042
H -2.661569 0.179406 0.546164
12
Aligned to gpa_Type_2.xyz, RMSD 0.26081
C -0.771365 -0.905712 -0.398041
C 0.602879 -1.170181 -0.062527
C 1.308320 0.043766 0.325266
C 0.840342 1.267095 -0.106695
C -0.721164 1.276114 -0.062286
C -1.475388 0.080153 0.614308
H -1.327468 -1.594827 -1.004956
H 1.039014 -2.148877 0.165177
H 2.404426 -0.130799 0.654907
H 1.322517 2.035300 -0.365764
H -1.160811 1.517808 -1.019993
H -2.061299 -0.269840 1.260607
12
Aligned to gpa_Type_2.xyz, RMSD 0.19083
C -0.864764 -1.123511 -0.569459
C 0.504000 -1.144051 -0.170048
C 1.222886 0.008340 0.307938
C 0.645185 1.237533 0.057268
C -0.652257 1.290601 -0.314026
C -1.167282 0.080465 0.348123
H -1.412588 -1.926936 -0.560681
H 1.051268 -2.105580 -0.029484
H 2.213841 0.037658 0.671411
H 1.433528 1.944574 0.109842
H -1.286904 1.682527 -1.114095
H -1.686911 0.018380 1.263212
12
Aligned to gpa_Type_2.xyz, RMSD 0.13447
C -0.871590 -1.114442 -0.432887
C 0.512337 -1.093157 -0.177877
C 1.160794 0.045740 0.320134
C 0.667292 1.270835 0.004690
C -0.699692 1.136807 -0.115886
C -1.229297 -0.031459 0.412830
H -1.441798 -2.045655 -0.768121
H 0.921945 -2.050829 -0.030073
H 2.223760 -0.001979 0.578673
H 1.349876 2.191664 0.037277
H -0.906344 1.564543 -1.109700
H -1.687281 0.127932 1.280941
12
Aligned to gpa_Type_3.xyz, RMSD 0.21185
C -0.849078 -1.053250 -0.206314
C 0.672363 -1.185722 -0.290743
C 1.357730 0.121010 0.027084
C 0.739093 1.324719 0.270362
C -0.714140 1.440547 0.163996
C -1.590036 0.124847 0.317736
H -1.461466 -2.111750 -0.058939
H 1.335853 -2.081945 -0.323263
H 2.358284 -0.020000 0.171269
H 1.595700 2.221593 0.280344
H -0.775614 0.972319 -0.922321
H -2.668689 0.247632 0.570790
12
Aligned to gpa_Type_3.xyz, RMSD 0.28176
C -0.734726 -1.001515 0.107231
C 0.655609 -1.062670 -0.202363
C 1.412214 0.088605 0.073296
C 0.822570 1.226452 0.133671
C -0.652437 1.017618 -0.311466
C -1.315742 0.119391 0.647690
H -1.592785 -1.685507 -0.139756
H 1.046940 -1.991342 -0.610862
H 2.426654 -0.051106 0.307544
H 1.154787 2.251644 0.564308
H -0.765024 0.989800 -1.227790
H -2.458062 0.098629 0.658498
12
Aligned to gpa_Type_2.xyz, RMSD 0.25913
C -0.891896 -1.245196 -0.498544
C 0.558688 -1.162262 0.054278
C 1.297298 0.136206 0.316779
C 0.730508 1.343706 0.113005
C -0.612948 1.290896 -0.279087
C -1.342532 -0.084110 0.233827
H -1.651941 -1.934156 -1.007816
H 0.982395 -2.140879 0.389616
H 2.370925 0.007879 0.471240
H 1.495048 2.048780 -0.033764
H -1.399151 1.843524 -0.992105
H -1.536393 -0.104390 1.232572
12
Aligned to gpa_Type_3.xyz, RMSD 0.27809
C -0.840378 -0.966914 -0.139743
C 0.651157 -1.112811 -0.058939
C 1.427017 0.047710 0.229992
C 0.791692 1.286436 0.151912
C -0.689055 1.367044 0.114003
C -1.511909 0.096808 0.473694
H -1.459557 -1.934087 -0.375367
H 0.950211 -2.034400 -0.500143
H 2.500607 0.234520 0.324500
H 1.447650 2.100980 0.076126
H -0.638491 0.850759 -1.077513
H -2.628946 0.063956 0.781479
12
Aligned to gpa_Type_2.xyz, RMSD 0.32357
C -0.918126 -1.116779 -0.151018
C 0.604883 -1.113227 -0.127387
C 1.360817 0.038158 0.214776
C 0.734180 1.259958 0.208754
C -0.854475 1.389260 0.025538
C -1.542454 0.096228 0.538182
H -1.401759 -1.948003 -0.671347
H 1.023308 -2.061530 -0.268610
H 2.564209 0.118880 0.282947
H 1.455361 2.122331 0.081320
H -0.662795 1.148140 -1.198586
H -2.363148 0.066583 1.065433
12
Aligned to gpa_Type_3.xyz, RMSD 0.17045
C -0.881407 -1.121475 0.053866
C 0.555453 -1.133195 -0.127655
C 1.383818 0.127924 -0.014666
C 0.733858 1.319038 0.379927
C -0.760501 1.505203 -0.024256
C -1.454604 0.133843 0.284279
H -1.537541 -2.049974 -0.221501
H 1.110662 -2.029956 -0.168365
H 2.442866 -0.018692 -0.169302
H 1.301498 2.158750 0.518201
H -0.419242 1.113030 -1.246754
H -2.474861 -0.004495 0.736228
12
Aligned to gpa_Type_2.xyz, RMSD 0.29877
C -0.884821 -1.076190 -0.286927
C 0.633158 -1.093800 -0.104025
C 1.413590 0.022460 0.333965
C 0.742850 1.246008 0.216809
C -0.806913 1.362044 0.029658
C -1.461984 0.138071 0.471325
H -1.516045 -1.883732 -0.614363
H 1.093828 -2.108463 -0.260511
H 2.484964 0.139214 0.281171
H 1.352570 2.078828 -0.007186
H -0.645203 1.232471 -1.262988
H -2.405992 -0.056912 1.203071
12
Aligned to gpa_Type_2.xyz, RMSD 0.29135
C -0.872062 -1.098154 -0.622881
C 0.492503 -1.085294 0.029768
C 1.228205 0.038565 0.300032
C 0.753193 1.302375 -0.048928
C -0.669060 1.184453 -0.299022
C -1.364774 0.026880 0.322194
H -1.349859 -2.030815 -1.003408
H 0.764570 -2.096771 0.378039
H 2.146082 -0.012745 0.654931
H 1.435099 2.054848 -0.138313
H -1.239818 1.997879 -1.042304
H -1.324078 -0.281221 1.469894
12
Aligned to gpa_Type_3.xyz, RMSD 0.35703
C -0.766096 -1.004783 -0.210756
C 0.634854 -0.992948 -0.423657
C 1.339554 0.061326 0.128793
C 0.702227 1.294299 0.226509
C -0.690953 1.407427 0.020557
C -1.432256 0.166581 0.200007
H -1.333659 -1.853177 0.121271
H 1.117464 -1.810988 -0.744472
H 2.119318 -0.264646 0.784941
H 1.328923 2.099764 0.101976
H -0.671911 0.873430 -1.160142
H -2.347466 0.023716 0.954974
12
Aligned to gpa_Type_3.xyz, RMSD 0.37633
C -0.826347 -0.963584 -0.217954
C 0.602566 -0.991283 -0.467529
C 1.322101 0.033830 0.186365
C 0.715359 1.334120 0.258840
C -0.759971 1.381255 0.087429
C -1.458603 0.161770 0.263674
H -1.330226 -1.856076 0.081840
H 1.236004 -1.929030 -0.743473
H 2.063804 -0.375700 0.756161
H 1.309967 2.284200 0.044277
H -0.666778 0.862566 -1.126338
H -2.207878 0.057932 0.876709
12
Aligned to gpa_Type_2.xyz, RMSD 0.25006
C -0.882587 -1.115829 -0.561180
C 0.480740 -0.998436 -0.167437
C 1.232931 0.030121 0.390357
C 0.717856 1.347596 0.058535
C -0.618321 1.202878 -0.232518
C -1.296304 0.013176 0.342593
H -1.464187 -2.054908 -0.651707
H 0.802162 -2.017482 -0.071834
H 2.143231 -0.259785 0.910901
H 1.203738 2.344850 -0.281231
H -0.931434 1.772621 -1.124971
H -1.387823 -0.264804 1.388494
12
Aligned to gpa_Type_2.xyz, RMSD 0.26846
C -1.006796 -1.262151 -0.523243
C 0.527151 -1.127055 -0.231047
C 1.192533 -0.014994 0.449356
C 0.736828 1.302604 0.049892
C -0.584214 1.174120 -0.454529
C -1.197570 -0.037982 0.357990
H -1.480967 -2.108735 -0.859849
H 0.956873 -2.051850 -0.042302
H 2.164882 -0.009442 0.833950
H 1.371118 2.216519 -0.032286
H -1.224879 1.759786 -1.040088
H -1.454959 0.159177 1.492157
12
Aligned to gpa_Type_2.xyz, RMSD 0.26943
C -0.853203 -1.021232 -0.371687
C 0.503908 -1.057468 0.009121
C 1.470808 0.058720 0.150662
C 0.764452 1.198878 -0.003695
C -0.684238 1.260656 -0.151566
C -1.375201 0.103698 0.500255
H -1.263987 -1.720022 -0.989075
H 1.052344 -2.102935 0.331908
H 2.459209 -0.130646 0.213175
H 1.396053 2.061690 0.137225
H -1.247803 1.345841 -1.006834
H -2.222340 0.002819 1.180511
12
Aligned to gpa_Type_3.xyz, RMSD 0.15711
C -0.866866 -1.002633 -0.161061
C 0.510633 -1.133407 -0.191087
C 1.291263 0.106221 -0.169527
C 0.743299 1.266251 0.253501
C -0.719164 1.382145 0.098083
C -1.477944 0.148970 0.171839
H -1.204401 -2.066786 0.052434
H 0.962631 -2.016766 -0.267534
H 2.340174 0.042427 0.196951
H 1.381402 2.044278 0.429352
H -0.442656 1.230883 -1.175611
H -2.518372 -0.001584 0.762661
12
Aligned to gpa_Type_3.xyz, RMSD 0.15674
C -0.893967 -1.060541 -0.071585
C 0.578500 -1.101592 -0.059413
C 1.389805 0.055491 -0.076494
C 0.763140 1.258682 0.219297
C -0.735176 1.430554 -0.056371
C -1.506399 0.184878 0.226684
H -1.331729 -2.093748 -0.185746
H 1.083750 -2.153438 -0.142519
H 2.438096 0.188292 -0.129453
H 1.304943 1.987838 0.594985
H -0.571240 1.121676 -1.045600
H -2.519725 0.181909 0.726215
12
Aligned to gpa_Type_2.xyz, RMSD 0.15935
C -0.809200 -0.878789 -0.598770
C 0.434612 -1.062496 -0.045024
C 1.290147 0.069118 0.270420
C 0.718636 1.265181 0.089112
C -0.726409 1.239150 0.071490
C -1.445297 0.046497 0.223941
H -1.235211 -1.904673 -0.608896
H 0.946500 -2.040208 0.106902
H 2.310059 -0.214861 0.593457
H 1.383839 2.081181 -0.288447
H -1.081925 1.588281 -0.980523
H -1.785749 -0.188382 1.166340
12
Aligned to gpa_Type_2.xyz, RMSD 0.18800
C -0.817965 -0.893914 -0.592702
C 0.426583 -1.000727 -0.097376
C 1.271466 0.095842 0.284826
C 0.692945 1.333842 0.062867
C -0.693983 1.245133 0.006594
C -1.425104 0.051449 0.235033
H -1.248219 -1.917711 -0.543118
H 0.936181 -2.046925 0.061322
H 2.206946 -0.327281 0.700685
H 1.260774 2.072050 -0.287421
H -1.002752 1.651390 -1.030747
H -1.606871 -0.263151 1.200039
12
Aligned to gpa_Type_3.xyz, RMSD 0.12548
C -0.848767 -1.063036 -0.037237
C 0.558260 -1.005689 -0.256784
C 1.353884 0.050161 0.010049
C 0.784587 1.270317 0.319494
C -0.855173 1.458782 -0.055457
C -1.442024 0.102294 0.348969
H -1.291955 -2.106909 -0.024994
H 1.078487 -2.012592 -0.351099
H 2.365948 -0.072599 0.051101
H 1.542108 2.253001 0.538386
H -0.615234 0.988827 -1.157162
H -2.630121 0.137444 0.614735
12
Aligned to gpa_Type_3.xyz, RMSD 0.15303
C -0.836956 -1.114077 0.006977
C 0.536480 -0.970369 -0.177685
C 1.356184 0.098558 -0.056483
C 0.766072 1.229229 0.336365
C -0.885490 1.416742 -0.095905
C -1.471059 0.128596 0.375873
H -1.400036 -1.995275 -0.128890
H 1.196341 -1.810316 -0.312237
H 2.451771 -0.096815 0.072378
H 1.355735 1.952121 0.465635
H -0.678770 0.926802 -1.086039
H -2.390273 0.234806 0.600013
12
Aligned to gpa_Type_3.xyz, RMSD 0.20983
C -0.843092 -1.153994 -0.087437
C 0.576341 -1.140827 -0.241544
C 1.343919 0.120806 -0.037176
C 0.726237 1.267312 0.072637
C -0.756126 1.292844 0.034177
C -1.485249 0.144302 0.162774
H -1.448962 -1.962715 -0.202932
H 1.357020 -1.975191 -0.296359
H 2.399947 -0.135912 0.267223
H 1.364003 2.204760 0.531012
H -0.770181 0.996867 -1.129689
H -2.463859 0.341748 0.927316
12
Aligned to gpa_Type_1.xyz, RMSD 0.27549
C -0.729074 -0.963038 -0.040338
C 0.797381 -1.261522 0.244059
C 1.568610 -0.103105 0.362309
C 0.820906 1.028760 -0.033687
C -0.769724 1.027255 -0.020256
C -1.585135 0.009250 0.633255
H -0.928843 -1.197774 -0.992389
H 1.046182 -2.200197 -0.181122
H 2.614798 -0.105521 0.370081
H 1.108639 2.044626 -0.513208
H -1.286743 1.484238 -0.650524
H -2.656998 0.237027 0.821820
12
Aligned to gpa_Type_1.xyz, RMSD 0.29541
C -0.719192 -1.123784 -0.023458
C 0.717585 -1.317711 0.049593
C 1.408670 -0.080336 0.153866
C 0.613199 1.110030 -0.059801
C -0.810125 1.114304 -0.212469
C -1.563849 0.007906 0.482813
H -1.283309 -1.229252 -1.026836
H 1.358750 -2.148624 0.062478
H 2.387024 0.040185 0.394023
H 1.446756 1.886919 0.082962
H -1.293379 1.562015 -1.165449
H -2.262133 0.178349 1.262278
12
Aligned to gpa_Type_2.xyz, RMSD 0.26796
C -0.876017 -1.066088 -0.165834
C 0.671639 -1.156088 0.021200
C 1.411737 0.070791 0.152529
C 0.742614 1.198016 -0.090510
C -0.655558 1.149245 -0.245585
C -1.612986 0.070665 0.431403
H -1.199614 -1.667826 -0.906963
H 0.919562 -2.194158 0.110458
H 2.529032 -0.178369 0.294441
H 1.141350 2.226264 0.201968
H -0.934998 1.596236 -1.211790
H -2.136759 -0.048689 1.408683
12
Aligned to gpa_Type_3.xyz, RMSD 0.14565
C -0.800540 -1.040766 -0.165025
C 0.533984 -1.037705 -0.104677
C 1.375938 0.149025 0.022626
C 0.753537 1.332430 0.156360
C -0.780007 1.399620 0.076817
C -1.492346 0.105409 0.246602
H -1.406016 -1.981715 -0.115778
H 1.051800 -2.057781 -0.237881
H 2.311353 -0.043108 0.103154
H 1.481792 2.091790 0.428855
H -0.602794 1.140201 -1.147533
H -2.426702 -0.057399 0.736481
12
Aligned to gpa_Type_3.xyz, RMSD 0.12264
C -0.936398 -1.094227 -0.100518
C 0.521196 -1.085881 -0.324329
C 1.374700 0.160752 -0.108327
C 0.718771 1.266661 0.216138
C -0.675846 1.431330 0.009406
C -1.422513 0.102312 0.219058
H -1.344677 -2.082472 0.005980
H 1.094997 -2.074510 -0.311020
H 2.500167 -0.057772 0.205546
H 1.233319 2.174960 0.564129
H -0.627706 1.022046 -1.138281
H -2.436012 0.236802 0.762221
12
Aligned to gpa_Type_2.xyz, RMSD 0.20194
C -0.871363 -1.011234 -0.431335
C 0.491318 -1.074253 -0.067304
C 1.323671 -0.033618 0.428856
C 0.641698 1.210428 0.301532
C -0.790652 1.339527 -0.050069
C -1.331907 0.086029 0.359000
H -1.387172 -1.887134 -0.722681
H 1.017515 -1.890275 -0.190593
H 2.388582 -0.074953 0.663528
H 1.192839 1.891421 -0.398474
H -0.852635 1.590148 -1.236186
H -1.821893 -0.146087 1.343727
12
Aligned to gpa_Type_3.xyz, RMSD 0.23236
C -0.898192 -1.044628 -0.105848
C 0.575617 -1.179335 -0.271591
C 1.305228 0.054985 0.037303
C 0.730097 1.315510 0.150469
C -0.728483 1.394158 0.058212
C -1.443567 0.160016 0.350717
H -1.488672 -1.912965 -0.353594
H 1.042374 -2.072056 -0.034735
H 2.316922 0.018621 0.067313
H 1.338710 2.264239 0.423975
H -0.426591 1.138098 -1.224992
H -2.323444 -0.136642 0.902771
12
Aligned to gpa_Type_2.xyz, RMSD 0.21717
C -0.930921 -1.111655 -0.477593
C 0.528609 -1.102424 -0.323564
C 1.189928 0.065400 0.338210
C 0.691545 1.305258 0.115512
C -0.663229 1.319203 -0.268831
C -1.175422 0.002871 0.266280
H -1.504196 -2.005131 -0.356251
H 0.953111 -2.123261 -0.009025
H 2.128315 -0.140878 0.593260
H 1.194741 2.225139 0.171935
H -0.901964 1.747164 -1.289978
H -1.510514 -0.181687 1.240047
12
Aligned to gpa_Type_2.xyz, RMSD 0.19024
C -0.908636 -1.063721 -0.605975
C 0.513038 -1.046021 -0.327675
C 1.166933 0.010877 0.407482
C 0.702274 1.393702 0.145391
C -0.637154 1.275081 -0.186572
C -1.248298 0.074631 0.199873
H -1.418433 -2.015321 -0.421471
H 0.761379 -1.992027 0.023858
H 2.329735 -0.174781 0.596023
H 1.347080 2.285376 0.057848
H -1.039807 1.435901 -1.141915
H -1.568109 -0.183697 1.253134
12
Aligned to gpa_Type_2.xyz, RMSD 0.25339
C -0.891610 -1.013652 -0.459600
C 0.481338 -1.089670 0.133965
C 1.477245 0.045383 0.294110
C 0.828651 1.225369 0.100224
C -0.658908 1.159689 -0.065350
C -1.538782 0.085169 0.420760
H -1.177901 -1.856685 -1.128482
H 0.929230 -2.093521 0.223674
H 2.417500 -0.147303 0.498917
H 1.254380 2.103268 -0.464086
H -1.092975 1.728812 -0.936156
H -2.028168 -0.146860 1.382024
12
Aligned to gpa_Type_2.xyz, RMSD 0.26978
C -0.946666 -1.030098 -0.561573
C 0.431594 -1.059640 0.040678
C 1.176497 0.076986 0.413948
C 0.684003 1.307757 0.024155
C -0.697617 1.360046 -0.072327
C -1.429318 -0.036770 0.414820
H -1.558175 -1.894719 -1.016679
H 0.989748 -1.922602 0.144560
H 2.232719 -0.129700 0.734068
H 1.287580 2.123835 -0.430284
H -0.772298 1.633268 -1.150872
H -1.398066 -0.428362 1.459506
12
Aligned to gpa_Type_2.xyz, RMSD 0.31956
C -0.835889 -1.044017 -0.630894
C 0.451501 -1.100480 -0.022255
C 1.215470 0.043539 0.245014
C 0.801509 1.330972 -0.109783
C -0.658171 1.203266 -0.105222
C -1.449552 0.018166 0.285759
H -1.263711 -1.927563 -1.138709
H 0.681205 -1.947368 0.592300
H 2.316593 -0.220873 0.592759
H 1.424542 2.205742 -0.180723
H -1.337993 1.643555 -0.844197
H -1.345504 -0.204940 1.315955
12
Aligned to gpa_Type_3.xyz, RMSD 0.21806
C -0.886496 -1.108449 -0.281117
C 0.505967 -1.101860 -0.259950
C 1.354115 0.111671 -0.149930
C 0.790882 1.244421 0.205950
C -0.687110 1.341328 0.061970
C -1.326434 0.090821 0.160393
H -1.404806 -2.123510 -0.071123
H 0.988290 -1.915345 0.016052
H 2.283404 0.112219 0.121496
H 1.342380 2.021400 0.576674
H -0.765539 1.151004 -1.150251
H -2.194654 0.176302 0.769836
12
Aligned to gpa_Type_3.xyz, RMSD 0.13809
C -0.881579 -1.081154 0.067134
C 0.513358 -1.131159 -0.104040
C 1.420627 0.077105 0.083631
C 0.745041 1.276734 0.341992
C -0.777399 1.428221 0.048318
C -1.509963 0.185021 0.240217
H -1.255307 -2.109173 -0.128619
H 0.956262 -2.028166 -0.351484
H 2.534589 -0.003763 -0.081452
H 1.340554 2.185644 0.545026
H -0.624338 1.048978 -1.308364
H -2.461845 0.151712 0.647642
12
Aligned to gpa_Type_3.xyz, RMSD 0.14007
C -0.763861 -1.091286 0.076656
C 0.548811 -1.005450 -0.221665
C 1.340561 0.143481 -0.040346
C 0.694566 1.347224 0.158866
C -0.754015 1.346179 -0.010671
C -1.464960 0.148813 0.169113
H -1.164974 -2.075181 0.019635
H 0.963480 -1.868994 -0.453402
H 2.311483 -0.201291 0.179199
H 1.354331 2.041653 0.520423
H -0.640842 0.987205 -0.986586
H -2.424580 0.227647 0.588780
12
Aligned to gpa_Type_3.xyz, RMSD 0.20182
C -0.775197 -1.177132 -0.091359
C 0.535101 -1.116847 -0.132279
C 1.377490 -0.034045 0.082467
C 0.779239 1.219317 0.338183
C -0.777942 1.331001 0.031721
C -1.427041 0.068555 0.170020
H -1.447770 -2.014690 -0.045255
H 0.932472 -2.165377 -0.371409
H 2.391697 0.260558 -0.058736
H 1.229748 2.295028 0.636207
H -0.480058 1.030654 -1.376213
H -2.337741 0.302981 0.816655
12
Aligned to gpa_Type_2.xyz, RMSD 0.23730
C -0.784895 -1.056380 -0.449652
C 0.511693 -1.055551 0.052096
C 1.267670 0.040410 0.417519
C 0.756504 1.245323 -0.010151
C -0.732663 1.250125 -0.111127
C -1.493229 -0.011509 0.395648
H -1.119230 -1.879062 -1.148722
H 0.730190 -2.150826 0.162554
H 2.308606 -0.127561 0.574485
H 1.304998 2.103187 -0.337706
H -1.137991 1.643188 -0.956508
H -1.611651 -0.001343 1.411565
12
Aligned to gpa_Type_2.xyz, RMSD 0.17492
C -0.864253 -1.005151 -0.479183
C 0.510423 -1.128290 -0.031339
C 1.350441 -0.004636 0.331199
C 0.824734 1.151430 0.030891
C -0.704473 1.236324 -0.152528
C -1.371196 0.068763 0.388679
H -1.216439 -1.854757 -0.943554
H 0.949844 -2.084654 0.175037
H 2.388928 -0.156061 0.578172
H 1.211334 2.109876 -0.255131
H -1.164211 1.766098 -1.065096
H -1.915130 -0.098943 1.422854
12
Aligned to gpa_Type_2.xyz, RMSD 0.17232
C -0.843197 -0.970792 -0.459087
C 0.468630 -1.126905 -0.037071
C 1.380404 0.043143 0.280445
C 0.769812 1.154434 0.059429
C -0.644533 1.274936 0.036058
C -1.360564 0.089615 0.409429
H -1.405486 -1.863815 -0.707409
H 0.926974 -2.163154 0.043091
H 2.550914 0.095469 0.380352
H 1.273353 2.146927 -0.039167
H -0.976273 1.415603 -1.102589
H -2.140032 -0.095461 1.136521
12
Aligned to gpa_Type_2.xyz, RMSD 0.14006
C -0.795591 -1.050254 -0.478164
C 0.527791 -1.101354 0.018710
C 1.376941 0.060643 0.275682
C 0.731273 1.175315 -0.047169
C -0.669326 1.293461 -0.024735
C -1.370710 0.097836 0.362903
H -1.385953 -1.918635 -0.762404
H 0.781118 -2.069480 0.027295
H 2.376498 0.086479 0.467526
H 1.216155 2.071057 -0.082051
H -0.819489 1.556711 -1.086353
H -1.968706 -0.201780 1.328761
12
Aligned to gpa_Type_2.xyz, RMSD 0.16439
C -0.922463 -1.020224 -0.461604
C 0.459488 -1.031632 -0.133295
C 1.380655 -0.045804 0.212567
C 0.720637 1.261841 0.198643
C -0.695863 1.223453 -0.115090
C -1.437518 0.048661 0.431554
H -1.194835 -1.979794 -0.921169
H 0.769976 -2.037859 0.174197
H 2.467593 -0.103116 0.461184
H 1.210151 2.227547 -0.139950
H -0.860245 1.523813 -1.158918
H -1.897575 -0.066887 1.451881
12
Aligned to gpa_Type_2.xyz, RMSD 0.19987
C -0.903804 -0.969653 -0.455833
C 0.538781 -1.006410 -0.047975
C 1.373969 -0.029193 0.332528
C 0.732520 1.296511 0.232664
C -0.635457 1.127427 -0.194941
C -1.462710 0.088175 0.349025
H -1.330083 -1.789816 -0.963126
H 0.868771 -1.966683 0.252734
H 2.386719 -0.321409 0.427721
H 1.064439 2.217744 -0.141294
H -1.017994 1.483188 -1.178814
H -1.615150 -0.129882 1.387310
12
Aligned to gpa_Type_3.xyz, RMSD 0.25029
C -0.963966 -1.086908 -0.000683
C 0.572047 -1.136289 -0.015320
C 1.422554 0.006208 0.077689
C 0.820517 1.269194 0.177745
C -0.692480 1.277942 0.139291
C -1.599420 0.137652 0.317998
H -1.407163 -2.026413 -0.399886
H 1.238443 -1.829958 -0.444276
H 2.528586 -0.076470 0.172562
H 1.144807 2.201258 0.133891
H -0.455013 0.967432 -0.990258
H -2.608914 0.296353 0.831247
12
Aligned to gpa_Type_3.xyz, RMSD 0.11709
C -0.894435 -1.058094 0.046686
C 0.585510 -1.071419 -0.075991
C 1.279510 0.120416 -0.012109
C 0.715324 1.365676 0.233625
C -0.796024 1.398604 -0.015493
C -1.418173 0.103835 0.347364
H -1.300683 -1.985811 -0.159886
H 1.009501 -2.077572 -0.394470
H 2.331894 -0.070795 0.009116
H 1.307070 2.168030 0.518650
H -0.419811 0.999887 -1.154810
H -2.399683 0.107242 0.657318
12
Aligned to gpa_Type_3.xyz, RMSD 0.13964
C -0.863916 -1.126061 -0.008365
C 0.662394 -1.087584 -0.096866
C 1.291537 0.173187 0.012032
C 0.714577 1.338890 0.182867
C -0.820407 1.348586 -0.028275
C -1.406320 0.024897 0.311086
H -1.441090 -2.093349 -0.184778
H 0.980641 -2.002909 -0.372116
H 2.341433 0.079009 0.058082
H 1.447687 2.122173 0.429848
H -0.436077 0.989629 -0.961890
H -2.470461 0.233532 0.658376
12
Aligned to gpa_Type_3.xyz, RMSD 0.15571
C -0.812748 -1.123297 -0.059346
C 0.562305 -1.007316 -0.271155
C 1.395749 0.168380 -0.113952
C 0.657157 1.348120 0.194310
C -0.827961 1.347378 0.049441
C -1.489707 0.093992 0.240347
H -1.224984 -2.145828 -0.086546
H 0.978748 -2.063231 -0.193681
H 2.365311 -0.149864 0.130079
H 1.280093 2.057803 0.524841
H -0.516649 1.205658 -1.177608
H -2.367315 0.268205 0.763271
12
Aligned to gpa_Type_3.xyz, RMSD 0.15857
C -0.850574 -1.084448 -0.130213
C 0.523464 -1.017908 -0.303726
C 1.342223 0.176544 -0.081885
C 0.711580 1.317741 0.174952
C -0.784225 1.374729 0.049493
C -1.488604 0.106705 0.214749
H -1.159328 -2.106800 -0.010664
H 1.083785 -1.996757 -0.241764
H 2.272535 -0.238957 0.192855
H 1.317333 2.093421 0.532599
H -0.623723 1.120197 -1.146001
H -2.344465 0.255533 0.749605
12
Aligned to gpa_Type_3.xyz, RMSD 0.18445
C -0.952605 -1.204900 -0.109883
C 0.510509 -1.037285 -0.293955
C 1.452476 0.115238 -0.067616
C 0.727148 1.298066 0.264449
C -0.687171 1.456160 0.013478
C -1.447656 0.174001 0.227181
H -1.502901 -2.148735 -0.163653
H 1.252093 -1.951912 0.008073
H 2.443339 -0.140577 -0.083128
H 1.333563 2.177009 0.484049
H -0.581566 1.181207 -1.006839
H -2.547230 0.081729 0.727846
12
Aligned to gpa_Type_2.xyz, RMSD 0.31316
C -0.839049 -0.998489 -0.146001
C 0.729834 -1.081273 -0.241663
C 1.397332 0.062866 0.083097
C 0.770140 1.259254 0.209044
C -0.696199 1.044886 -0.180788
C -1.576251 0.084795 0.462517
H -1.486191 -1.597139 -0.662440
H 0.971469 -2.081781 -0.046413
H 2.477238 -0.064287 0.315721
H 1.188633 2.251927 0.249373
H -0.734179 1.144406 -1.312750
H -2.202776 -0.025166 1.270302
12
Aligned to gpa_Type_2.xyz, RMSD 0.23791
C -0.875681 -1.080781 -0.325089
C 0.490710 -0.976525 -0.112433
C 1.246419 0.119421 0.168888
C 0.652604 1.339781 0.139475
C -0.630405 1.298501 -0.045318
C -1.447004 -0.027578 0.429268
H -1.408848 -1.980168 -0.692046
H 1.009069 -1.925622 -0.261834
H 2.292921 -0.147296 0.519224
H 1.260475 2.167331 -0.031264
H -0.524223 1.217140 -1.201984
H -2.066036 -0.004205 1.413115
12
Aligned to gpa_Type_2.xyz, RMSD 0.27736
C -0.895740 -1.041360 -0.281464
C 0.536584 -1.055004 -0.028716
C 1.220383 -0.011360 0.244746
C 0.663487 1.265540 0.103622
C -0.735109 1.073976 -0.188935
C -1.518179 0.033294 0.446514
H -1.058464 -1.726035 -1.205774
H 0.794905 -2.065270 0.081347
H 2.176718 -0.072057 0.606317
H 1.221747 2.048835 -0.241480
H -0.863573 1.507412 -1.128912
H -1.542759 0.042028 1.592736
12
Aligned to gpa_Type_2.xyz, RMSD 0.22757
C -0.906728 -0.983630 -0.407093
C 0.491285 -1.147807 -0.046063
C 1.341324 0.017194 0.363140
C 0.870687 1.363178 0.035970
C -0.665238 1.118514 -0.027408
C -1.364043 0.073801 0.416629
H -1.316818 -1.678163 -0.964847
H 1.026852 -2.116534 0.046022
H 2.308575 -0.082049 0.595087
H 1.354596 2.226831 -0.410616
H -1.021136 1.370376 -0.928668
H -2.119355 -0.161712 1.327847
12
Aligned to gpa_Type_3.xyz, RMSD 0.10303
C -0.758291 -0.993335 -0.066266
C 0.558890 -0.997139 -0.170915
C 1.404838 0.056712 -0.108483
C 0.733965 1.273835 0.283642
C -0.686069 1.360749 0.099434
C -1.466004 0.169819 0.255803
H -1.412692 -1.902880 0.004735
H 1.033140 -2.118222 -0.286672
H 2.407743 0.049202 0.026641
H 1.356430 2.103172 0.473374
H -0.577541 1.033529 -1.077701
H -2.594410 -0.035440 0.566409
12
Aligned to gpa_Type_3.xyz, RMSD 0.13767
C -0.806151 -0.995936 -0.038888
C 0.570313 -1.033893 -0.070732
C 1.317594 0.114930 -0.072617
C 0.700996 1.299459 0.219724
C -0.717124 1.320489 0.088046
C -1.450014 0.122340 0.272214
H -1.200274 -1.950447 -0.078273
H 0.772276 -2.061951 -0.302353
H 2.414656 0.002603 0.030765
H 1.394588 2.147650 0.574320
H -0.592290 1.024585 -1.226476
H -2.404570 0.010172 0.604270
12
Aligned to gpa_Type_3.xyz, RMSD 0.11409
C -0.859156 -1.046059 -0.061180
C 0.597637 -1.060619 -0.042186
C 1.291128 0.145371 -0.037932
C 0.785999 1.306504 0.161215
C -0.714188 1.321798 0.030399
C -1.434150 0.081661 0.213287
H -1.298984 -2.045696 -0.057951
H 1.049435 -2.127726 -0.351643
H 2.302538 0.083883 -0.042506
H 1.286134 2.053361 0.616470
H -0.502789 1.023722 -1.109709
H -2.503604 0.263801 0.681735
12
Aligned to gpa_Type_3.xyz, RMSD 0.32269
C -0.930344 -1.045424 -0.271345
C 0.406222 -1.083227 -0.130569
C 1.342010 0.115789 0.084659
C 0.725450 1.287585 0.195034
C -0.691980 1.268308 0.187964
C -1.495727 0.060837 0.439173
H -1.204401 -1.994769 -0.536386
H 0.894487 -1.969080 0.056262
H 2.598690 -0.079744 0.109511
H 1.350319 2.213166 0.044922
H -0.420720 1.274512 -1.092922
H -2.574004 -0.047954 0.913699
12
Aligned to gpa_Type_2.xyz, RMSD 0.18512
C -0.809978 -1.020933 -0.607884
C 0.519542 -1.144477 -0.216463
C 1.311873 -0.031765 0.397416
C 0.771966 1.263003 0.032237
C -0.615615 1.309727 -0.026467
C -1.382417 0.071845 0.391333
H -1.417730 -1.947988 -0.850955
H 0.895679 -2.131332 0.040681
H 2.277229 0.058880 0.794518
H 1.334178 2.136440 -0.333449
H -1.127207 1.492107 -0.993142
H -1.757518 -0.055509 1.372176
12
Aligned to gpa_Type_1.xyz, RMSD 0.25658
C -0.743259 -1.013713 -0.122588
C 0.641062 -1.212672 0.311653
C 1.550530 0.026479 0.082166
C 0.763476 1.152578 -0.190547
C -0.805599 0.910588 0.052995
C -1.653209 -0.139105 0.664969
H -1.097986 -1.345412 -1.089419
H 1.207002 -2.206416 0.168266
H 2.641456 -0.154130 0.227832
H 1.405087 2.148365 -0.270667
H -1.264359 1.566770 -0.537654
H -2.644203 0.266667 0.702992
12
Aligned to gpa_Type_3.xyz, RMSD 0.17584
C -0.862852 -1.059902 -0.026535
C 0.613160 -1.032527 -0.284666
C 1.416698 0.118751 0.033703
C 0.691263 1.236337 0.239986
C -0.745971 1.362281 -0.075489
C -1.505618 0.175779 0.231611
H -1.222141 -2.158608 0.190414
H 0.757718 -2.025608 -0.589579
H 2.503097 0.011639 0.183000
H 1.255871 2.202900 0.652553
H -0.548130 0.925400 -1.204015
H -2.353096 0.243559 0.649019
12
Aligned to gpa_Type_3.xyz, RMSD 0.15288
C -0.834611 -1.080078 -0.005380
C 0.531699 -1.017639 -0.374536
C 1.455345 0.070760 -0.007988
C 0.802009 1.175771 0.263225
C -0.696719 1.435713 -0.084005
C -1.505178 0.177825 0.230610
H -1.193284 -2.010374 -0.020407
H 1.032854 -2.018158 -0.404676
H 2.492339 0.004624 0.205349
H 1.164385 2.053840 0.469349
H -0.656800 0.904883 -1.007138
H -2.592040 0.302834 0.735599
12
Aligned to gpa_Type_3.xyz, RMSD 0.14823
C -0.887758 -1.075655 -0.011157
C 0.490745 -1.033683 -0.234422
C 1.335888 0.123610 0.068083
C 0.684428 1.244752 0.273299
C -0.768484 1.500219 -0.160082
C -1.436476 0.169006 0.236117
H -1.193203 -2.080872 0.039708
H 0.857053 -2.067198 -0.443633
H 2.381432 0.017141 0.111026
H 1.453885 2.178992 0.606346
H -0.596924 0.982227 -1.154311
H -2.320586 0.041463 0.669027
12
Aligned to gpa_Type_3.xyz, RMSD 0.21423
C -0.791230 -1.074010 -0.064892
C 0.706400 -1.130555 -0.064384
C 1.401014 0.015271 0.027686
C 0.711395 1.266625 0.177938
C -0.742398 1.298082 0.158359
C -1.509269 0.099076 0.281963
H -1.584873 -1.841552 -0.229859
H 1.197711 -2.093519 -0.415070
H 2.319062 0.011189 0.186439
H 1.180730 2.203615 0.384439
H -0.529610 1.056665 -1.326433
H -2.358934 0.189114 0.883817
12
Aligned to gpa_Type_1.xyz, RMSD 0.25694
C -0.651835 -1.115673 -0.016827
C 0.839103 -1.269418 0.109715
C 1.428331 -0.020602 0.095672
C 0.573223 1.085038 -0.037774
C -0.726035 0.891160 -0.364684
C -1.312719 0.028184 0.582675
H -1.220492 -1.191912 -1.032652
H 1.008367 -2.323799 0.021083
H 2.395106 0.142996 0.509083
H 1.183212 1.919511 -0.115763
H -1.301399 1.520824 -0.695045
H -2.214863 0.333692 0.944515
12
Aligned to gpa_Type_3.xyz, RMSD 0.17640
C -0.860088 -1.094423 -0.084998
C 0.562770 -1.142448 -0.022995
C 1.288252 0.113398 0.107300
C 0.745396 1.287413 0.249634
C -0.731551 1.341031 0.133659
C -1.422203 0.118444 0.349322
H -1.393968 -1.903942 -0.220411
H 1.155755 -1.906238 -0.472758
H 2.338909 -0.081895 0.141593
H 1.295841 2.159670 0.198826
H -0.557708 0.931926 -1.015126
H -2.421406 0.177066 0.635954
12
Aligned to gpa_Type_3.xyz, RMSD 0.24313
C -0.913384 -1.068054 -0.127734
C 0.570876 -1.126006 -0.047917
C 1.279413 0.051538 0.170607
C 0.722861 1.313728 0.201577
C -0.709265 1.289159 0.071297
C -1.428925 0.121517 0.365197
H -1.632418 -2.004393 -0.316656
H 1.215545 -1.943626 -0.439780
H 2.353986 0.133724 0.229283
H 1.488678 2.189832 0.125287
H -0.460150 0.999786 -1.054199
H -2.487217 0.042796 0.823038
12
Aligned to gpa_Type_2.xyz, RMSD 0.28116
C -0.949669 -1.002118 -0.309447
C 0.636627 -1.216053 -0.073250
C 1.482760 0.022058 0.245061
C 0.782649 1.200199 0.191982
C -0.738647 1.128776 -0.101084
C -1.533706 0.093855 0.610234
H -1.337665 -1.819401 -0.964602
H 1.243486 -2.086699 -0.128874
H 2.501007 -0.109926 0.583393
H 1.279841 2.105317 -0.239902
H -1.035975 1.504185 -1.171465
H -2.330708 0.179806 1.357954
12
Aligned to gpa_Type_2.xyz, RMSD 0.23291
C -0.862674 -1.057027 -0.265496
C 0.520311 -1.009885 -0.159134
C 1.296443 0.002059 0.094913
C 0.720377 1.299521 0.120811
C -0.809302 1.306543 -0.076188
C -1.291076 0.082986 0.358968
H -1.328331 -1.983904 -0.486498
H 0.912767 -1.946230 -0.092184
H 2.327852 -0.102123 0.281958
H 1.245703 2.103954 0.331601
H -0.707522 1.287621 -1.223249
H -2.024549 0.016483 1.114499
12
Aligned to gpa_Type_1.xyz, RMSD 0.22645
C -0.757818 -1.071276 -0.202690
C 0.763230 -1.276186 0.001401
C 1.468168 0.035439 0.267262
C 0.694215 1.153371 -0.076108
C -0.711297 0.906602 -0.364241
C -1.303240 0.004010 0.723784
H -1.499885 -1.612450 -0.738169
H 1.186595 -2.145143 -0.194595
H 2.376161 0.030253 0.731925
H 1.334840 2.003166 -0.275308
H -1.246636 1.830754 -0.717596
H -2.304335 0.141461 0.844334
12
Aligned to gpa_Type_2.xyz, RMSD 0.12894
C -0.825573 -0.979335 -0.589458
C 0.558570 -1.146200 -0.047623
C 1.341607 -0.084963 0.439707
C 0.792989 1.215690 0.133354
C -0.734723 1.370501 -0.128644
C -1.336461 0.125739 0.382526
H -1.384716 -1.955816 -0.638096
H 0.906947 -2.142380 -0.061430
H 2.354122 0.051280 0.498868
H 1.354120 2.145716 -0.098203
H -1.124752 1.500750 -1.138848
H -1.902131 -0.100984 1.247846
12
Aligned to gpa_Type_2.xyz, RMSD 0.16406
C -0.839381 -0.965200 -0.656860
C 0.567801 -1.178280 -0.155765
C 1.379791 -0.021759 0.363654
C 0.764869 1.224781 0.112873
C -0.786753 1.314876 -0.135204
C -1.366999 0.058079 0.335619
H -1.426504 -1.805967 -0.562481
H 0.908193 -2.200599 0.175887
H 2.512454 0.096224 0.445791
H 1.370139 2.070967 -0.036148
H -1.131359 1.595208 -1.107017
H -1.952252 -0.188331 1.219652
12
Aligned to gpa_Type_2.xyz, RMSD 0.28099
C -0.844974 -1.131249 -0.310157
C 0.609188 -1.280761 0.014476
C 1.250728 -0.076512 0.154794
C 0.727890 1.183305 0.069126
C -0.846113 1.297752 -0.011725
C -1.509314 0.020424 0.484823
H -1.329126 -1.619537 -1.073136
H 1.184369 -2.182676 0.411167
H 2.381912 -0.010702 0.160705
H 1.462730 2.265073 -0.060493
H -0.947048 1.594793 -1.105625
H -2.140241 -0.059910 1.266047
12
Aligned to gpa_Type_2.xyz, RMSD 0.24931
C -0.818438 -0.944692 -0.246651
C 0.581829 -1.011703 -0.166707
C 1.451739 -0.003463 0.179976
C 0.741520 1.197564 0.147822
C -0.713443 1.092900 -0.231211
C -1.475766 0.032488 0.446964
H -1.250175 -1.912799 -0.896909
H 0.971518 -1.982636 -0.018331
H 2.419015 -0.161060 0.364571
H 1.226585 2.100560 0.180685
H -0.983908 1.336068 -1.230668
H -2.150476 0.256770 1.470461
12
Aligned to gpa_Type_1.xyz, RMSD 0.24596
C -0.795209 -0.993054 -0.429577
C 0.658636 -1.176971 -0.075358
C 1.408402 -0.144527 0.397778
C 0.783326 1.167811 0.106195
C -0.641755 0.993772 -0.140331
C -1.319851 0.027788 0.623184
H -1.478846 -1.788126 -0.773884
H 1.114874 -2.210158 -0.097687
H 2.476587 0.126626 0.351460
H 1.176048 2.271892 0.015864
H -1.069224 1.345813 -1.032152
H -2.312988 0.379134 1.054509
12
Aligned to gpa_Type_1.xyz, RMSD 0.21784
C -0.794637 -0.974020 -0.322977
C 0.670886 -1.180423 -0.008101
C 1.432706 -0.078646 0.401031
C 0.777877 1.143839 0.041295
C -0.738954 1.010524 -0.121784
C -1.315390 0.037871 0.621260
H -1.329706 -1.715820 -0.932483
H 1.143010 -2.083506 -0.107215
H 2.533699 -0.056727 0.409743
H 1.159375 2.101670 -0.043875
H -1.247267 1.373228 -1.027402
H -2.291600 0.422009 1.090507
12
Aligned to gpa_Type_2.xyz, RMSD 0.20273
C -0.898725 -1.091077 -0.533110
C 0.609714 -1.141743 -0.093651
C 1.242415 0.072096 0.280870
C 0.687654 1.279437 0.048994
C -0.677090 1.297629 -0.277886
C -1.289097 0.048371 0.336832
H -1.588558 -2.139386 -0.908218
H 0.969239 -2.315519 0.162703
H 2.303563 -0.022669 0.671255
H 1.288741 2.217756 0.011895
H -1.158442 1.748500 -1.064569
H -1.489415 0.046605 1.364884
12
Aligned to gpa_Type_2.xyz, RMSD 0.24099
C -0.904259 -1.074485 -0.685331
C 0.491251 -1.153023 -0.167063
C 1.247443 0.002187 0.350242
C 0.708147 1.369331 0.087252
C -0.683405 1.230085 -0.181115
C -1.386070 -0.054214 0.262328
H -1.527453 -2.031571 -0.758123
H 0.784652 -2.191892 0.437886
H 2.299373 0.047127 0.533167
H 1.395391 2.297487 -0.179856
H -0.971733 1.909696 -1.011365
H -1.453338 -0.350728 1.311980
12
Aligned to gpa_Type_2.xyz, RMSD 0.18092
C -0.871439 -1.048669 -0.603260
C 0.431957 -1.075297 -0.106796
C 1.316406 0.037089 0.308709
C 0.782837 1.223929 0.067927
C -0.635360 1.087671 -0.133281
C -1.375740 -0.022674 0.241300
H -1.516536 -1.905083 -0.692710
H 0.939408 -2.086768 0.215323
H 2.312639 -0.010319 0.659812
H 1.367183 2.276515 -0.314396
H -1.016305 1.789074 -0.874829
H -1.735049 -0.265469 1.232202
12
Aligned to gpa_Type_2.xyz, RMSD 0.26724
C -0.830913 -1.112230 -0.728018
C 0.429697 -1.094899 -0.075438
C 1.173384 0.109162 0.402779
C 0.755670 1.347657 0.021222
C -0.628944 1.347367 -0.109152
C -1.228474 0.072099 0.129735
H -1.424162 -2.238153 -0.592313
H 0.965431 -2.206008 0.182367
H 2.194257 -0.225237 0.693114
H 1.360899 2.223112 -0.310899
H -1.213743 1.936096 -0.743112
H -1.553100 -0.158968 1.129716
12
Aligned to gpa_Type_1.xyz, RMSD 0.18650
C -0.802068 -0.987572 -0.159505
C 0.737946 -1.263391 0.011921
C 1.399300 -0.104737 0.243554
C 0.742790 1.051483 0.012620
C -0.704903 1.014022 -0.268192
C -1.484567 0.070732 0.547710
H -1.206851 -1.429688 -0.889589
H 1.241855 -2.192602 0.189531
H 2.517293 0.027298 0.125234
H 1.216329 2.000005 0.098875
H -1.145413 1.712975 -1.006664
H -2.511711 0.101474 1.094504
12
Aligned to gpa_Type_2.xyz, RMSD 0.32762
C -0.918938 -1.130777 -0.607043
C 0.563548 -1.089606 -0.132301
C 1.194810 0.055371 0.284444
C 0.608028 1.253941 -0.014473
C -0.710946 1.228863 -0.294945
C -1.260389 -0.049668 0.300140
H -1.487300 -1.939612 -1.039173
H 0.833724 -2.085066 0.529914
H 2.167801 -0.155648 0.684217
H 1.271211 2.140352 -0.082469
H -1.185963 1.907700 -1.013352
H -1.075586 -0.135852 1.385041
12
Aligned to gpa_Type_2.xyz, RMSD 0.33226
C -0.963371 -1.018380 -0.624879
C 0.470749 -1.128923 -0.134127
C 1.292644 -0.008195 0.214392
C 0.736206 1.239704 -0.014191
C -0.635662 1.164000 -0.236134
C -1.320372 -0.014406 0.288075
H -1.439809 -1.876367 -0.979921
H 0.725473 -1.869083 0.472651
H 2.176847 -0.136586 0.822093
H 1.169191 2.169221 -0.183023
H -1.147871 1.741059 -0.964734
H -1.064024 -0.262046 1.339800
12
Aligned to gpa_Type_2.xyz, RMSD 0.27729
C -0.887200 -0.988491 -0.611357
C 0.439900 -1.116947 -0.054958
C 1.341513 -0.011393 0.229753
C 0.773855 1.303890 0.001750
C -0.612468 1.122829 -0.178608
C -1.414593 0.058480 0.289559
H -1.410240 -1.903834 -0.949587
H 0.741440 -2.179588 0.365975
H 2.269299 -0.061490 0.797981
H 1.251960 2.314690 -0.298013
H -1.177893 1.725728 -0.868000
H -1.315571 -0.263877 1.275507
12
Aligned to gpa_Type_2.xyz, RMSD 0.24240
C -0.965886 -1.058591 -0.612596
C 0.477559 -1.002776 -0.147592
C 1.268724 0.019031 0.227732
C 0.776759 1.323315 0.301117
C -0.667948 1.248275 -0.023651
C -1.444053 0.081554 0.257307
H -1.294368 -2.070314 -0.256440
H 1.036204 -1.992997 -0.156613
H 2.282209 -0.072727 0.306415
H 1.330228 2.194367 0.002415
H -0.643532 1.379320 -1.050450
H -2.155894 -0.048458 1.152358
12
Aligned to gpa_Type_2.xyz, RMSD 0.23546
C -0.802858 -1.080814 -0.553172
C 0.460725 -1.070044 0.064331
C 1.386248 0.113887 0.381837
C 0.773188 1.330960 0.016310
C -0.620929 1.124913 -0.198952
C -1.516452 -0.085398 0.265309
H -1.402732 -1.913688 -0.889988
H 0.945096 -1.946696 0.425194
H 2.475850 -0.180516 0.242328
H 1.450074 2.080837 -0.140493
H -1.171445 1.829150 -0.860695
H -1.976764 -0.202592 1.247992
12
Aligned to gpa_Type_1.xyz, RMSD 0.22015
C -0.666282 -1.012993 -0.119634
C 0.719276 -1.229025 0.106747
C 1.439459 -0.079652 -0.056934
C 0.703643 1.061868 -0.150858
C -0.781111 1.141436 -0.283880
C -1.345505 0.058295 0.702554
H -1.126336 -1.516681 -1.109341
H 0.999000 -2.258334 0.366312
H 2.560515 -0.031329 0.324208
H 1.248744 1.994261 0.070246
H -1.373101 1.816225 -0.784050
H -2.378305 0.055928 0.934628
12
Aligned to gpa_Type_1.xyz, RMSD 0.22031
C -0.786788 -0.982525 -0.139047
C 0.762226 -1.158059 -0.056765
C 1.482120 -0.014079 0.263921
C 0.887045 1.186723 -0.215082
C -0.667579 1.033865 -0.332338
C -1.337541 0.109138 0.722142
H -1.385194 -1.760859 -0.808103
H 1.143108 -2.240627 -0.274529
H 2.382972 -0.079838 0.759466
H 1.210599 2.136886 -0.082324
H -1.256775 1.593282 -0.875082
H -2.434193 0.176093 1.037741
12
Aligned to gpa_Type_2.xyz, RMSD 0.26580
C -0.844527 -0.969783 -0.303178
C 0.502647 -1.200877 0.086892
C 1.410285 -0.078705 0.315174
C 0.779205 1.084320 -0.043385
C -0.604974 1.031389 -0.194532
C -1.438145 0.058252 0.552007
H -1.144985 -1.699299 -0.960052
H 0.877253 -2.133328 -0.110208
H 2.479491 0.142735 0.579386
H 1.249942 2.094367 -0.218457
H -1.092424 1.675372 -1.073234
H -2.173767 -0.004442 1.369588
12
Aligned to gpa_Type_3.xyz, RMSD 0.12377
C -0.900648 -1.063409 0.023315
C 0.538352 -1.143462 -0.223152
C 1.373078 0.064611 -0.075385
C 0.733294 1.284916 0.333297
C -0.793519 1.496760 0.062376
C -1.496856 0.152326 0.217856
H -1.483657 -2.070748 0.002118
H 1.153276 -2.080867 -0.224649
H 2.509099 0.047821 -0.090523
H 1.354373 2.126378 0.481077
H -0.473082 1.179199 -1.051025
H -2.513710 0.006475 0.544693
12
Aligned to gpa_Type_3.xyz, RMSD 0.15554
C -0.803412 -1.086844 -0.087416
C 0.593454 -1.083096 -0.203074
C 1.381732 0.144213 -0.019380
C 0.733139 1.289036 0.250855
C -0.761886 1.441963 0.003637
C -1.449753 0.078392 0.394606
H -1.200023 -2.039721 -0.098150
H 0.784300 -2.109953 -0.155233
H 2.378391 -0.005185 -0.156743
H 1.287755 2.178884 0.497273
H -0.412704 1.084445 -0.921038
H -2.530991 0.107868 0.494662
12
Aligned to gpa_Type_3.xyz, RMSD 0.13435
C -0.872387 -1.165954 -0.066210
C 0.643121 -1.047533 -0.297749
C 1.397899 0.160300 -0.093913
C 0.698172 1.250077 0.169841
C -0.760967 1.297458 0.027616
C -1.442470 0.117026 0.156113
H -1.416588 -2.067639 0.009795
H 0.937709 -2.053089 -0.263296
H 2.357838 0.071398 0.184188
H 1.317095 2.085700 0.463204
H -0.473053 1.207495 -1.021370
H -2.386370 0.144763 0.731781
12
Aligned to gpa_Type_3.xyz, RMSD 0.21807
C -0.800119 -1.069463 0.066983
C 0.636753 -1.035266 -0.025187
C 1.343446 0.148519 0.074702
C 0.816887 1.349340 0.144775
C -0.706155 1.440938 -0.019640
C -1.481879 0.126577 0.354490
H -1.372082 -1.911217 -0.319403
H 0.941248 -1.870781 -0.478649
H 2.287178 -0.019470 0.235104
H 1.513692 2.060572 0.279717
H -0.669486 0.814009 -0.965900
H -2.509485 -0.033757 0.653010
12
Aligned to gpa_Type_1.xyz, RMSD 0.26895
C -0.830777 -1.126496 -0.267585
C 0.696512 -1.340120 0.011128
C 1.348393 -0.032467 0.112434
C 0.772994 1.111896 -0.148135
C -0.661207 1.079957 -0.236739
C -1.411380 0.040585 0.521164
H -1.225921 -1.412428 -1.128080
H 1.103792 -2.225349 0.466164
H 2.411138 0.145662 0.289487
H 1.360006 1.995190 -0.001381
H -1.252372 1.773074 -0.775687
H -2.311179 -0.009504 1.157229
12
Aligned to gpa_Type_2.xyz, RMSD 0.25200
C -0.824003 -0.960399 -0.299292
C 0.581006 -1.167123 0.034142
C 1.343218 -0.007541 0.129385
C 0.781252 1.311011 -0.000031
C -0.739013 1.153282 -0.144969
C -1.467438 0.005785 0.520745
H -1.286954 -1.777199 -0.762919
H 1.062243 -2.074279 -0.045169
H 2.408247 -0.122946 0.254338
H 1.333919 2.213067 0.246419
H -0.934572 1.284801 -1.155300
H -2.257903 0.141541 1.222652
12
Aligned to gpa_Type_1.xyz, RMSD 0.10921
C -0.835123 -0.991997 -0.201974
C 0.767358 -1.203164 0.044637
C 1.598363 0.062084 0.144755
C 0.809011 1.104332 0.029578
C -0.685752 0.996761 -0.103796
C -1.415641 0.022722 0.690279
H -1.432718 -1.603438 -0.760307
H 0.966484 -2.260906 -0.004137
H 2.614585 0.081306 0.384071
H 1.199320 2.094617 -0.116547
H -1.153976 1.613356 -0.813576
H -2.431912 0.084327 0.707015
12
Aligned to gpa_Type_1.xyz, RMSD 0.11829
C -0.866995 -0.939724 -0.158201
C 0.722223 -1.244200 0.082333
C 1.517346 -0.034099 0.206203
C 0.893866 1.144809 0.122023
C -0.702690 1.005622 -0.131544
C -1.445250 0.053179 0.689608
H -1.368845 -1.751024 -0.760706
H 1.084462 -2.232933 -0.039662
H 2.631371 0.032217 0.256563
H 1.234345 2.173723 -0.123135
H -1.163745 1.709897 -0.846146
H -2.536089 0.082532 0.702662
12
Aligned to gpa_Type_1.xyz, RMSD 0.29804
C -0.801935 -1.178623 -0.273949
C 0.524423 -1.174899 0.162737
C 1.421541 -0.057688 0.020950
C 0.774648 1.120107 -0.182419
C -0.742242 1.171505 -0.107569
C -1.476570 -0.004480 0.501910
H -0.995411 -1.554863 -1.236434
H 1.061008 -2.022792 0.359764
H 2.482439 -0.117762 0.326518
H 1.274564 2.017821 0.024326
H -1.266054 1.637488 -0.865478
H -2.256411 0.164186 1.269642
12
Aligned to gpa_Type_1.xyz, RMSD 0.19864
C -0.768626 -0.903894 -0.313076
C 0.657609 -1.230531 0.035738
C 1.432474 0.006310 0.341925
C 0.712070 1.168770 0.020445
C -0.653280 1.044995 -0.182549
C -1.425907 0.121069 0.458491
H -1.379915 -1.653988 -0.964199
H 1.106401 -2.209980 0.070933
H 2.560217 -0.066271 0.369388
H 1.277393 2.109735 -0.046078
H -1.333448 1.477490 -0.915640
H -2.184989 0.136296 1.124621
12
Aligned to gpa_Type_1.xyz, RMSD 0.23397
C -0.719524 -0.845444 -0.248707
C 0.712071 -1.138683 0.136879
C 1.380798 -0.055624 0.269806
C 0.838874 1.045682 -0.188290
C -0.642166 1.000813 -0.362350
C -1.470908 0.175374 0.409843
H -1.243616 -1.547625 -0.950344
H 1.231356 -2.117132 0.116152
H 2.359093 -0.283992 0.415306
H 1.157613 2.097659 -0.044083
H -1.380172 1.636825 -0.685791
H -2.223421 0.032148 1.131579
12
Aligned to gpa_Type_3.xyz, RMSD 0.25691
C -0.785439 -1.092995 -0.092244
C 0.549391 -1.096819 -0.227022
C 1.308431 0.081057 0.070474
C 0.743277 1.253643 0.164142
C -0.785838 1.453990 0.070505
C -1.588690 0.151610 0.269142
H -1.271006 -2.082441 -0.306489
H 1.094963 -2.088787 -0.350025
H 2.373864 0.205901 0.419998
H 1.526634 1.930654 0.202344
H -0.658133 1.062901 -1.173856
H -2.507455 0.221286 0.953032
12
Aligned to gpa_Type_2.xyz, RMSD 0.24495
C -0.965336 -1.262128 -0.223889
C 0.422980 -1.019296 0.057764
C 1.339807 0.009905 0.381136
C 0.721871 1.254586 0.020088
C -0.762983 1.227075 0.010714
C -1.404731 -0.013636 0.353702
H -1.173151 -1.734916 -1.133183
H 0.948351 -1.951358 -0.064943
H 2.337853 -0.195367 0.646130
H 1.228771 2.106204 -0.373653
H -0.943244 1.514554 -1.026579
H -1.750186 0.064376 1.352712
12
Aligned to gpa_Type_2.xyz, RMSD 0.32217
C -0.920721 -1.082121 -0.258902
C 0.562859 -1.147376 0.169051
C 1.297952 0.022407 0.418047
C 0.805922 1.358319 0.189602
C -0.766428 1.445103 0.035340
C -1.480079 0.067896 0.452604
H -1.273148 -1.534404 -1.206428
H 1.180857 -2.055000 0.152580
H 2.290980 -0.128713 0.412970
H 1.325835 1.843394 -0.568030
H -1.036612 1.500040 -1.067940
H -1.987417 -0.289544 1.271107
12
Aligned to gpa_Type_2.xyz, RMSD 0.33999
C -0.873592 -1.248516 -0.270629
C 0.501812 -1.195729 0.128043
C 1.388884 0.062902 0.130340
C 0.787003 1.297507 0.050578
C -0.736633 1.268785 0.138161
C -1.481788 -0.001396 0.481954
H -1.517812 -1.779200 -0.907243
H 1.218439 -2.109782 0.027922
H 2.492908 -0.160285 0.224171
H 1.199456 2.485595 -0.163978
H -0.537127 1.360338 -0.950898
H -2.441549 0.019780 1.111580
12
Aligned to gpa_Type_3.xyz, RMSD 0.32282
C -0.836107 -1.106178 -0.099153
C 0.507260 -1.153925 -0.059118
C 1.218271 0.023741 0.320885
C 0.629819 1.265304 0.401587
C -0.764050 1.420357 0.020429
C -1.357741 0.199035 0.255225
H -1.467018 -1.942222 -0.296446
H 1.070245 -1.963000 -0.456657
H 2.290682 0.186754 0.211577
H 1.238230 1.891473 -0.107123
H -0.333674 1.185130 -1.085373
H -2.195920 -0.006468 0.894169
12
Aligned to gpa_Type_3.xyz, RMSD 0.34729
C -0.817130 -0.866352 -0.186919
C 0.673853 -1.150202 0.043781
C 1.389497 0.058157 0.090149
C 0.740780 1.245969 0.033006
C -0.782504 1.270012 -0.294047
C -1.506151 0.129092 0.567448
H -1.309598 -1.710702 -0.519716
H 1.082785 -2.112829 0.011993
H 2.399974 -0.163002 -0.074216
H 1.206973 2.085752 0.604901
H -0.626092 1.325915 -1.326961
H -2.452386 -0.111808 1.050583
12
Aligned to gpa_Type_2.xyz, RMSD 0.20827
C -0.845333 -1.113598 -0.439198
C 0.431854 -1.030409 0.252659
C 1.371458 0.155213 0.340847
C 0.757348 1.383594 0.209311
C -0.571566 1.182747 -0.062469
C -1.424648 -0.098210 0.296689
H -1.574254 -1.897387 -0.693542
H 0.954635 -2.001873 0.000243
H 2.343078 -0.125063 0.143240
H 1.270123 2.271830 -0.070916
H -0.716424 1.505850 -1.116084
H -1.996272 -0.232697 1.139221
12
Aligned to gpa_Type_2.xyz, RMSD 0.24244
C -0.954016 -0.966134 -0.419353
C 0.582362 -1.061539 -0.135263
C 1.481816 -0.058828 0.175648
C 0.777792 1.089235 -0.029239
C -0.760918 1.269262 -0.229394
C -1.316621 0.149958 0.521564
H -1.461867 -1.879727 -0.843048
H 1.148506 -1.979472 -0.048950
H 2.427291 -0.066393 0.701211
H 1.276024 2.018246 0.199215
H -1.241295 1.379091 -1.300214
H -1.959072 0.106301 1.407823
12
Aligned to gpa_Type_2.xyz, RMSD 0.24768
C -0.809341 -1.097426 -0.321135
C 0.705323 -1.242301 -0.096522
C 1.403407 -0.025650 0.090522
C 0.471277 1.159353 0.083266
C -0.803279 1.144411 -0.545153
C -1.315981 0.124463 0.368145
H -1.500365 -1.784424 -0.711356
H 1.122200 -2.178649 0.143487
H 2.361799 -0.093006 0.554560
H 1.206201 2.073027 0.131886
H -1.014478 1.926712 -1.019045
H -1.826762 -0.006512 1.321344
12
Aligned to gpa_Type_2.xyz, RMSD 0.25451
C -0.817024 -1.087228 -0.405659
C 0.488148 -1.232567 0.117296
C 1.474469 0.076788 0.049989
C 0.739404 1.181425 -0.121748
C -0.664638 1.099642 -0.278456
C -1.257396 -0.038333 0.360972
H -1.507635 -1.957584 -1.041988
H 0.820823 -2.177192 0.328604
H 2.414338 0.023914 0.594291
H 1.181075 2.232543 -0.007314
H -1.109920 1.925997 -0.889164
H -1.761643 -0.047407 1.293180
12
Aligned to gpa_Type_1.xyz, RMSD 0.34272
C -0.744589 -1.091957 -0.148258
C 0.639315 -1.343229 0.123950
C 1.317498 -0.121917 0.416517
C 0.733028 1.138774 0.143027
C -0.709811 1.059723 -0.143324
C -1.460294 0.082918 0.712947
H -1.110358 -1.226428 -1.201380
H 1.167651 -2.186922 -0.201824
H 2.342997 0.134032 0.500854
H 1.138111 1.961299 -0.445558
H -0.993380 1.433361 -1.100917
H -2.320167 0.160346 1.343964
12
Aligned to gpa_Type_3.xyz, RMSD 0.25902
C -0.844576 -1.123119 -0.204161
C 0.513808 -1.070649 -0.070760
C 1.283976 0.135471 -0.118717
C 0.621201 1.278952 0.204987
C -0.822712 1.339378 0.042930
C -1.478200 0.084921 0.129047
H -1.356572 -2.003213 -0.245110
H 1.077363 -2.016710 0.090739
H 2.336536 -0.107362 -0.049203
H 1.385972 2.063960 0.489958
H -0.445541 1.423723 -1.211970
H -2.271256 -0.005352 0.942261
12
Aligned to gpa_Type_3.xyz, RMSD 0.28269
C -0.862339 -1.123493 -0.275795
C 0.524786 -1.015743 -0.046217
C 1.321009 0.084887 -0.007269
C 0.687241 1.346764 0.284706
C -0.806273 1.286688 0.075535
C -1.487418 0.044997 0.162875
H -1.529385 -1.988486 -0.379263
H 1.212021 -1.853065 0.112743
H 2.397860 -0.196997 -0.055682
H 1.358386 2.080934 0.280562
H -0.582280 1.279688 -1.068856
H -2.233608 0.053826 0.916662
12
Aligned to gpa_Type_2.xyz, RMSD 0.35980
C -0.879707 -1.106605 -0.229465
C 0.700519 -1.122065 -0.020161
C 1.228499 0.046135 0.409822
C 0.717088 1.088881 -0.061711
C -0.710217 1.074491 -0.318349
C -1.347829 0.004761 0.498639
H -1.502814 -1.467839 -1.186298
H 1.150863 -1.936895 -0.164247
H 2.179488 0.003786 0.917434
H 1.419187 1.890434 -0.180335
H -1.349266 1.413524 -1.169645
H -1.605809 0.111392 1.504316
12
Aligned to gpa_Type_3.xyz, RMSD 0.15918
C -0.793587 -1.060303 -0.027896
C 0.570476 -1.134769 -0.300517
C 1.267856 0.094402 0.077180
C 0.689342 1.336091 0.087528
C -0.760066 1.394830 0.021657
C -1.455904 0.045675 0.154120
H -1.354883 -1.973360 0.134608
H 0.938151 -2.158445 -0.451314
H 2.383459 0.133970 0.159269
H 1.253433 2.038017 0.587821
H -0.421006 1.145144 -1.174466
H -2.317272 0.138749 0.732012
12
Aligned to gpa_Type_2.xyz, RMSD 0.29289
C -0.892359 -0.950188 -0.505657
C 0.523049 -1.184119 -0.123874
C 1.242403 0.020259 0.521699
C 0.674483 1.359937 0.002649
C -0.631246 1.187492 -0.250373
C -1.244925 -0.020519 0.496846
H -1.505740 -1.688735 -1.055783
H 0.912035 -2.253583 0.014177
H 2.367180 0.186829 0.899623
H 1.465325 2.025757 -0.424513
H -1.241598 1.504119 -1.019240
H -1.668605 -0.187249 1.444446
12
Aligned to gpa_Type_2.xyz, RMSD 0.25622
C -0.840848 -0.944062 -0.508334
C 0.538024 -1.146512 -0.098683
C 1.197617 -0.003907 0.512845
C 0.733568 1.355018 -0.020608
C -0.569707 1.177919 -0.190697
C -1.231953 0.015356 0.467661
H -1.410749 -1.688498 -0.914841
H 0.833448 -2.080830 -0.086354
H 2.172567 0.046735 0.858836
H 1.406662 2.096410 -0.370933
H -1.173175 1.415508 -1.085630
H -1.655453 -0.243139 1.436739
12
Aligned to gpa_Type_2.xyz, RMSD 0.17606
C -0.790228 -0.993648 -0.358665
C 0.535583 -1.131955 -0.098112
C 1.402087 0.093054 0.214304
C 0.741857 1.406202 0.050511
C -0.766133 1.415008 -0.030433
C -1.343529 0.086945 0.332725
H -1.463672 -1.948612 -0.640194
H 0.910289 -2.142824 0.037997
H 2.434827 -0.211754 0.397792
H 1.341739 2.270043 0.117338
H -1.008192 1.272856 -1.101950
H -1.994626 -0.115315 1.078687
12
Aligned to gpa_Type_3.xyz, RMSD 0.14984
C -0.862299 -1.012709 -0.071281
C 0.553751 -1.037138 -0.226106
C 1.435350 0.076331 -0.044425
C 0.797148 1.282260 0.150886
C -0.730825 1.398832 0.015407
C -1.403671 0.142700 0.387636
H -1.456128 -1.901459 -0.020255
H 0.966024 -1.991933 -0.413023
H 2.427027 0.060651 0.259235
H 1.463726 2.168518 0.466253
H -0.675774 0.912948 -1.078785
H -2.514329 -0.099000 0.574458
12
Aligned to gpa_Type_3.xyz, RMSD 0.15591
C -0.882539 -1.031537 -0.080604
C 0.516461 -1.045522 -0.254444
C 1.391181 0.080804 -0.042207
C 0.764987 1.261892 0.153335
C -0.769243 1.429982 0.013547
C -1.444045 0.149552 0.396053
H -1.320271 -1.891274 0.117513
H 1.026174 -1.935941 -0.495810
H 2.377276 0.005279 0.299480
H 1.500643 2.090387 0.469626
H -0.657737 0.947872 -1.085629
H -2.502889 -0.061493 0.509140
12
Aligned to gpa_Type_3.xyz, RMSD 0.16077
C -0.797961 -1.136646 -0.025215
C 0.603465 -1.071705 -0.354051
C 1.234788 0.028992 0.029020
C 0.667693 1.320029 0.272812
C -0.751713 1.450853 -0.054028
C -1.541954 0.152458 0.202093
H -1.229481 -2.109039 0.143415
H 1.074677 -2.057795 -0.510258
H 2.327289 -0.117298 0.113622
H 1.190674 2.209935 0.600135
H -0.395854 0.993949 -1.157532
H -2.381623 0.336266 0.739989
12
Aligned to gpa_Type_3.xyz, RMSD 0.13994
C -0.804263 -1.071074 0.039494
C 0.670811 -1.082951 -0.254642
C 1.394255 0.085987 0.095767
C 0.689486 1.235424 0.128297
C -0.749169 1.404107 -0.099547
C -1.438193 0.196028 0.289333
H -1.438982 -1.923119 -0.009188
H 1.110099 -2.059136 -0.459661
H 2.365972 0.134617 0.065098
H 1.272909 1.967281 0.639198
H -0.580143 0.895367 -1.135372
H -2.492784 0.217471 0.701224
12
Aligned to gpa_Type_3.xyz, RMSD 0.12591
C -0.838569 -1.069196 -0.033555
C 0.565292 -1.118307 -0.242997
C 1.324195 0.089814 -0.039217
C 0.736531 1.290581 0.108426
C -0.732792 1.380395 0.086949
C -1.442593 0.144835 0.270094
H -1.451872 -2.086275 -0.009214
H 1.146597 -1.925761 -0.438248
H 2.324282 -0.026894 0.289646
H 1.346875 2.110659 0.405351
H -0.543795 1.075566 -1.071885
H -2.434150 0.134583 0.674652
12
Aligned to gpa_Type_3.xyz, RMSD 0.14309
C -0.852725 -1.121743 -0.054510
C 0.577080 -1.040049 -0.277059
C 1.373287 0.068042 -0.085356
C 0.794412 1.291103 0.145688
C -0.692979 1.368059 0.029513
C -1.465814 0.166687 0.362554
H -1.376798 -1.940883 -0.224193
H 1.102331 -2.065597 -0.273547
H 2.403919 -0.089982 0.233855
H 1.231086 2.243069 0.405695
H -0.628182 0.970159 -0.984718
H -2.465620 0.151136 0.722078
12
Aligned to gpa_Type_3.xyz, RMSD 0.15723
C -0.879676 -1.115476 -0.056105
C 0.513917 -1.080903 -0.239775
C 1.394198 0.078302 -0.066407
C 0.674380 1.321817 0.331806
C -0.803440 1.394875 0.053587
C -1.507709 0.088054 0.249363
H -1.278802 -2.124713 0.000159
H 1.042254 -2.009937 -0.142431
H 2.424137 -0.097627 -0.160356
H 1.220638 2.119844 0.628184
H -0.374464 1.218691 -1.289082
H -2.425435 0.207073 0.691058
12
Aligned to gpa_Type_3.xyz, RMSD 0.13442
C -0.806423 -1.054861 -0.027579
C 0.563041 -1.125462 -0.164167
C 1.339934 0.070346 0.044400
C 0.719052 1.333691 0.106534
C -0.729208 1.373357 0.072199
C -1.492393 0.109188 0.245354
H -1.191529 -2.035839 -0.111508
H 0.915145 -2.038588 -0.428863
H 2.487031 -0.105536 0.159839
H 1.238791 2.218203 0.382449
H -0.588635 1.026662 -0.894584
H -2.454809 0.228841 0.615926
12
Aligned to gpa_Type_3.xyz, RMSD 0.18084
C -0.850833 -1.093364 -0.164307
C 0.515034 -1.050065 -0.215463
C 1.395298 0.089583 0.050423
C 0.693778 1.260198 0.211831
C -0.774115 1.392654 0.036099
C -1.505510 0.135227 0.246940
H -1.457479 -1.993524 -0.134292
H 1.198581 -1.921623 -0.274732
H 2.360638 -0.054570 0.207465
H 1.364519 2.036494 0.167105
H -0.514954 1.149768 -0.871514
H -2.424959 0.049223 0.740446
12
Aligned to gpa_Type_2.xyz, RMSD 0.16790
C -0.888117 -1.072351 -0.566866
C 0.429707 -1.026024 -0.215018
C 1.273784 0.052444 0.248886
C 0.732873 1.381892 0.194341
C -0.620557 1.189806 -0.052356
C -1.399923 -0.054239 0.355146
H -1.458614 -2.025685 -0.506216
H 0.953730 -1.993208 -0.076412
H 2.385228 -0.059047 0.547162
H 1.267778 2.212273 -0.137686
H -0.648997 1.521843 -1.135441
H -2.026892 -0.127705 1.344462
12
Aligned to gpa_Type_2.xyz, RMSD 0.19176
C -0.952871 -1.037578 -0.493209
C 0.409668 -0.971241 -0.187020
C 1.298121 0.008304 0.246843
C 0.833587 1.353714 0.197440
C -0.602672 1.176487 -0.031070
C -1.436233 -0.023514 0.427169
H -1.380618 -2.131266 -0.680300
H 0.902879 -1.835547 -0.028337
H 2.337359 -0.168197 0.477732
H 1.263701 2.335766 -0.126373
H -0.683457 1.348613 -1.085902
H -1.989462 -0.055542 1.283027
12
Aligned to gpa_Type_3.xyz, RMSD 0.30364
C -0.955021 -1.111343 -0.189759
C 0.507809 -1.047099 -0.079173
C 1.203856 0.089737 0.231408
C 0.699018 1.341957 0.333466
C -0.770918 1.520599 -0.050462
C -1.552736 0.125557 0.262674
H -1.243495 -2.168850 -0.213607
H 0.926989 -1.949115 -0.514310
H 2.345518 -0.038567 0.349331
H 1.349569 2.090049 0.065851
H -0.299021 1.148232 -1.232798
H -2.211569 -0.001158 1.037380
12
Aligned to gpa_Type_1.xyz, RMSD 0.31213
C -0.761514 -0.921526 -0.545419
C 0.508098 -1.065885 0.033964
C 1.406105 0.007112 0.178003
C 0.808178 1.139584 -0.129159
C -0.682440 1.053584 -0.210132
C -1.276791 -0.033820 0.536258
H -1.093256 -1.854150 -0.671849
H 0.807728 -2.147421 0.361581
H 2.438103 -0.024706 0.316661
H 1.453502 2.045187 -0.175245
H -1.262309 2.045806 -0.509328
H -2.345405 -0.243766 0.814663
12
Aligned to gpa_Type_3.xyz, RMSD 0.19344
C -0.943068 -1.285735 -0.205351
C 0.498183 -0.984515 -0.043486
C 1.416259 0.119664 0.110969
C 0.710050 1.330618 0.125017
C -0.789627 1.310178 0.001511
C -1.533834 -0.015548 0.092576
H -1.501209 -2.066417 -0.020668
H 1.161821 -1.828777 -0.339829
H 2.571965 -0.100851 -0.015851
H 1.486145 2.221452 0.592274
H -0.688955 1.001480 -1.036290
H -2.387731 0.298453 0.739129
12
Aligned to gpa_Type_2.xyz, RMSD 0.20227
C -0.957458 -1.014755 -0.429443
C 0.558901 -0.985087 -0.235292
C 1.348771 0.074438 0.305413
C 0.780075 1.301717 0.180097
C -0.597829 1.212161 -0.246369
C -1.247511 0.089726 0.475308
H -1.553129 -1.800399 -0.657137
H 0.797792 -2.107583 0.012233
H 2.370820 0.004423 0.645817
H 1.430536 2.242696 0.011491
H -1.142228 1.331522 -1.290764
H -1.788739 -0.348861 1.228646
12
Aligned to gpa_Type_2.xyz, RMSD 0.25318
C -0.722974 -0.940097 -0.613091
C 0.550037 -1.090005 -0.121456
C 1.370132 0.004827 0.134280
C 0.788672 1.137075 -0.059067
C -0.648229 1.133240 -0.246554
C -1.506863 0.011510 0.381223
H -1.024304 -1.914884 -0.626724
H 0.812933 -2.074839 0.295244
H 2.446713 -0.193035 0.357316
H 1.161793 2.066745 0.063783
H -1.097666 1.802391 -0.875432
H -2.130242 0.057070 1.310479
12
Aligned to gpa_Type_2.xyz, RMSD 0.21022
C -0.777644 -0.907029 -0.541763
C 0.557068 -1.146124 -0.054463
C 1.415409 -0.030364 0.085589
C 0.791546 1.139018 -0.061692
C -0.567559 1.102024 -0.290420
C -1.482010 0.052711 0.309143
H -1.402692 -1.854050 -0.552831
H 0.892782 -2.104303 0.214722
H 2.363509 0.077506 0.485120
H 1.336626 2.115192 0.204898
H -1.184644 1.765372 -1.078527
H -1.942392 -0.209953 1.280225
12
Aligned to gpa_Type_1.xyz, RMSD 0.29317
C -0.695474 -1.094573 -0.297159
C 0.745350 -1.278237 0.045918
C 1.510860 -0.211277 0.129531
C 0.806201 1.145117 -0.190090
C -0.813032 1.120549 -0.408447
C -1.442937 0.053000 0.511840
H -1.383536 -1.561922 -0.919939
H 1.312030 -2.074008 0.231120
H 2.440265 0.074018 0.441185
H 1.521516 1.842285 0.182423
H -1.620164 1.816111 -0.871577
H -2.381080 0.168938 1.145195
12
Aligned to gpa_Type_1.xyz, RMSD 0.22071
C -0.695562 -0.924593 -0.195296
C 0.823182 -1.292815 -0.087759
C 1.500252 -0.032029 0.004786
C 0.861468 1.051453 -0.212058
C -0.728805 1.081440 -0.246623
C -1.256952 0.078760 0.622210
H -1.145447 -1.561510 -0.911199
H 0.905311 -2.208623 0.390058
H 2.442232 -0.098545 0.416680
H 1.174378 2.061632 0.047236
H -1.468611 1.822988 -0.683033
H -2.411445 0.021841 0.854997
12
Aligned to gpa_Type_1.xyz, RMSD 0.35874
C -0.735378 -1.158933 -0.171498
C 0.840275 -1.226472 0.235064
C 1.605956 -0.073293 -0.114336
C 0.854971 1.131113 -0.238402
C -0.714179 1.166999 -0.021929
C -1.508751 0.018527 0.735881
H -0.989806 -1.423736 -1.248921
H 1.048690 -2.248895 0.563349
H 2.642395 -0.232380 0.168042
H 1.339666 2.131743 -0.138276
H -1.643805 1.729023 -0.401433
H -2.740036 0.186304 0.632459
12
Aligned to gpa_Type_3.xyz, RMSD 0.16949
C -0.814281 -1.039995 -0.192591
C 0.552878 -1.138018 -0.247719
C 1.323729 -0.006096 -0.009642
C 0.838791 1.294684 0.270231
C -0.716368 1.441034 0.101445
C -1.368876 0.258819 0.318068
H -1.522557 -1.916390 -0.034984
H 1.119981 -2.129018 -0.199030
H 2.320251 0.075317 0.064154
H 1.387906 2.230740 0.423146
H -0.647522 1.091456 -1.097520
H -2.473932 -0.162532 0.604442
12
Aligned to gpa_Type_3.xyz, RMSD 0.15362
C -0.799613 -1.015567 -0.139400
C 0.556878 -1.115849 -0.259793
C 1.236228 0.167162 -0.047715
C 0.811341 1.259621 0.290772
C -0.785974 1.338946 0.151100
C -1.485061 0.144373 0.277303
H -1.419276 -1.883516 -0.089252
H 1.134962 -1.927710 -0.053928
H 2.404037 -0.051188 -0.093341
H 1.428997 2.079893 0.524111
H -0.639779 0.973950 -1.140434
H -2.442739 0.029887 0.580579
12
Aligned to gpa_Type_3.xyz, RMSD 0.17734
C -0.888294 -1.169594 -0.207176
C 0.531319 -0.965467 -0.035200
C 1.481159 0.119450 0.081361
C 0.846514 1.367466 0.184575
C -0.721296 1.321056 0.043896
C -1.441091 0.150255 0.127826
H -1.505427 -2.212066 0.009932
H 1.140357 -1.847443 -0.278249
H 2.393612 -0.167873 -0.083841
H 1.344482 2.157541 0.605398
H -0.793110 1.044648 -1.086509
H -2.388226 0.202027 0.637987
12
Aligned to gpa_Type_2.xyz, RMSD 0.34653
C -0.881853 -1.308315 -0.297178
C 0.478382 -1.077077 -0.006754
C 1.399665 0.101220 0.269660
C 0.704005 1.340479 0.204582
C -0.823546 1.327242 0.164381
C -1.605550 0.091283 0.191550
H -1.374693 -2.114435 -0.501497
H 1.125925 -1.891163 -0.431980
H 2.537549 -0.185599 0.357113
H 1.516274 2.263788 -0.025980
H -0.735017 1.196439 -0.991600
H -2.341140 0.256138 1.067704
12
Aligned to gpa_Type_1.xyz, RMSD 0.24505
C -0.856788 -1.064477 -0.294404
C 0.580748 -1.191102 0.096740
C 1.427632 0.083104 0.223694
C 0.842073 1.205486 -0.095344
C -0.661077 1.061894 -0.176364
C -1.304886 0.002779 0.573288
H -1.327776 -1.685758 -1.085014
H 1.096076 -2.145153 0.046423
H 2.416638 -0.195315 0.461684
H 1.201092 2.305821 -0.002019
H -1.194452 1.386393 -0.952055
H -2.219282 0.236328 1.203369
12
Aligned to gpa_Type_2.xyz, RMSD 0.25750
C -0.850024 -1.061514 -0.753589
C 0.392169 -1.113749 -0.064687
C 1.282207 -0.027900 0.353221
C 0.716988 1.246048 0.196763
C -0.710607 1.398572 -0.080816
C -1.400715 0.014306 0.024570
H -1.228876 -2.129794 -0.378168
H 0.800836 -2.112338 0.322472
H 2.401067 0.015185 0.271617
H 1.464812 2.081402 -0.060067
H -1.146485 1.912891 -0.898395
H -1.721371 -0.223111 1.067081
12
Aligned to gpa_Type_2.xyz, RMSD 0.13260
C -0.896389 -1.118979 -0.508144
C 0.493607 -1.175434 -0.054779
C 1.278318 0.088814 0.142529
C 0.761569 1.261597 0.049366
C -0.681942 1.296096 -0.145270
C -1.260882 -0.024332 0.452732
H -1.449063 -1.966015 -0.686184
H 1.090574 -2.126397 0.140095
H 2.377468 -0.126676 0.447502
H 1.359248 2.234000 0.103857
H -1.079908 1.654925 -1.102621
H -1.992598 0.002400 1.160916
12
Aligned to gpa_Type_2.xyz, RMSD 0.23784
C -0.927121 -1.198681 -0.269143
C 0.584959 -1.118658 -0.124985
C 1.150999 0.049859 0.291315
C 0.698887 1.232298 -0.045707
C -0.637182 1.302383 -0.172847
C -1.167853 0.013890 0.534081
H -1.436336 -1.638863 -1.107414
H 1.068692 -1.957490 0.064171
H 2.244065 -0.157773 0.677867
H 1.167410 2.070592 -0.115349
H -0.980847 1.435792 -1.190386
H -1.765672 -0.033350 1.458399
12
Aligned to gpa_Type_1.xyz, RMSD 0.29962
C -0.867178 -1.141279 -0.062442
C 0.651449 -1.297286 0.132079
C 1.423569 -0.063263 0.281957
C 0.745136 1.087987 -0.226505
C -0.711686 1.026855 -0.157165
C -1.374610 0.071113 0.782832
H -1.116809 -1.159910 -1.296615
H 1.429306 -2.100599 0.270880
H 2.481058 -0.139262 0.266426
H 1.329537 1.894809 -0.104516
H -1.574303 1.575891 -0.781393
H -2.415470 0.244943 0.894461
12
Aligned to gpa_Type_2.xyz, RMSD 0.23032
C -0.915340 -1.137088 -0.420589
C 0.570655 -1.185225 -0.069737
C 1.360343 -0.022418 0.258167
C 0.752982 1.166022 0.101976
C -0.757164 1.180724 -0.209331
C -1.444809 -0.007957 0.357940
H -1.344643 -1.808554 -1.082782
H 1.004981 -2.184359 0.353019
H 2.538301 0.102005 0.310542
H 1.265648 2.046176 0.029737
H -1.093466 1.701114 -1.074375
H -1.937487 0.149559 1.445434
12
Aligned to gpa_Type_2.xyz, RMSD 0.25314
C -0.912703 -1.004040 -0.436265
C 0.444135 -0.985776 -0.032398
C 1.267698 0.008012 0.512975
C 0.697890 1.252655 0.136388
C -0.656598 1.250340 -0.064482
C -1.452869 0.096760 0.430214
H -1.348178 -1.893582 -0.917784
H 0.991703 -1.923396 -0.213240
H 2.297791 0.094556 0.718656
H 1.437244 1.896193 -0.528072
H -0.860740 1.426574 -1.038858
H -1.905373 -0.218297 1.432868
12
Aligned to gpa_Type_1.xyz, RMSD 0.36707
C -0.951277 -1.088854 -0.103661
C 0.518891 -1.093192 0.024027
C 1.457801 -0.044797 0.374526
C 0.713725 1.142341 0.168141
C -0.667094 1.161241 0.063450
C -1.515002 0.159112 0.484486
H -1.327286 -1.803246 -0.844567
H 1.071041 -1.937322 -0.427248
H 2.471100 0.217481 0.346530
H 1.257181 1.998812 -0.112273
H -0.667552 1.035762 -1.082878
H -2.361528 0.252664 1.109466
12
Aligned to gpa_Type_1.xyz, RMSD 0.34433
C -0.949937 -1.063749 -0.160238
C 0.585084 -1.152103 -0.021056
C 1.448189 -0.067823 0.311919
C 0.783777 1.120205 0.181279
C -0.680240 1.200114 0.005424
C -1.488543 0.164771 0.476797
H -1.286913 -1.834713 -0.863634
H 1.040055 -2.004389 -0.303386
H 2.413189 0.233211 0.327944
H 1.163491 2.036282 -0.058603
H -0.724318 1.039319 -1.002450
H -2.303834 0.328875 1.106003
12
Aligned to gpa_Type_3.xyz, RMSD 0.26437
C -0.862419 -1.105865 0.112170
C 0.503598 -1.070855 0.049613
C 1.411763 0.093770 0.131829
C 0.769172 1.339251 0.162395
C -0.664426 1.207304 0.204311
C -1.556797 0.097643 0.338640
H -1.322464 -1.844232 -0.486690
H 1.020394 -1.954034 -0.487905
H 2.444869 0.036513 0.195985
H 1.365770 2.163230 0.094390
H -0.657737 0.840164 -0.928598
H -2.451725 0.197111 0.613862
12
Aligned to gpa_Type_2.xyz, RMSD 0.18926
C -0.917973 -1.003775 -0.429514
C 0.560736 -1.065268 -0.001650
C 1.351160 0.035414 0.205611
C 0.720605 1.274436 0.131394
C -0.725021 1.251494 -0.120579
C -1.412316 0.075540 0.314514
H -1.187059 -1.986742 -0.909423
H 0.644182 -2.174080 0.201291
H 2.505009 0.020078 0.292083
H 1.298316 2.118979 0.129911
H -1.056274 1.406062 -1.092403
H -1.781364 0.047860 1.278766
12
Aligned to gpa_Type_2.xyz, RMSD 0.20583
C -0.865773 -1.056207 -0.393389
C 0.580054 -1.016009 -0.094615
C 1.421622 -0.012063 0.167593
C 0.689634 1.228419 0.261948
C -0.694209 1.198013 -0.129075
C -1.362463 0.152076 0.334963
H -1.204208 -1.891759 -0.921740
H 0.780927 -2.150535 0.286781
H 2.433629 -0.150513 0.224452
H 1.239994 2.212490 0.131266
H -1.117114 1.409844 -1.191923
H -1.902092 0.076242 1.323742
12
Aligned to gpa_Type_2.xyz, RMSD 0.22626
C -0.722127 -1.092296 -0.533168
C 0.599526 -1.183426 0.093105
C 1.403233 0.030917 0.113657
C 0.715718 1.172958 -0.128286
C -0.673965 1.079438 -0.256884
C -1.455162 -0.036468 0.346052
H -1.512468 -1.694162 -0.770592
H 0.953714 -2.307294 0.145815
H 2.370200 0.098388 0.592636
H 1.127626 2.143351 -0.027436
H -0.953088 1.810814 -0.879678
H -1.853205 -0.022219 1.304781
12
Aligned to gpa_Type_2.xyz, RMSD 0.18082
C -0.859494 -1.093224 -0.426189
C 0.601954 -1.225986 0.006071
C 1.360567 -0.009473 0.276000
C 0.720612 1.243572 0.098969
C -0.646550 1.096528 -0.118208
C -1.421570 0.021973 0.486886
H -1.537185 -1.852884 -0.988139
H 1.054710 -2.121700 0.022409
H 2.406911 0.032960 0.538792
H 1.227933 2.221078 -0.138871
H -0.929955 1.648028 -1.216593
H -1.977932 0.039125 1.458873
12
Aligned to gpa_Type_3.xyz, RMSD 0.22385
C -0.778468 -1.071016 -0.194051
C 0.654493 -1.028561 -0.358678
C 1.434499 0.066554 0.091742
C 0.781594 1.380601 0.214544
C -0.737272 1.416389 -0.038066
C -1.448716 0.183624 0.265570
H -1.508004 -1.997898 -0.045228
H 1.042728 -2.108367 -0.418704
H 2.466523 0.064021 0.365951
H 1.442164 2.127614 0.508233
H -0.926531 0.812794 -1.231367
H -2.423010 0.154247 0.840055
12
Aligned to gpa_Type_2.xyz, RMSD 0.24629
C -0.920234 -1.099039 -0.448277
C 0.485219 -1.080662 -0.255584
C 1.251128 -0.028768 0.527232
C 0.704160 1.358315 0.134165
C -0.772607 1.385539 -0.074512
C -1.341929 0.072642 0.340530
H -1.455625 -1.922672 -0.460684
H 1.191341 -1.825952 -0.373995
H 2.201336 -0.241993 0.742688
H 1.396076 2.124971 -0.205055
H -0.857099 1.410030 -1.283044
H -1.881766 -0.152414 1.356538
12
Aligned to gpa_Type_2.xyz, RMSD 0.28386
C -0.849206 -0.912652 -0.322614
C 0.499868 -1.039706 0.037182
C 1.447673 0.034041 0.072824
C 0.773470 1.283164 0.153818
C -0.657055 1.162522 0.134564
C -1.675472 0.081448 0.365588
H -1.310613 -1.796220 -0.973316
H 0.943296 -2.042884 0.345687
H 2.611165 -0.180487 0.232452
H 1.246243 2.233600 -0.193076
H -0.861756 1.345496 -0.970769
H -2.167614 -0.168323 1.117663
12
Aligned to gpa_Type_2.xyz, RMSD 0.35446
C -0.765506 -1.116802 -0.142344
C 0.671731 -1.259107 0.029333
C 1.412598 -0.070841 0.055783
C 0.636484 1.204261 0.204599
C -0.703081 1.035381 -0.350897
C -1.568365 0.072855 0.319161
H -1.385738 -1.768774 -0.760038
H 1.066423 -2.287086 0.027069
H 2.609269 0.064478 0.142261
H 1.195087 2.097525 0.548944
H -1.167864 1.605732 -1.267730
H -2.001036 0.422379 1.193859
12
Aligned to gpa_Type_3.xyz, RMSD 0.30762
C -0.881480 -1.065963 -0.405344
C 0.512254 -1.137094 -0.349827
C 1.256150 0.007679 0.094691
C 0.649249 1.301257 0.149111
C -0.755591 1.479551 -0.068646
C -1.486116 0.179645 0.166898
H -1.348601 -2.017901 -0.130983
H 1.093390 -1.957949 -0.135133
H 2.355234 -0.215204 0.358356
H 1.302219 2.244783 0.256980
H -0.436681 1.310267 -1.102971
H -2.260029 -0.129071 1.166869
12
Aligned to gpa_Type_2.xyz, RMSD 0.25005
C -0.802642 -1.158422 -0.332436
C 0.599387 -1.256887 0.022261
C 1.377520 0.017072 0.284982
C 0.746554 1.307606 0.042913
C -0.684315 1.165189 -0.201618
C -1.359461 -0.048781 0.492744
H -1.350277 -1.675531 -1.095013
H 0.869929 -2.276284 0.332084
H 2.404950 0.014718 0.294111
H 1.370211 2.182195 0.077069
H -1.292601 1.723281 -1.228693
H -1.879255 0.005844 1.311597
12
Aligned to gpa_Type_2.xyz, RMSD 0.19725
C -0.911763 -0.929269 -0.336460
C 0.569537 -1.135680 -0.041375
C 1.377798 -0.055858 0.369989
C 0.699849 1.243158 0.226690
C -0.831917 1.244805 -0.252815
C -1.504911 0.109940 0.355413
H -1.442925 -1.751646 -0.814493
H 1.162719 -2.060267 0.062784
H 2.546648 -0.038730 0.295398
H 1.368979 2.065763 -0.027080
H -0.968251 1.410329 -1.152184
H -2.065763 -0.102546 1.314133
12
Aligned to gpa_Type_2.xyz, RMSD 0.22834
C -0.875453 -1.069710 -0.292777
C 0.634603 -1.160186 -0.050258
C 1.440088 -0.029333 0.130947
C 0.685143 1.181516 0.164926
C -0.778359 1.213960 -0.122081
C -1.423857 0.070512 0.483226
H -1.450407 -1.814557 -0.854321
H 1.112017 -2.088112 -0.033278
H 2.487293 -0.038381 0.385508
H 1.195032 2.122992 0.171834
H -0.903312 1.460964 -1.384185
H -2.122785 0.150332 1.400459
12
Aligned to gpa_Type_2.xyz, RMSD 0.32985
C -0.772342 -1.124742 -0.272666
C 0.683093 -1.208983 -0.025162
C 1.336781 -0.021325 0.313658
C 0.692036 1.129207 -0.119155
C -0.686960 1.178219 -0.286610
C -1.497985 0.094964 0.364631
H -1.460576 -1.256849 -1.051659
H 1.117777 -2.148344 -0.001516
H 2.368246 -0.120425 0.714355
H 1.168328 2.129454 0.040810
H -1.246598 1.328402 -1.251300
H -1.701798 0.020421 1.574615
12
Aligned to gpa_Type_2.xyz, RMSD 0.31053
C -0.785985 -1.040500 -0.315346
C 0.699979 -1.203327 -0.070464
C 1.282521 -0.015782 0.392735
C 0.697051 1.131205 -0.074787
C -0.763559 1.132585 -0.247091
C -1.536281 0.079627 0.391480
H -1.545091 -1.318075 -1.049131
H 1.129479 -2.194339 0.071857
H 2.338916 -0.035835 0.718092
H 1.222212 2.099520 -0.066217
H -1.204626 1.393717 -1.200615
H -1.534614 -0.028796 1.449486
12
Aligned to gpa_Type_2.xyz, RMSD 0.30876
C -0.857350 -0.941980 -0.417142
C 0.590459 -1.220294 -0.091168
C 1.170053 -0.056116 0.527883
C 0.641594 1.153040 0.053529
C -0.846107 1.111239 -0.252597
C -1.546592 0.049207 0.374717
H -1.237187 -1.715004 -1.070630
H 1.023459 -2.150574 0.003760
H 2.232923 0.058016 0.802575
H 1.335641 1.919349 -0.404660
H -1.090869 1.784213 -1.104021
H -1.416023 0.008904 1.577753
