      12
    6695.00 to state    2 from traj    1 on state    3
 C       0.340388201     -1.192820984     -0.257208302
 C       1.663333971     -0.787153550      0.365191598
 C       2.427731507      0.218293229     -0.276493603
 C       1.769903246      1.456266239     -0.113665164
 C       0.411932791      1.373752645      0.329805203
 C      -0.318128411      0.110948219      0.008215860
 H       0.210783372     -1.673452869     -1.244728663
 H       1.932425980     -1.257227473      1.272134474
 H       3.302543129      0.013485244     -0.661542888
 H       2.101777012      2.371163483     -0.371347786
 H      -0.393975858      2.129038649      0.370663652
 H      -1.356603181      0.164765646     -0.075314601
