      12
    1880.00 to state    2 from traj    1 on state    3
 C       0.298347641     -1.105902944     -0.227653660
 C       1.744273663     -1.112788740      0.044197371
 C       2.405303520      0.207127552      0.113520312
 C       1.684647171      1.438704886      0.043182100
 C       0.343885411      1.556540427     -0.194054639
 C      -0.358407909      0.253986065      0.191370202
 H      -0.077696692     -2.101751994     -0.404496748
 H       2.607546517     -1.950841724      0.090162020
 H       3.449725751      0.200782831      0.127786195
 H       2.381077182      2.270460740      0.018675866
 H      -0.182287101      2.292475549     -0.769004234
 H      -0.256060796      0.334715347      1.248182956
