      12
    8480.00 to state    2 from traj    1 on state    3
 C       0.343626289     -0.995086597     -0.005453871
 C       1.773052480     -1.001284979      0.059475843
 C       2.412657810      0.260209289     -0.205444163
 C       1.824553481      1.420780067      0.149894670
 C       0.317340174      1.420488231     -0.152469847
 C      -0.359244299      0.190665630      0.095193248
 H      -0.271234095     -1.858641330      0.153829207
 H       2.265288594     -1.864211068     -0.096798149
 H       3.436093755      0.237096275     -0.443672654
 H       1.708358005      1.469881014      1.160368367
 H      -0.169349018      2.228634627      0.128464647
 H      -1.373957551      0.134789034     -0.240037355
