      12
    8710.00 to state    2 from traj    1 on state    3
 C       0.339503623     -1.028211727      0.023923591
 C       1.757064076     -1.004749571      0.039414567
 C       2.509423731      0.226458643     -0.176081156
 C       1.800361019      1.438928108      0.156958297
 C       0.242525421      1.428565938     -0.190039503
 C      -0.353302764      0.216401942      0.101611823
 H      -0.298164641     -1.901804855     -0.109958450
 H       2.341476274     -1.960459615     -0.242755030
 H       3.550809178      0.270893484     -0.578115643
 H       1.858954006      1.464090955      1.433581346
 H      -0.226680685      2.517591971     -0.067741356
 H      -1.434264440      0.177776386      0.052042201
