      12
   12100.00 to state    2 from traj    1 on state    3
 C       0.252970548     -1.054637160      0.042598251
 C       1.837516506     -0.993092011      0.061323513
 C       2.473334594      0.241455726     -0.097800994
 C       1.758596731      1.420688205      0.210985370
 C       0.307017334      1.483425849     -0.083131967
 C      -0.370820204      0.219068711     -0.179575113
 H      -0.004628468     -2.138389870     -0.044378370
 H       2.308696152     -1.850424033      0.102421779
 H       3.514250473      0.243500164     -0.268410879
 H       1.851327065      1.406817377      1.439565640
 H      -0.000792652      2.341630340     -0.511217907
 H      -1.432980497      0.096508874     -0.209758771
