      12
    2775.00 to state    2 from traj    1 on state    3
 C       0.509399146     -0.852102876     -0.373147683
 C       1.644964556     -1.014709137      0.343521529
 C       2.370353612      0.130110900     -0.103467971
 C       1.638552831      1.324977874     -0.269194427
 C       0.346374465      1.369403761      0.166703829
 C      -0.279346841      0.178290542      0.204121063
 H       0.375113073     -1.191027306     -1.326637424
 H       1.942149818     -1.595160851      1.096632892
 H       3.544404370      0.441421133      0.074041080
 H       2.059846333      2.186862923     -0.474516055
 H      -0.140988520      2.381053652      0.581447034
 H      -1.203837374      0.043410260      0.384361406
