      12
    7450.00 to state    2 from traj    1 on state    3
 C       0.328910655     -0.930675902     -0.016260389
 C       1.697237696     -1.016060872     -0.279476595
 C       2.371523429      0.145867068      0.153746426
 C       1.698450599      1.435671314      0.280072280
 C       0.279108755      1.466640904     -0.377964436
 C      -0.186086538      0.236127527      0.200707255
 H      -0.365208097     -1.810708023      0.204218497
 H       2.078954020     -1.941053319     -0.627799371
 H       3.399411186     -0.089798518      0.488555652
 H       2.318787577      2.044720709      0.810727895
 H       0.671487263      1.404880525     -1.324378170
 H      -1.032368592      0.241508556      0.877125752
