      12
    3775.00 to state    2 from traj    1 on state    3
 C       0.309726524     -1.090165327     -0.224124886
 C       1.806357450     -1.046000336      0.220979418
 C       2.440445893      0.257583259      0.058090551
 C       1.717364403      1.399936244     -0.142705455
 C       0.343673291      1.389861332     -0.029975420
 C      -0.405701701      0.217965751      0.156046701
 H       0.079545516     -0.890632740     -1.421191323
 H       2.183885677     -1.856377585      0.580464990
 H       3.490614844      0.365057949      0.312212727
 H       2.400780586      2.107961643     -0.089118969
 H       0.023488213      2.461711469     -0.276804315
 H      -1.381654454      0.159447364      0.388156374
