      12
    7060.00 to state    2 from traj    1 on state    3
 C       0.323404126     -1.000181869      0.381861365
 C       1.792774231     -1.021042225     -0.089109876
 C       2.414379369      0.231170142     -0.179634642
 C       1.709786568      1.303299072      0.287584126
 C       0.364048272      1.404364742     -0.104511684
 C      -0.403108988      0.168254803     -0.297529080
 H       0.185681488     -0.659418669      1.402168684
 H       2.464245956     -1.847962113     -0.223248308
 H       3.418263349      0.334231860     -0.269197762
 H       2.120545233      2.200517079      0.489580287
 H       0.066866728      2.393640532     -0.507464800
 H      -1.332161006      0.446926543     -0.917585048
