      12
    5185.00 to state    2 from traj    1 on state    3
 C       0.450410159     -0.866514743     -0.293395474
 C       1.744617843     -1.052768008      0.339961365
 C       2.389533714      0.140124665     -0.118816661
 C       1.763162659      1.335223173     -0.183780760
 C       0.280297477      1.370533860      0.080001723
 C      -0.408821630      0.226888511      0.215184742
 H       0.411044964     -1.133557585     -1.346567873
 H       1.984555238     -1.670634473      1.159060422
 H       3.523537519      0.102504104     -0.309658409
 H       2.293490600      2.374969046     -0.396681604
 H      -0.104416717      2.345544576      0.116869534
 H      -1.403040274      0.038031415      0.263118773
