      12
   14860.00 to state    2 from traj    1 on state    3
 C       0.308793664     -0.890861982      0.087086042
 C       1.698667651     -0.927854088      0.305778678
 C       2.447041136      0.193071088     -0.000444249
 C       1.750554233      1.326569916     -0.267349439
 C       0.384748612      1.351510219      0.146526950
 C      -0.359730665      0.180715512     -0.264959508
 H      -0.169421011     -1.986971233     -0.078868379
 H       2.312953088     -1.758988344      0.278504565
 H       3.404997673      0.123462034     -0.147896978
 H       2.223044407      2.352057598     -0.386022778
 H       0.134313642      1.955066680      1.061395996
 H      -1.327922860      0.413604814     -0.851563696
