      12
    6475.00 to state    2 from traj    1 on state    3
 C       0.264442379     -1.092224436     -0.194402887
 C       1.766608677     -1.031444753      0.112919491
 C       2.470767042      0.196391753      0.036479605
 C       1.708315977      1.415866315     -0.149397104
 C       0.378376558      1.462413665     -0.000965769
 C      -0.371291381      0.188750666      0.216356540
 H       0.160182442     -1.078749297     -1.385219385
 H       2.431382460     -1.802200841      0.506079696
 H       3.518081811      0.284933541      0.042001058
 H       2.197929104      2.274638587     -0.256320751
 H      -0.134857084      2.345347858      0.251316605
 H      -1.440499617      0.198712102      0.544153055
