      12
    2610.00 to state    2 from traj    1 on state    3
 C       0.356862959     -1.019389758      0.011728529
 C       1.722574768     -1.050878534      0.211978084
 C       2.415324030      0.232384408     -0.200691798
 C       1.757113730      1.481456677      0.191121467
 C       0.351737401      1.427855503     -0.038323255
 C      -0.249241881      0.185306408     -0.086410338
 H      -0.210013014     -1.914214258      0.023682502
 H       2.134644564     -2.022497624      0.106817441
 H       2.347862600      0.281046557     -1.505826168
 H       2.465158930      2.305351225      0.379372369
 H      -0.406222052      2.139982276      0.102395994
 H      -1.243383290      0.031454469     -0.223911562
