      12
    6605.00 to state    2 from traj    1 on state    3
 C       0.358561916     -0.950972055      0.037486885
 C       1.714725048     -1.099085666      0.072811346
 C       2.474494973      0.195385681     -0.078392967
 C       1.741458511      1.481706504      0.132434750
 C       0.300006285      1.486233439     -0.146448713
 C      -0.316403073      0.185172988     -0.048540537
 H      -0.230712264     -1.760151240     -0.166462529
 H       2.249276042     -1.995907886      0.061625082
 H       3.579794490      0.070361333     -0.514154093
 H       1.923536310      1.387083181      1.291594507
 H      -0.157532127      2.396852360     -0.517934530
 H      -1.297471026      0.219055381      0.169263851
