      12
    7605.00 to state    2 from traj    1 on state    3
 C       0.297811790     -1.128151333      0.017781616
 C       1.817997612     -1.108779360     -0.189093756
 C       2.422729484      0.188478001      0.044911806
 C       1.681562769      1.497006529      0.111932761
 C       0.327710389      1.523670575      0.104492191
 C      -0.305107110      0.169283061     -0.090637629
 H      -0.025605212     -1.333948950      1.202798423
 H       2.379010912     -1.960494279      0.000674086
 H       3.566767610      0.106438001     -0.130389922
 H       2.093890782      2.549091409     -0.270800814
 H      -0.182524190      2.556987695     -0.212043445
 H      -1.404307516      0.283079496     -0.628025861
