      12
    2065.00 to state    2 from traj    1 on state    3
 C       0.269292583     -0.996919132      0.256651074
 C       1.768621997     -1.058578981      0.069638519
 C       2.416403594      0.225809009     -0.218531934
 C       1.784428327      1.469634470      0.012747985
 C       0.377822792      1.354056600      0.239652503
 C      -0.478755578      0.226729565     -0.312093909
 H      -0.074871227     -1.986126876      0.514743606
 H       2.546988439     -1.926940682      0.094166112
 H       3.581642435      0.268431767     -0.379230442
 H       2.259364269      2.340859140      0.244651139
 H      -0.299423364      2.249970799      0.384162894
 H      -0.325830838      0.307954850     -1.477215222
