      12
    6470.00 to state    2 from traj    1 on state    3
 C       0.183007652     -1.027519394     -0.225119840
 C       1.739791320     -1.027019852     -0.062175781
 C       2.384342677      0.196986436      0.252991343
 C       1.641069445      1.451388568      0.083800623
 C       0.372146127      1.391414578     -0.382936576
 C      -0.138011070      0.230812947      0.276955940
 H      -0.508126233     -1.768490482     -0.655166552
 H       2.287635492     -1.869395597     -0.061834259
 H       3.530203573      0.430962885      0.519651563
 H       2.337928327      2.184873688      0.194259989
 H      -0.202343453      2.286736585     -0.666037210
 H      -0.293857552      0.039422561      1.300126117
