      12
    5725.00 to state    2 from traj    1 on state    3
 C       0.399989803     -0.813694409     -0.297889597
 C       1.728151790     -1.038830671      0.243088115
 C       2.432835637      0.140285549     -0.069804061
 C       1.738554959      1.331930976     -0.241938870
 C       0.296594887      1.369993022      0.016528061
 C      -0.336896817      0.198222090      0.365808031
 H       0.123792579     -1.232029865     -1.181644949
 H       1.886364390     -1.900928910      0.786927244
 H       3.404968742      0.138657399     -0.348204596
 H       2.404770030      2.203609680     -0.597212091
 H      -0.262049440      2.432284066      0.320947823
 H      -1.329260219      0.002424985      0.785022192
