      12
    1270.00 to state    2 from traj    1 on state    3
 C       0.314771370     -1.051618456      0.149685184
 C       1.739264022     -0.996273634     -0.031141602
 C       2.345531419      0.199546553     -0.068829377
 C       1.786781743      1.433255343     -0.076294140
 C       0.328315407      1.443836034      0.152953418
 C      -0.338226230      0.197085898     -0.124599780
 H      -0.191587034     -2.048130231      0.453999564
 H       2.396283867     -1.809838001      0.019550919
 H       3.401974349      0.259704401      0.039081426
 H       2.319230086      2.264754836      0.233573965
 H      -0.171162899      2.332765635      0.603550634
 H      -0.531054974      0.190760960     -1.413168221
