10
Family_1 [H]C([H])=C([H])C([H])=C([H])[H] | RMSD: 0.1251 | 1812.00 to state    1 from traj    1 on state    2
C      19.94496852      8.28832059      1.17377957
H      18.83855406      8.20015407      0.96220129
C      20.57614031      9.45453520      0.89673353
H      21.74353167      9.45158799      0.38144425
C      19.95096848     10.72405457      1.10609980
H      18.91484079     10.82250437      1.50297988
H      20.45519126     11.62976976      0.93277091
C      20.83218210      7.01826410      1.08958759
H      20.22107533      6.30938965      1.75891945
H      19.92732021      6.89913647      0.06340791
