10
Family_1 [H]C([H])=C([H])C([H])=C([H])[H] | RMSD: 0.6374 | 1556.00 to state    2 from traj    2 on state    3
C      20.07192034      8.20962227      1.25334860
H      19.41023117      8.46271549      2.20937170
C      20.60578993      9.55786060      1.08346624
H      21.69148544      9.66926640      1.03745196
C      19.86544727     10.78321728      0.93681522
H      18.94749716     10.69463946      0.65075895
H      20.63128801     11.47044201      1.10200038
C      20.62576341      6.95995795      0.88796304
H      20.68604115      6.24022210      1.78980721
H      20.34661945      6.47160220      0.05880097
