10
Family_1 [H]C([H])=C([H])C([H])=C([H])[H] | RMSD: 0.4393 | 1956.00 to state    2 from traj    5 on state    3
C      20.03829744      8.21005778      1.24751537
H      18.96437572      8.08140582      1.10546569
C      20.56705540      9.45467795      0.93968641
H      21.65560953      9.39923040      0.61089250
C      19.96591312     10.81853418      1.03128924
H      18.89010522     10.62834211      1.34429399
H      20.34902470     11.90101166      1.20807617
C      20.61918296      7.03341554      1.01633606
H      20.99425949      6.53108401      1.82092915
H      20.60326745      6.39599365     -0.11409848
