10
Family_1 [H]C([H])=C([H])C([H])=C([H])[H] | RMSD: 0.3807 | 4528.00 to state    1 from traj    1 on state    2
C      20.00005505      8.33115602      1.17546326
H      18.92300903      8.41971558      1.38577883
C      20.66254752      9.48780606      1.17242577
H      21.55307759      9.41124552      0.57803337
C      19.94772001     10.55831682      0.97216107
H      18.96425994     10.66480884      1.31854108
H      20.07599264     11.42811389      0.56353740
C      20.72871123      7.13739936      0.92050056
H      20.26062813      6.76601319      1.86754056
H      19.90918558      6.27108756      0.19392738
