10
Family_1 [H]C([H])=C([H])C([H])=C([H])[H] | RMSD: 0.5636 | 9288.00 to state    1 from traj    1 on state    2
C      19.97079813      8.20117888      0.95984777
H      18.86159855      8.50223887      1.37927247
C      20.56007091      9.53533654      0.99636314
H      21.82722214      9.70814426      0.80513470
C      19.94936483     10.70991768      1.12518005
H      19.15261479     10.65636097      1.67772755
H      20.50139050     11.56067498      0.58680854
C      20.74936955      7.03223925      1.02264218
H      20.44575220      7.08525004      2.06803382
H      20.20151179      5.87735037      1.01707994
