10
Family_1 [H]C([H])=C([H])C([H])=C([H])[H] | RMSD: 0.4586 | 960.00 to state    3 from traj    3 on state    2
C      20.00762450      8.20572775      1.10520738
H      18.95432613      7.92538667      1.47341413
C      20.54214892      9.54415222      0.94972546
H      21.75392398      9.60367235      0.63795684
C      19.98201848     10.75572796      1.09382962
H      19.00414532     10.71120136      1.58253577
H      20.45783795     11.68174021      0.61166701
C      20.63252688      7.02185275      1.04995718
H      20.69390971      6.33986736      2.05373675
H      20.90385712      6.54680568      0.04649300
