10
Family_1 [H]C([H])=C([H])C([H])=C([H])[H] | RMSD: 0.3535 | 7144.00 to state    1 from traj   14 on state    2
C      19.95297665      8.27188328      1.07473033
H      18.83017115      8.53931847      1.26823666
C      20.64815960      9.44134163      0.79719171
H      21.72563694      9.42026459      0.66425541
C      19.95254279     10.57757744      1.14264788
H      18.87907717     10.84772839      1.45806691
H      20.24720343     11.65474909      1.38316019
C      20.73303425      7.14104255      1.14259924
H      20.75246199      6.56142464      1.91807048
H      19.87503658      6.92451485      0.20911581
