10
Family_1 [H]C([H])=C([H])C([H])=C([H])[H] | RMSD: 0.3930 | 5828.00 to state    2 from traj   13 on state    3
C      20.14198005      8.16879644      0.96369613
H      18.95869772      8.24380897      1.26350447
C      20.55791187      9.58938368      0.88665147
H      21.47142359      9.35493418      0.53410993
C      19.89357641     10.82534240      1.16933580
H      18.91398005     10.58118637      1.74948314
H      20.74677606     11.48425325      0.83131999
C      20.61988725      6.96064892      1.14250129
H      20.62850793      6.65817417      2.06642775
H      20.46430849      6.28719666      0.39629666
