10
Family_1 [H]C([H])=C([H])C([H])=C([H])[H] | RMSD: 0.6657 | 7124.00 to state    1 from traj    1 on state    2
C      20.14256629      8.31826302      0.70858583
H      19.37841021      8.02420721      1.76906838
C      20.63412094      9.57350204      0.79187171
H      21.68038902      9.69604830      0.45795615
C      19.92041071     10.66391198      1.23309617
H      18.98461319     10.59134760      1.92644962
H      19.87690685     11.82438358      1.47558903
C      20.55252729      6.94953590      1.27946782
H      20.81588106      6.75147043      2.26012833
H      20.01531606      6.18631327      0.72933020
