10
Family_1 [H]C([H])=C([H])C([H])=C([H])[H] | RMSD: 0.4849 | 784.00 to state    2 from traj    2 on state    3
C      19.97127156      8.19304164      1.13105379
H      18.93975170      8.22755196      1.54804644
C      20.59675761      9.55271440      0.89973436
H      21.65121948      9.41743671      0.60692458
C      19.96292864     10.77362876      1.12134219
H      18.90277085     10.61834550      1.53624662
H      20.41525575     11.62041320      0.57214459
C      20.65189884      7.01858446      1.04757006
H      20.45653083      6.20288826      1.84110016
H      21.18158053      6.59682103      0.28965464
