10
Family_1 [H]C([H])=C([H])C([H])=C([H])[H] | RMSD: 0.5040 | 1988.00 to state    2 from traj    4 on state    1
C      19.96341774      8.17582519      1.19163172
H      18.90692671      8.37379100      1.44540724
C      20.61572688      9.57622433      0.88926234
H      21.70345677      9.62453318      0.96298317
C      19.97407354     10.65605757      1.09421454
H      18.87592600     10.51034887      0.73386636
H      20.40778454     11.59770689      1.34871275
C      20.73368918      7.06862731      0.96864499
H      20.51205996      6.90939640      2.15550154
H      19.90112090      6.39733497      0.41429002
