10
Family_1 [H]C([H])=C([H])C([H])=C([H])[H] | RMSD: 0.4239 | 4856.00 to state    1 from traj    1 on state    2
C      19.88817932      8.36113834      1.19269396
H      18.78001091      8.20167378      1.69345944
C      20.68142095      9.44191999      0.86823456
H      21.72926240      9.21279737      0.78041103
C      19.95771034     10.65522502      1.09322609
H      18.87278313     10.51237109      1.18049443
H      20.09062115     11.67199744      0.99397608
C      20.80923410      7.09076408      1.06529444
H      20.17988670      6.13350225      1.26036409
H      20.06324789      6.81911080      0.25009342
