10
Family_1 [H]C([H])=C([H])C([H])=C([H])[H] | RMSD: 0.7093 | 3224.00 to state    1 from traj    6 on state    2
C      20.02212909      8.24057919      1.07096959
H      19.03593953      8.17978111      1.04575150
C      20.62609382      9.63915462      0.69054346
H      21.49254545      9.82865724      0.18226149
C      19.97368172     10.55137386      1.23114625
H      18.88473158     10.57030987      1.49260129
H      20.39823087     11.51165015      1.42038243
C      20.48156986      6.96625851      1.22931372
H      21.49992983      7.25098223      1.80325564
H      21.18162378      7.01745673      0.18447146
