10
Family_1 [H]C([H])=C([H])C([H])=C([H])[H] | RMSD: 0.5771 | 4080.00 to state    2 from traj    9 on state    3
C      19.93999298      8.13548926      1.10816021
H      19.12890558      8.35991447      1.71066135
C      20.56804449      9.60588956      1.01456693
H      21.62628080      9.78248283      0.66469556
C      20.00362092     10.78704464      1.02183136
H      18.87736538     10.63454105      1.09075112
H      20.42996530     11.72904711      1.22170205
C      20.65785699      6.95951192      1.01497016
H      21.31652521      6.55007987      2.02994594
H      20.32703704      6.22357879      0.15503439
