10
Family_1 [H]C([H])=C([H])C([H])=C([H])[H] | RMSD: 0.5766 | 3228.00 to state    2 from traj    2 on state    3
C      20.02507180      8.25920891      1.03671337
H      19.22409844      8.22481014      1.73595481
C      20.56218907      9.52729685      0.94392492
H      21.68571018      9.74801930      0.71823067
C      19.96637573     10.68129590      1.10870508
H      18.88709756     10.74588333      1.38291236
H      20.45084632     11.62130063      0.81206805
C      20.57496329      6.99427420      1.10866957
H      21.38044688      6.77844382      1.74197977
H      20.56541574      6.46932053      0.02307863
