10
Family_1 [H]C([H])=C([H])C([H])=C([H])[H] | RMSD: 0.5205 | 3020.00 to state    2 from traj    2 on state    3
C      20.04122327      8.24049715      1.02111854
H      19.00940259      8.39049521      1.55559304
C      20.55663831      9.53876868      1.01544722
H      21.48998788      9.72182099      0.62365083
C      19.98529734     10.64446480      1.07114397
H      18.99305376     10.63986727      1.38333788
H      20.39454017     11.59429156      0.90149096
C      20.59172407      7.03667243      1.06079671
H      21.24601883      6.80833153      2.05844827
H      20.50911739      6.45290374      0.24329310
