10
Family_1 [H]C([H])=C([H])C([H])=C([H])[H] | RMSD: 0.5761 | 84.00 to state    3 from traj    1 on state    2
C      20.03850152      8.25803247      1.27895023
H      18.75713263      8.23033980      1.47185305
C      20.58635630      9.52356095      0.96615761
H      21.61072016      9.23946774      0.30035753
C      19.94101177     10.67669287      1.04876474
H      18.85976413     10.70774940      1.33117113
H      20.48953962     11.55821473      0.61094245
C      20.63868911      7.04842513      0.98577716
H      20.05789884      6.18142605      1.34414733
H      21.51345915      7.13871713      0.38299530
