10
Family_1 [H]C([H])=C([H])C([H])=C([H])[H] | RMSD: 0.4721 | 5420.00 to state    1 from traj    1 on state    2
C      20.06007896      8.23001087      1.19830204
H      19.04515245      8.16822054      1.62618647
C      20.56681644      9.51837455      0.82891203
H      21.62114696      9.28822550      0.81852757
C      19.92653778     10.73691544      1.08686669
H      18.89568138     11.14654658      0.84396261
H      20.37421381     11.52605399      1.49900891
C      20.73349228      7.01592624      1.08291283
H      20.41244032      5.92210101      1.34602593
H      19.95842414      7.07011675      0.29265904
