10
Family_1 [H]C([H])=C([H])C([H])=C([H])[H] | RMSD: 0.5474 | 796.00 to state    2 from traj    3 on state    3
C      19.98117977      8.17811425      1.22708405
H      19.03179768      8.33695472      1.66925151
C      20.55721974      9.55991133      0.97527206
H      21.57041900      9.39903087      0.70258256
C      19.96186971     10.77629757      1.02207243
H      18.95358581     10.92852235      1.50516207
H      20.41209053     11.56139270      0.55091449
C      20.66758894      6.96873464      0.98857933
H      20.39322799      6.07004555      1.62301305
H      21.36470524      7.04181783      0.18462600
