10
Family_1 [H]C([H])=C([H])C([H])=C([H])[H] | RMSD: 0.6036 | 620.00 to state    2 from traj    2 on state    3
C      19.98481785      8.19504856      1.18417754
H      18.99503981      8.47792478      1.48877447
C      20.54943629      9.57734239      0.87260615
H      21.57199314      9.57055005      0.35793261
C      19.95267609     10.74971181      1.06145899
H      19.07555478     10.91167566      1.80619332
H      20.43166125     11.66702907      0.93079433
C      20.68003137      6.94700545      1.07222246
H      20.07747366      6.07016141      1.26617544
H      21.58478681      6.80664160      0.65429112
