10
Family_1 [H]C([H])=C([H])C([H])=C([H])[H] | RMSD: 0.6178 | 68.00 to state    3 from traj    1 on state    2
C      20.05078229      8.23649351      1.21169136
H      19.09156080      8.41905223      1.65119583
C      20.56173831      9.50542924      0.98581569
H      21.50305089      9.54808926      0.49829454
C      19.95779497     10.73297519      1.01685974
H      18.94915450     10.82622515      1.62515390
H      20.26478081     11.65605021      0.64951641
C      20.62137016      7.01689859      0.98929784
H      20.03756319      6.07431507      1.38735659
H      21.59579444      6.70990413      0.53536323
