10
Family_1 [H]C([H])=C([H])C([H])=C([H])[H] | RMSD: 0.6032 | 136.00 to state    3 from traj    1 on state    2
C      19.97545392      8.25658679      1.27752546
H      19.07530627      8.26980992      1.82786442
C      20.61873785      9.50631139      0.95196988
H      21.61602964      9.46687536      0.58291886
C      19.94765276     10.68998641      1.02052724
H      18.86487235     10.59381809      1.30213078
H      20.39205690     11.62508290      0.76275196
C      20.64448033      7.04334327      0.96474447
H      20.08810749      6.26375741      1.34823968
H      21.46941036      6.96148993      0.39068208
