10
Family_1 [H]C([H])=C([H])C([H])=C([H])[H] | RMSD: 0.5318 | 8868.00 to state    1 from traj    1 on state    2
C      20.20769166      8.28848460      1.10150172
H      19.33293973      8.54472214      1.39313967
C      20.80915463      9.61538869      1.06849656
H      21.61809983     10.08125049      0.55058669
C      19.80724022     10.61951643      1.03576682
H      18.66984658     10.75978880      1.37133138
H      19.75886157     11.56526077      0.62197855
C      20.57259834      6.92202977      0.98726626
H      20.01671102      6.45668107      1.80522447
H      19.60274315      6.37854629      0.73132236
