10
Family_1 [H]C([H])=C([H])C([H])=C([H])[H] | RMSD: 0.7848 | 5992.00 to state    1 from traj    1 on state    2
C      20.06061260      8.16976621      1.33165629
H      19.20994495      8.30234910      2.21455934
C      20.59747847      9.57824785      1.18021417
H      21.62821678      9.82645469      1.21857610
C      19.87716462     10.76955375      0.88486508
H      19.06771953     10.78832280      0.06918516
H      20.67335756     11.67040985      0.85836533
C      20.70612627      6.95262955      0.84594916
H      20.73232391      5.85649681      1.22075211
H      19.53817785      7.04697144      0.30049213
