10
Family_1 [H]C([H])=C([H])C([H])=C([H])[H] | RMSD: 0.5357 | 2980.00 to state    2 from traj    2 on state    3
C      19.96998456      8.24238072      1.31410927
H      18.76389508      8.18376053      1.54209665
C      20.58199703      9.44756076      1.05971147
H      21.59492392      9.66541014      0.95813361
C      19.99192251     10.69627078      0.89163427
H      18.81223759     10.91983866      1.13579263
H      20.48882580     11.43600886      1.38661809
C      20.64801289      7.09254049      0.90344549
H      21.23524851      6.53455677      1.72911768
H      20.54401812      6.64948635      0.00936005
