10
Family_1 [H]C([H])=C([H])C([H])=C([H])[H] | RMSD: 0.6002 | 1344.00 to state    2 from traj    4 on state    3
C      20.12217581      8.22514903      1.28724301
H      19.06609089      8.14333916      1.53415537
C      20.55551850      9.60138938      0.88662397
H      21.83210564      9.84324962      0.96374425
C      19.90710637     10.78410140      1.00206003
H      18.73821704     10.95439629      1.14428642
H      20.64868934     11.46332596      1.43772004
C      20.53854868      6.87695935      1.01156424
H      21.25187398      6.46175063      1.60538807
H      20.71920177      6.41758872     -0.14569694
