10
Family_1 [H]C([H])=C([H])C([H])=C([H])[H] | RMSD: 0.5427 | 2736.00 to state    3 from traj    8 on state    2
C      19.94530149      8.18557406      0.99869169
H      19.01011112      8.10734806      1.67724287
C      20.56923143      9.51474449      0.79320083
H      21.68661077      9.34163396      0.54458883
C      19.99727765     10.72426123      1.19547514
H      18.99819220     10.68732474      1.37971514
H      20.43819327     11.86264319      1.17353149
C      20.62765973      7.08606498      1.20028018
H      21.28107623      6.54319245      1.66552548
H      20.64990328      6.46690415      0.09712779
