10
Family_1 [H]C([H])=C([H])C([H])=C([H])[H] | RMSD: 0.5515 | 6756.00 to state    1 from traj    8 on state    2
C      19.53885572      9.15737317      1.10947829
H      18.88015209      8.46701951      1.15810263
C      20.89071791      8.54312974      0.87406983
H      21.67300826      9.35436657      0.51620155
C      19.67316120     10.73792827      1.21757952
H      18.85834718     11.21289788      1.67496524
H      20.79444107     11.33023406      0.86621420
C      21.16277492      6.99107979      0.98467742
H      20.31361509      7.00768459      1.91958994
H      20.04267801      6.60360784      0.42461588
