10
Family_1 [H]C([H])=C([H])C([H])=C([H])[H] | RMSD: 0.6215 | 2116.00 to state    2 from traj    2 on state    3
C      19.98635173      8.22843419      1.23095903
H      18.97706174      8.20889341      1.66923041
C      20.62383292      9.57543577      0.94035522
H      21.64061109      9.71651022      0.54248125
C      19.92649768     10.71149385      1.00984033
H      19.02471492     10.90171268      1.81869716
H      20.35894879     11.55672102      0.67672174
C      20.64067023      6.96954809      1.00579977
H      20.01644859      6.08051231      1.34820137
H      21.59490906      6.85132122      0.49066279
