10
Family_1 [H]C([H])=C([H])C([H])=C([H])[H] | RMSD: 0.5947 | 3308.00 to state    1 from traj    1 on state    2
C      20.05190077      8.15036180      1.11615413
H      19.07342119      8.37278850      1.34906243
C      20.51440938      9.57112709      0.80662951
H      21.51806469      9.59975869      0.60696198
C      19.93040723     10.84363809      1.14558058
H      18.91379963     10.76976267      1.04668621
H      20.73639160     11.71683201      1.35335972
C      20.62071279      6.81714900      1.14816629
H      21.50152857      6.82525824      1.59006552
H      20.58350403      7.25424707      0.24743909
