10
Family_1 [H]C([H])=C([H])C([H])=C([H])[H] | RMSD: 0.7052 | 3884.00 to state    1 from traj    8 on state    2
C      20.05490729      8.24384398      0.87321847
H      19.68774331      7.79239358      1.97144859
C      20.59105818      9.55978302      1.03907075
H      21.61404972      9.56882407      0.83371454
C      19.92933398     10.78928790      1.10807091
H      18.80911075     10.84338012      1.34170956
H      20.38159729     11.67828108      0.85272139
C      20.60795979      6.94218245      1.05261534
H      21.06324301      6.81699812      1.89027047
H      19.98656796      6.01780058      1.01426548
