10
Family_1 [H]C([H])=C([H])C([H])=C([H])[H] | RMSD: 0.3265 | 3720.00 to state    1 from traj    6 on state    2
C      19.96472686      8.18337472      1.04183993
H      18.97169367      8.56828427      0.88997048
C      20.57260098      9.59997666      0.77209270
H      21.70638495      9.49344512      0.65299758
C      19.95525289     10.65736347      1.18771178
H      19.15977775     10.72151589      1.87261767
H      20.37754100     11.71711462      1.01333612
C      20.78530878      7.03316802      1.14669639
H      20.12037264      6.61932441      2.04735947
H      20.07895855      6.32740509      0.52981995
