10
Family_1 [H]C([H])=C([H])C([H])=C([H])[H] | RMSD: 0.2356 | 2412.00 to state    1 from traj    5 on state    2
C      20.00059917      8.25615278      1.21309058
H      18.90388918      8.32981437      0.97072259
C      20.61366525      9.56725076      1.03570710
H      21.34992345      9.15873477      0.32119477
C      19.97213366     10.62698863      1.03583319
H      18.95901751     10.75677422      1.42264631
H      20.17906198     11.54256524      0.68328068
C      20.77080534      7.08845699      1.02219900
H      20.05957351      6.28135530      1.57307575
H      20.01818414      6.60372818      0.14667698
