10
Family_1 [H]C([H])=C([H])C([H])=C([H])[H] | RMSD: 0.6735 | 4456.00 to state    1 from traj    5 on state    2
C      19.65021174      9.26781483      0.99478516
H      18.69765742      8.60530079      1.18230785
C      20.83459027      8.56494044      0.82615993
H      21.83070500      9.00261524      0.64972912
C      19.71095975     10.51985203      1.29972467
H      18.78420472     10.89409608      1.73367999
H      20.69056130     11.16783611      0.72842572
C      21.06789089      7.10653595      1.02887448
H      20.41352799      7.35893054      2.00191464
H      20.16771381      6.59394310      0.69570418
