10
Family_1 [H]C([H])=C([H])C([H])=C([H])[H] | RMSD: 0.4957 | 2988.00 to state    1 from traj    3 on state    2
C      20.19651895      8.25176102      1.54125511
H      19.46000511      8.32531685      0.73706789
C      20.68182714      9.59049481      1.11611908
H      21.60084930      9.74888054      0.62127306
C      19.86767012     10.53947946      0.89655954
H      18.89091809     10.70241634      1.16023636
H      20.16649580     11.47634340      0.34797950
C      20.48050781      7.08506331      0.82346449
H      20.19835107      6.21320025      1.63098158
H      20.71016352      7.06534569     -0.22081078
