10
Family_1 [H]C([H])=C([H])C([H])=C([H])[H] | RMSD: 0.5645 | 2492.00 to state    1 from traj    3 on state    2
C      20.12281105      8.25431775      1.56197070
H      19.38956794      7.99496916      0.69074848
C      20.63964608      9.59731769      1.12258020
H      21.52026381      9.36757009      0.64908108
C      19.88360952     10.68881710      0.87870835
H      18.99424616     10.80973423      1.36358988
H      20.23131693     11.46092383      0.16239730
C      20.57690831      7.00126626      0.87689995
H      20.32071676      5.86661574      0.91438534
H      20.61296069      7.13896532     -0.25131382
