10
Family_1 [H]C([H])=C([H])C([H])=C([H])[H] | RMSD: 0.6356 | 2168.00 to state    1 from traj    1 on state    2
C      19.96713740      8.26097201      1.25154573
H      18.87890224      8.19108081      1.23395494
C      20.65268407      9.55692672      0.85988516
H      21.74061899      9.28246921      0.58817378
C      19.96160185     10.55230244      1.08186242
H      18.94891056     10.31697734      0.85418477
H      20.31459127     11.60259161      1.34150073
C      20.59213075      7.07626616      1.06022674
H      21.42652063      6.76756165      1.67903736
H      20.34841195      7.61308345      0.05596786
