10
Family_1 [H]C([H])=C([H])C([H])=C([H])[H] | RMSD: 0.6276 | 2304.00 to state    1 from traj    1 on state    2
C      19.92495510      8.28041906      1.26666786
H      18.87913553      8.36475986      1.07751205
C      20.67500631      9.53758916      0.85861083
H      21.57226898      9.32017201      0.59120463
C      19.94949158     10.55604653      1.08770649
H      18.94498341     10.42531244      0.95823923
H      20.38623139     11.52501351      1.19359614
C      20.61652374      7.05008750      1.06425948
H      21.55132224      6.75441377      1.62199104
H      20.41430319      7.65011060      0.02758185
