10
Family_1 [H]C([H])=C([H])C([H])=C([H])[H] | RMSD: 0.5092 | 2188.00 to state    1 from traj    6 on state    2
C      20.04800188      8.29960167      1.49955150
H      19.48338735      8.21373203      0.40447119
C      20.57850316      9.52736827      0.98785705
H      21.59200656      9.72682113      0.58473142
C      19.95122982     10.69803848      1.00720254
H      18.85762437     10.73391150      1.39008087
H      20.19068045     11.37640533      0.20854042
C      20.63724135      6.98242673      0.91633857
H      20.23932294      6.04981837      1.45115611
H      20.80136125      6.94660283     -0.16204043
