10
Family_1 [H]C([H])=C([H])C([H])=C([H])[H] | RMSD: 0.6817 | 5488.00 to state    1 from traj    8 on state    2
C      19.97501427      8.23136951      1.30222265
H      19.67157485      7.90641814     -0.02777569
C      20.47243612      9.56433432      0.69843450
H      21.10942324      9.67004007     -0.15760219
C      20.00339772     10.78319482      1.17659294
H      19.04751568     10.75282456      1.95709412
H      20.70760501     11.69349380      1.09670506
C      20.69466112      6.93779689      1.17551886
H      20.15549697      5.94198117      1.46271668
H      21.30051303      6.97218966      0.23906411
