10
Family_1 [H]C([H])=C([H])C([H])=C([H])[H] | RMSD: 0.2317 | 1840.00 to state    1 from traj    1 on state    2
C      20.02261463      8.24803343      1.17614091
H      18.88748440      8.00038209      1.02929006
C      20.63161251      9.46959805      0.94946607
H      21.60987179      9.45638074      0.60523572
C      19.92020156     10.70889214      1.04781111
H      19.03403664     10.76476491      1.76509103
H      20.31079762     11.60473384      0.70740564
C      20.74208320      7.07840356      1.07561101
H      20.18168659      6.23050042      1.54476801
H      19.93063962      7.02041329      0.15454186
