10
Family_1 [H]C([H])=C([H])C([H])=C([H])[H] | RMSD: 0.4855 | 3788.00 to state    1 from traj    1 on state    2
C      20.14052287      8.28395083      1.15904374
H      19.22666498      8.26900130      1.62909644
C      20.70469715      9.58494616      1.23029982
H      21.63036268      9.49624177      0.76747348
C      19.85899425     10.66462045      0.90789280
H      18.74510225     10.42706425      1.32859613
H      20.15504851     11.61781595      0.61198541
C      20.62863995      6.96266804      0.87110578
H      20.26322262      6.89802492      1.99166756
H      19.73938590      6.47319039      0.43895282
