10
Family_1 [H]C([H])=C([H])C([H])=C([H])[H] | RMSD: 0.5955 | 120.00 to state    3 from traj    1 on state    2
C      20.01497333      8.25002441      1.22872442
H      19.07624501      8.15542195      1.36495064
C      20.54940101      9.51779350      0.88041295
H      21.51439816      9.48574099      0.33290647
C      19.97224951     10.72320259      1.08432435
H      19.01499405     10.70461190      1.57091265
H      20.38626360     11.50325649      0.81885572
C      20.63445386      7.03545813      1.04848868
H      20.08545865      6.15710089      1.20718471
H      21.61010368      6.81424302      0.59586953
