10
Family_1 [H]C([H])=C([H])C([H])=C([H])[H] | RMSD: 0.3550 | 1824.00 to state    2 from traj    4 on state    3
C      20.03170702      8.22911467      1.19700612
H      18.95097994      8.28647637      1.03601849
C      20.53571141      9.58280294      0.92194952
H      21.66427593      9.52770639      0.68279427
C      19.93183420     10.75566601      1.04813084
H      19.06803348     10.80171538      1.72112138
H      20.64425265     11.54161197      0.87593059
C      20.65899997      6.94817429      1.05056501
H      20.80993905      6.28758287      1.77868860
H      20.70280191      6.50302686      0.08566436
