10
Family_1 [H]C([H])=C([H])C([H])=C([H])[H] | RMSD: 0.6936 | 4720.00 to state    1 from traj    1 on state    2
C      19.96975352      8.20445729      0.96836790
H      18.84092368      8.52035374      0.69636976
C      20.62547600      9.63867136      0.69608361
H      21.32439247      9.66167951     -0.27426676
C      19.96433643     10.67697003      1.29089181
H      19.10289530     10.29186010      1.62422531
H      20.29630464     11.81352057      1.65368467
C      20.72762593      6.94199072      1.21356509
H      20.05236105      7.33676817      2.21495519
H      20.68700740      5.96343436      0.84605617
