10
Family_1 [H]C([H])=C([H])C([H])=C([H])[H] | RMSD: 0.4118 | 2404.00 to state    1 from traj    1 on state    2
C      19.99420197      8.26629176      1.07642605
H      18.82700913      8.50218485      1.27799365
C      20.56271319      9.47982581      0.91312818
H      21.61843168      9.20106969      0.72148144
C      19.98754938     10.61569313      1.07896077
H      19.02741909     10.38565872      1.50150275
H      20.33581338     11.43833294      1.33919894
C      20.75260648      7.16946517      1.04231823
H      20.30271460      6.83307670      2.10096044
H      20.07477995      6.40289006      0.51189218
