10
Family_1 [H]C([H])=C([H])C([H])=C([H])[H] | RMSD: 0.6744 | 2888.00 to state    1 from traj    1 on state    2
C      20.13280066      8.30636459      1.31185573
H      19.04191086      8.14801780      1.40506019
C      20.63270867      9.53065664      0.93179011
H      21.74687203      9.65066727      0.64983869
C      19.87586040     10.69542679      1.01578464
H      18.77113373     10.80347564      0.84193652
H      20.33045972     11.55687280      1.23359804
C      20.49219584      6.85991119      1.01172940
H      21.50308803      6.66351957      1.38669161
H      20.74098118      7.59594553      0.02550421
