10
Family_1 [H]C([H])=C([H])C([H])=C([H])[H] | RMSD: 0.6238 | 84.00 to state    3 from traj    1 on state    2
C      19.99889163      8.18218402      1.21542262
H      19.16513011      8.37763054      1.94689806
C      20.62737659      9.49619892      0.94837723
H      21.63392850      9.54978524      0.48881746
C      19.92661988     10.76858352      1.01087063
H      18.70485719     10.64457103      1.53396293
H      20.52687665     11.61038211      0.89771973
C      20.61434876      7.03251039      0.99812008
H      20.20130581      6.26115253      1.45738742
H      21.50113122      6.93691183      0.38998031
