10
Family_1 [H]C([H])=C([H])C([H])=C([H])[H] | RMSD: 0.3340 | 4284.00 to state    1 from traj    1 on state    2
C      20.06443941      8.36153257      1.14097610
H      19.06145990      8.44044920      1.37051038
C      20.58527414      9.52623763      0.82097620
H      21.79300390      9.55170339      0.74779738
C      19.88985203     10.66251483      1.10766415
H      18.81008314     10.82735049      1.23026205
H      20.42270838     11.40777871      1.44155208
C      20.77083832      6.92212405      1.08028940
H      20.14598412      6.35517391      1.84297523
H      19.79405816      6.88219484      0.35435562
