10
Family_1 [H]C([H])=C([H])C([H])=C([H])[H] | RMSD: 0.7338 | 3382.12 to state    1 from traj    7 on state    2
C      19.98865060      8.35849561      1.15196770
H      19.14086464      8.29998709      1.91145267
C      20.64480434      9.50859866      0.85824325
H      21.68397693      9.38074107      0.76754961
C      19.89831313     10.71648811      1.08977896
H      18.80026669     10.83939758      1.25401268
H      20.27632099     11.65976041      1.01873566
C      20.64231996      6.84845500      1.19236815
H      21.48844626      6.78029040      0.42152708
H      20.26171756      6.98553004     -0.08323909
