10
Family_1 [H]C([H])=C([H])C([H])=C([H])[H] | RMSD: 0.5314 | 740.00 to state    2 from traj    2 on state    3
C      20.02139185      8.18783528      1.18825332
H      19.01352943      8.29412647      1.65180351
C      20.53488549      9.50684133      0.90479926
H      21.55490995      9.48230739      0.54728889
C      19.97435286     10.75819201      1.05457304
H      19.11180000     10.93347147      1.49083148
H      20.26159265     11.85878526      0.96859312
C      20.65169022      7.01560853      1.05021983
H      20.26050929      6.15426585      1.45127492
H      21.35115738      6.78854580      0.30642814
