10
Family_1 [H]C([H])=C([H])C([H])=C([H])[H] | RMSD: 0.6713 | 4956.00 to state    2 from traj    2 on state    3
C      20.05628088      8.22179940      1.11964989
H      19.11514531      8.31839576      1.98602954
C      20.69381788      9.59878965      0.94705687
H      21.84968962      9.71862196      1.00859767
C      19.87591660     10.78632085      1.08095448
H      18.92591446     10.46433621      0.79602942
H      20.16986605     11.87703053      1.03353270
C      20.55021264      6.88812620      0.99995139
H      21.23392146      6.51213142      2.00034814
H      20.33155691      6.30451840      0.19024049
