10
Family_1 [H]C([H])=C([H])C([H])=C([H])[H] | RMSD: 0.4972 | 5560.00 to state    3 from traj    1 on state    2
C      19.95535220      8.20291945      1.05779972
H      18.76266197      8.28917755      0.84440819
C      20.60090532      9.44209639      0.83484023
H      21.49427362      9.79286988      0.42990653
C      19.94042950     10.69447500      1.18750910
H      19.27355762     11.14933179      1.74848491
H      20.53494139     11.69752184      0.84625791
C      20.63773452      7.07068328      1.14315559
H      21.20327281      6.74379284      1.99308505
H      20.85553874      6.53352814      0.25071414
