10
Family_1 [H]C([H])=C([H])C([H])=C([H])[H] | RMSD: 0.5989 | 168.00 to state    3 from traj    1 on state    2
C      19.95067576      8.23765651      1.15968568
H      19.01610692      8.05464949      1.50457300
C      20.55094170      9.50038085      0.84382581
H      21.48949385      9.30857333      0.46308336
C      19.98870550     10.72534870      1.11567130
H      18.98557751     10.56842369      1.58950363
H      20.58318939     11.63536265      0.91571218
C      20.65376713      7.07101949      1.05683268
H      20.29133732      6.24073265      1.64807450
H      21.64333388      6.91817908      0.55539237
