10
Family_1 [H]C([H])=C([H])C([H])=C([H])[H] | RMSD: 0.7150 | 12276.00 to state    1 from traj    5 on state    2
C      19.84335170      8.20390564      1.15166834
H      18.55950707      8.30353461      1.34503170
C      20.56295702      9.54357424      0.86620984
H      21.49051790      9.46588066      0.32011456
C      20.01584347     10.68093803      1.09113018
H      18.99607773     10.96246910      1.07082995
H      20.54246911     11.35386299      1.59726942
C      20.72455185      6.93544801      1.12096375
H      21.70107251      7.21417891      1.68213784
H      20.68824760      7.45808914      0.01802578
