10
Family_1 [H]C([H])=C([H])C([H])=C([H])[H] | RMSD: 0.6320 | 4832.00 to state    1 from traj    1 on state    2
C      19.68941761      9.24413584      1.08664172
H      18.83012387      8.70005031      1.27103616
C      20.90590972      8.46692343      0.72078664
H      21.65800825      9.17045378      0.50418092
C      19.67955585     10.58633175      1.33028048
H      18.65493797     10.91515082      1.24957224
H      20.44582881     11.22890554      1.10886871
C      21.01722402      7.10698390      1.05726555
H      20.37809082      7.05528398      1.94971518
H      20.27832544      7.20547904      0.36705750
