10
Family_1 [H]C([H])=C([H])C([H])=C([H])[H] | RMSD: 0.3684 | 3804.00 to state    2 from traj    8 on state    3
C      20.12061370      8.28477428      1.21268631
H      18.91563427      8.39676993      1.12075868
C      20.57961313      9.56519435      0.93720381
H      21.61848789      9.65481352      0.98417470
C      19.93524485     10.64891198      1.06806109
H      18.87577959     10.79688829      1.38871455
H      20.31770175     11.48403381      0.61817530
C      20.59881332      7.00057412      1.00190544
H      20.70572310      6.20712572      1.92076187
H      20.50097912      6.60275202      0.12135658
