10
Family_1 [H]C([H])=C([H])C([H])=C([H])[H] | RMSD: 0.5938 | 72.00 to state    3 from traj    1 on state    2
C      19.96257049      8.22505631      1.18197014
H      18.88226056      8.29937334      1.36674727
C      20.60836460      9.49156522      0.87510290
H      21.58405601      9.38308437      0.44147061
C      19.93381968     10.71600696      1.12055948
H      19.00360642     10.90827649      1.60674592
H      20.57071478     11.42141889      0.59946754
C      20.62618274      7.08110720      1.04909769
H      20.50674867      6.05798774      1.43960463
H      21.61837420      6.90207510      0.61800265
