10
Family_1 [H]C([H])=C([H])C([H])=C([H])[H] | RMSD: 0.5211 | 5932.00 to state    1 from traj    1 on state    2
C      20.10625058      8.22532185      0.87635271
H      18.98500868      8.05726915      0.39422527
C      20.39510845      9.58857244      0.71787581
H      21.00580689      9.91344138     -0.10236532
C      20.04137156     10.73789137      1.33671317
H      19.25574194     10.85669190      2.07006098
H      20.42394594     11.64323675      0.84476132
C      20.78710200      6.92173907      1.33236073
H      19.73804708      6.69002696      1.87470457
H      20.38724109      6.29069066      0.55486942
