10
Family_1 [H]C([H])=C([H])C([H])=C([H])[H] | RMSD: 0.6762 | 3000.00 to state    1 from traj    6 on state    2
C      19.65462560      9.14140710      1.26459727
H      18.53194433      8.87566557      1.16683024
C      20.89432572      8.55577417      0.97238006
H      21.67253449      9.21201444      1.07238715
C      19.66177247     10.58872124      1.10469173
H      18.95539656     11.26461369      1.30745146
H      20.66421881     11.06467634      0.85307484
C      21.06396386      7.10662578      0.83841180
H      20.55839108      7.33919615      1.93602296
H      20.07039574      6.66031775      0.29213052
