10
Family_1 [H]C([H])=C([H])C([H])=C([H])[H] | RMSD: 0.6484 | 8292.00 to state    1 from traj    1 on state    2
C      19.54571769      9.29980568      1.08390178
H      18.70396160      8.94094566      1.51253903
C      20.72178381      8.47227373      0.86419043
H      21.53902399      9.29312799      0.41580513
C      19.83107508     10.56637278      1.21534223
H      18.89094679     11.03646980      1.05948966
H      20.46000077     11.42529999      1.47830607
C      21.19079010      7.08303297      1.00643757
H      20.48817003      6.65900634      1.94127938
H      20.19586714      6.71659367      0.34212314
