10
Family_1 [H]C([H])=C([H])C([H])=C([H])[H] | RMSD: 0.6315 | 2536.00 to state    2 from traj    2 on state    3
C      19.96501989      8.24823307      1.09014525
H      19.02911945      8.18349794      1.69414208
C      20.53895536      9.48144278      0.87332881
H      21.56379967      9.26401786      0.66972415
C      19.97625826     10.68973416      1.12092615
H      18.90762353     11.13423926      1.01426196
H      20.69002117     11.51878737      1.51447764
C      20.63481167      7.08843282      1.05371261
H      21.28625101      6.69301524      1.84088888
H      20.87831363      6.24887572      0.39447982
