10
Family_1 [H]C([H])=C([H])C([H])=C([H])[H] | RMSD: 0.8002 | 3776.00 to state    1 from traj    4 on state    2
C      19.85476570      8.17523591      1.74553253
H      18.83354444      8.38921877      1.18325277
C      20.67602832      9.40257685      1.20760615
H      21.81513681      9.55145447      1.14811930
C      19.97776147     10.44745118      0.75036186
H      19.04687393     10.66359241      0.56622114
H      20.70521129     11.14359617      0.54645637
C      20.59250097      7.41308768      0.68700925
H      21.33933593      6.52141511      1.10280121
H      20.78171114      7.60119107     -0.42635627
