10
Family_1 [H]C([H])=C([H])C([H])=C([H])[H] | RMSD: 0.5822 | 708.00 to state    2 from traj    2 on state    3
C      20.03072059      8.24226693      1.03105915
H      19.06412207      8.42305216      0.97546844
C      20.63208183      9.58275446      0.98460416
H      21.77822164      9.27425412      0.86639047
C      19.90996524     10.69167306      1.06808390
H      19.02161412     10.79476710      1.85156382
H      20.26049658     11.57213363      0.78940678
C      20.60516852      6.99780973      1.07021435
H      21.52576613      6.67924797      1.68408219
H      19.95551923      6.21960397      0.77221444
