10
Family_1 [H]C([H])=C([H])C([H])=C([H])[H] | RMSD: 0.7956 | 3736.00 to state    1 from traj    3 on state    2
C      19.76765564      9.32859893      1.20495258
H      18.72777839      8.75662114      1.89700999
C      20.93306270      8.49610320      1.14214702
H      21.79842901      8.78187040      0.67529878
C      19.61507857     10.60457290      1.03605261
H      18.69015061     11.32144001      1.37209018
H      20.10358414     11.05118534      0.30813910
C      21.01030690      7.01637275      0.88122373
H      20.38906789      6.27578005      1.38555343
H      20.13121265      7.59663254     -0.01462709
