10
Family_1 [H]C([H])=C([H])C([H])=C([H])[H] | RMSD: 0.5263 | 4564.00 to state    1 from traj    1 on state    2
C      19.99541357      8.23655540      0.92678877
H      18.92336879      8.24654527      0.65682792
C      20.61035513      9.49051935      0.71019056
H      21.51795761      9.35919737     -0.05945341
C      19.97726062     10.61863988      1.29969179
H      19.05803466     10.45243454      1.93681675
H      20.20892111     11.63468901      1.27685006
C      20.72528175      7.14987022      1.23408158
H      19.96709824      7.13891086      2.24729001
H      20.37685467      6.35671861      0.68071698
