10
Family_1 [H]C([H])=C([H])C([H])=C([H])[H] | RMSD: 0.6824 | 6096.00 to state    1 from traj    1 on state    2
C      19.61948868      9.32571953      1.19113538
H      18.60022865      8.87675354      1.38148032
C      20.83185413      8.44791478      0.92475686
H      21.54964192      9.31034802      0.44804648
C      19.67287722     10.69224681      1.12670607
H      18.83220703     11.19811207      1.35979737
H      20.78524217     11.04009320      1.17600159
C      21.10693560      6.96979505      0.98675292
H      20.88521357      6.17584629      1.63304039
H      20.31906091      7.30119484      0.04244124
