10
Family_1 [H]C([H])=C([H])C([H])=C([H])[H] | RMSD: 0.9054 | 7888.00 to state    1 from traj    4 on state    2
C      19.83327277      8.24091743      0.74983292
H      18.97271116      7.74928145      1.57374004
C      20.71032682     10.59924639      0.63549657
H      21.57705682     10.05026333      0.13624326
C      20.09950311      9.64491120      1.34109934
H      19.37768983     10.06061694      2.01570283
H      20.80463947     11.60866580      0.85176293
C      20.48018125      7.06453860      1.34902198
H      20.70371561      6.92160164      2.42672094
H      20.82114504      6.15427711      0.87046488
