10
Family_1 [H]C([H])=C([H])C([H])=C([H])[H] | RMSD: 0.7103 | 2248.00 to state    1 from traj    1 on state    2
C      19.89600611      8.26433170      1.09776644
H      18.81062971      8.16269386      0.98722776
C      20.59541617      9.52269505      0.85555521
H      21.51142060      9.40178895      0.51948318
C      19.99060996     10.66319732      1.13458124
H      19.22867887     10.64571613      1.97559990
H      20.25853005     11.57842531      0.61504808
C      20.62142027      6.96081804      1.18834356
H      21.65700492      7.14314859      1.22947234
H      21.02699877      7.26410648      0.15518805
