10
Family_1 [H]C([H])=C([H])C([H])=C([H])[H] | RMSD: 0.2788 | 5080.00 to state    1 from traj    3 on state    2
C      20.01779497      8.22277367      1.15374314
H      18.94882116      8.22662874      1.26910685
C      20.68361904      9.62185611      0.90525753
H      21.79670154      9.46760402      0.76108126
C      19.87091455     10.70315634      1.03380496
H      19.05900269     10.78405741      1.70671601
H      20.22781308     11.70558239      1.08882584
C      20.72898033      6.94469645      1.05538729
H      20.21141973      6.19632626      1.85985793
H      19.89191258      6.84526258      0.32227548
