10
Family_1 [H]C([H])=C([H])C([H])=C([H])[H] | RMSD: 0.5618 | 2928.00 to state    2 from traj    8 on state    3
C      19.88688854      8.20516197      0.90524251
H      18.93407340      8.36690528      1.52022905
C      20.60663318      9.46867431      0.85393273
H      21.64420382      9.40776924      0.41249066
C      19.93790567     10.78088147      1.23620131
H      19.05618826     11.02950634      1.80196329
H      20.52550904     11.40041447      0.70455008
C      20.71207786      7.01390525      1.15792012
H      20.92951612      7.05792141      2.19133276
H      20.92651695      6.24724748      0.31648292
