10
Family_1 [H]C([H])=C([H])C([H])=C([H])[H] | RMSD: 0.6130 | 136.00 to state    3 from traj    1 on state    2
C      19.99604067      8.24728596      1.28577067
H      18.90117763      8.17270078      1.61457676
C      20.62419538      9.47141616      0.91565786
H      21.57390580      9.32008248      0.30581799
C      19.95087999     10.69871787      1.03899994
H      18.85847092     10.60048941      1.46554804
H      20.37741109     11.66615844      0.90119142
C      20.63463829      7.10103276      1.00843486
H      19.95704505      6.31044849      1.18705496
H      21.60625732      6.84612934      0.33411838
