10
Family_1 [H]C([H])=C([H])C([H])=C([H])[H] | RMSD: 0.7400 | 2020.00 to state    1 from traj    3 on state    2
C      19.67962979      9.18298772      1.13299439
H      18.65953724      8.68424116      0.89263942
C      20.90119876      8.59664061      0.99475148
H      21.65690471      9.04481387      0.47027467
C      19.64474586     10.56962595      1.18350171
H      18.94740351     11.28877131      1.18647582
H      20.71750697     10.75642493      0.99657321
C      21.01897490      7.10670948      0.87503858
H      20.79209375      7.35438351      2.01589518
H      20.03855332      6.53197275      0.99209853
