10
Family_1 [H]C([H])=C([H])C([H])=C([H])[H] | RMSD: 0.3634 | 1704.00 to state    1 from traj    1 on state    2
C      19.95153089      8.21695787      1.17577430
H      18.83982346      8.35180762      1.32448467
C      20.67688097      9.54198523      1.04354923
H      21.51846345      9.29980876      0.74140651
C      19.91550096     10.67672501      1.02694538
H      18.87351653     10.95935447      1.37004572
H      20.53627963     11.45207436      0.76677448
C      20.73949989      7.11330570      0.93692851
H      20.37969626      6.48595346      1.83759863
H      20.20113649      6.00333142      0.55045122
