10
Family_1 [H]C([H])=C([H])C([H])=C([H])[H] | RMSD: 0.5074 | 4544.00 to state    1 from traj    3 on state    2
C      19.93171645      8.27962199      1.06132260
H      19.07667597      8.11967367      1.60491837
C      20.66954323      9.51038978      0.84414522
H      21.86828004      9.07016612      0.88699001
C      19.95025731     10.62308324      1.11325785
H      18.89021480     10.45091223      1.30740798
H      20.10454205     11.57608219      1.34893809
C      20.72513156      7.09794541      1.07551571
H      20.65496374      6.71976161      1.96448108
H      19.83483879      7.06773618      0.53799679
