10
Family_1 [H]C([H])=C([H])C([H])=C([H])[H] | RMSD: 0.3066 | 13408.00 to state    1 from traj    6 on state    2
C      20.06672909      8.17204300      1.16569576
H      19.03270226      8.65609027      0.98761516
C      20.50203207      9.56297394      0.77998046
H      21.47165295      9.81173768      0.40932749
C      19.92472083     10.79747478      1.16717874
H      18.99353173     11.28454333      1.31949712
H      20.62941095     11.58813744      1.09833038
C      20.76503405      6.90190813      1.17797502
H      20.32832014      5.89708851      1.48419166
H      20.18995845      6.67995886      0.00928482
