10
Family_1 [H]C([H])=C([H])C([H])=C([H])[H] | RMSD: 0.4906 | 14392.00 to state    1 from traj    3 on state    2
C      20.09706694      8.30516369      1.00320943
H      18.84637914      8.30646807      1.06920993
C      20.58984718      9.56608410      0.84861814
H      21.76476414      9.71045281      0.56314592
C      19.93810024     10.55623442      1.19060619
H      18.77025798     10.39482370      1.51414755
H      20.55570753     11.66197656      1.06406470
C      20.67151249      7.04708852      1.09884685
H      20.27317704      7.23079868      2.03828987
H      19.98236613      6.13437319      0.84137016
