10
Family_1 [H]C([H])=C([H])C([H])=C([H])[H] | RMSD: 0.4544 | 8496.00 to state    1 from traj    3 on state    2
C      19.90977800      8.19321439      1.04453497
H      18.85079224      7.92974493      1.01742830
C      20.49282335      9.51309469      0.84139016
H      21.67357549      9.61734893      0.38123274
C      20.02201647     10.65191583      1.16639774
H      19.19433327     10.79774114      1.59701332
H      20.72196181     11.68392124      1.28855911
C      20.79248305      7.11236142      1.09029137
H      20.23630037      7.18636259      2.22074910
H      20.46210305      6.27125105      0.56935457
