10
Family_1 [H]C([H])=C([H])C([H])=C([H])[H] | RMSD: 0.5116 | 2024.00 to state    2 from traj    2 on state    3
C      19.89648624      8.25101117      1.24240584
H      18.57021090      8.34901750      0.93063951
C      20.51481308      9.50825180      1.01415640
H      21.56525118      9.48448750      0.68419360
C      20.03665117     10.74663561      1.05131306
H      18.99769166     10.85655069      1.49269852
H      20.44648906     11.52956720      0.30957395
C      20.72259470      6.99631323      1.01122057
H      21.28094725      6.21632581      1.68199665
H      20.83321843      6.67358214     -0.12766280
