10
Family_1 [H]C([H])=C([H])C([H])=C([H])[H] | RMSD: 0.4217 | 1544.00 to state    3 from traj    3 on state    2
C      20.00543637      8.16713548      1.21964225
H      18.86723746      8.33502973      1.09591297
C      20.55734938      9.58124437      0.99861480
H      21.68994302      9.46328602      0.74843150
C      19.94586933     10.76742987      1.01114078
H      18.93094369     11.10864530      1.17724508
H      20.58838586     11.55361742      1.17194205
C      20.67768390      6.98179498      0.96661950
H      21.15368581      6.38145226      1.85267485
H      20.27541900      6.32239695      0.39179691
