10
Family_1 [H]C([H])=C([H])C([H])=C([H])[H] | RMSD: 0.6518 | 4084.00 to state    2 from traj    2 on state    3
C      19.98186899      8.20101010      1.32251595
H      19.07886245      8.32461914      1.56083923
C      20.62530272      9.58030198      1.19168617
H      21.69267123      9.80845946      1.38562895
C      19.94153580     10.75769192      0.86605736
H      18.92663793     10.73241894      1.20662662
H      20.41447885     11.69529568      0.36151912
C      20.61817003      6.96237258      0.84362440
H      21.41319236      6.31719457      1.47509105
H      20.21166812      6.24149544      0.11624963
