10
Family_1 [H]C([H])=C([H])C([H])=C([H])[H] | RMSD: 0.3838 | 2300.00 to state    1 from traj    1 on state    2
C      19.88498354      8.18625313      1.21489741
H      18.98269403      8.15589329      1.54915733
C      20.58649308      9.51451022      1.11573887
H      21.63787324      9.56568490      0.96313723
C      20.04240166     10.65155731      0.94514991
H      18.96803654     10.62150265      1.40544596
H      20.25519793     11.63844149      0.50053832
C      20.77371469      7.17569390      0.92817106
H      20.42260118      6.23949522      1.66551252
H      20.03270234      6.58105610      0.25960243
