10
Family_1 [H]C([H])=C([H])C([H])=C([H])[H] | RMSD: 0.4465 | 6892.00 to state    2 from traj    5 on state    3
C      19.96767945      8.29223343      1.01760025
H      18.97377232      8.27112217      1.02152696
C      20.59558550      9.45771486      0.87736317
H      21.69474715      9.51628219      0.70009140
C      19.98381122     10.71376194      1.20146730
H      19.13301179     10.88501866      1.87978120
H      19.84925274     11.31155781      0.29311414
C      20.70109310      7.05078874      1.13036417
H      20.64619047      6.51989718      1.98295849
H      20.47189083      6.45924307      0.19379579
