10
Family_1 [H]C([H])=C([H])C([H])=C([H])[H] | RMSD: 0.6036 | 3336.00 to state    1 from traj    1 on state    2
C      19.72152015      9.21123349      1.18623990
H      18.68137430      8.72502013      1.14927425
C      20.89188700      8.52570830      0.81692002
H      21.85923836      9.16171034      0.62782621
C      19.62253692     10.59380622      1.22367246
H      18.92036598     11.33866649      1.40103710
H      20.56033877     10.94034099      0.96696631
C      21.03667870      7.08359224      0.99056930
H      20.29660903      6.73242705      1.86387611
H      20.15955876      7.25841474      0.17421428
