10
Family_1 [H]C([H])=C([H])C([H])=C([H])[H] | RMSD: 0.6599 | 2956.00 to state    1 from traj    5 on state    2
C      19.64911809      9.17272275      1.25366628
H      18.72920627      8.74813151      1.18578681
C      20.85243644      8.54579738      1.06596117
H      21.84136960      9.02057228      0.63075740
C      19.70636860     10.55256188      1.10901177
H      18.78611041     11.13243947      0.91800243
H      20.66621525     10.89194869      0.77876053
C      21.05648613      7.19815847      0.80497661
H      20.56962761      6.93862985      1.86905370
H      19.98282569      6.77068465      0.60763090
