10
Family_1 [H]C([H])=C([H])C([H])=C([H])[H] | RMSD: 0.8463 | 4612.00 to state    1 from traj    4 on state    2
C      20.10394779      8.16503799      1.22090323
H      19.17051797      8.09886542      1.73485749
C      20.58971152      9.52973838      0.80019927
H      21.02451215      9.97688867      1.84385388
C      19.91453070     10.80718929      1.01769796
H      19.40250787     10.94580284      2.01799833
H      20.28247941     11.98683887      0.61119107
C      20.57329165      6.94068751      1.01630389
H      20.09866874      5.99777423      1.37095221
H      21.58480697      6.81304215      0.53822359
