10
Family_1 [H]C([H])=C([H])C([H])=C([H])[H] | RMSD: 0.4611 | 2296.00 to state    1 from traj    1 on state    2
C      20.03191553      8.20318376      0.97908307
H      19.02083380      8.07509820      1.37975446
C      20.57482633      9.53452763      1.01860063
H      21.58547774      9.43948059      0.50434551
C      19.96745811     10.72218395      1.11478324
H      18.82923486     10.64673887      1.46914846
H      20.42772446     11.64973008      0.80773744
C      20.71512287      7.04485706      1.02815337
H      20.31713007      7.09228216      2.03480633
H      20.09809170      6.17592804      0.90230397
