10
Family_1 [H]C([H])=C([H])C([H])=C([H])[H] | RMSD: 0.6164 | 9212.00 to state    1 from traj   17 on state    2
C      19.73485468      9.28990849      1.21448618
H      19.05278678      8.53932650      1.18443543
C      21.01328822      8.53874376      0.90081006
H      21.79308903      9.19330358      0.64328448
C      19.56269630     10.55469350      1.14371579
H      18.71965906     11.10358026      1.44138010
H      20.51992062     10.96168286      1.16002401
C      20.99141948      7.07882872      0.92345135
H      20.28499626      6.94830768      1.73783857
H      19.75390160      6.84040189      0.43254512
