10
Family_1 [H]C([H])=C([H])C([H])=C([H])[H] | RMSD: 0.4080 | 1444.00 to state    2 from traj    4 on state    3
C      20.05004567      8.27492230      1.10816424
H      19.03907849      7.85675165      0.90075127
C      20.49836787      9.56966309      0.94505081
H      21.49739526      9.47029006      0.42879002
C      19.92752713     10.85044067      1.13128590
H      18.87816552     11.19038121      1.45008098
H      20.81334484     11.50413131      0.82708662
C      20.69729691      6.83363846      1.06828846
H      20.95828777      6.49966163      2.03339248
H      20.47545483      6.27311304      0.12142442
