10
Family_1 [H]C([H])=C([H])C([H])=C([H])[H] | RMSD: 0.5422 | 2432.00 to state    1 from traj    1 on state    2
C      19.95738288      8.26611031      1.21841432
H      19.01921773      8.39036116      1.74585236
C      20.62020844      9.42890765      0.96860059
H      21.76430486      9.28967161      1.16311973
C      19.95547864     10.68118219      0.97413732
H      18.84855902     10.34480760      1.05274443
H      20.35687121     11.72509119      1.23876425
C      20.72728832      7.11814987      0.96833615
H      20.77204106      6.23457895      1.62524890
H      19.86263107      7.21869901      0.40501107
