10
Family_1 [H]C([H])=C([H])C([H])=C([H])[H] | RMSD: 0.2098 | 2832.00 to state    1 from traj    1 on state    2
C      20.07983584      8.28722112      1.07364858
H      18.92280833      8.07610843      1.00925183
C      20.63524526      9.50739469      0.84064286
H      21.61048193      9.60131859      0.36236159
C      19.87148934     10.71134714      1.16487055
H      19.01828835     10.75376946      1.63508568
H      20.40249304     11.70014118      0.87860046
C      20.72230508      6.95856707      1.15106926
H      20.09749247      6.32469994      1.90316678
H      19.99394506      7.10249709      0.24185501
