10
Family_1 [H]C([H])=C([H])C([H])=C([H])[H] | RMSD: 0.6465 | 9584.00 to state    1 from traj    4 on state    2
C      20.02630963      8.21123418      1.16367583
H      18.98162407      8.16328756      1.45529647
C      20.58694799      9.49736673      0.88332354
H      21.70776165      9.60772586      0.80740887
C      19.94885244     10.69576608      1.04950067
H      18.80480844     10.78410628      1.44266887
H      20.54361753     11.57139432      1.15760836
C      20.55618826      6.99273202      1.10997563
H      21.68569901      6.88815570      1.34833633
H      20.59285451      7.34735103      0.10206631
