10
Family_1 [H]C([H])=C([H])C([H])=C([H])[H] | RMSD: 1.0423 | 15592.00 to state    1 from traj    8 on state    2
C      19.37423826      8.36581170      1.01923817
H      19.21734102      8.16115382      2.03026946
C      21.11042309      9.70451654      0.76349079
H      21.27240026      8.98691709     -0.07784899
C      19.87582988      9.71240701      1.22536084
H      19.36765346     10.58010626      1.66675247
H      21.45046413     10.69433082      0.97777523
C      20.63167733      7.70097355      1.15099772
H      21.21124619      7.56941406      1.99151041
H      21.30018122      7.33808476      0.28958830
