10
Family_3 [H][C+]([H])C1([H])[C-]([H])C1([H])[H] | RMSD: 0.6790 | 6616.00 to state    1 from traj    4 on state    2
C      19.07315108      9.20385165      1.67703594
H      18.85890020      8.21979941      1.84995644
C      20.89324689      8.79792792      1.08015108
H      21.02557053      8.62404773      2.14007360
C      19.90618430     10.01671332      0.96246898
H      20.58801326     10.89460339      1.26228854
H      19.49896870     10.33260344      0.06804701
C      21.21510340      7.53683041      0.50997452
H      20.89641703      7.27906617     -0.47392108
H      21.81326585      7.12655140      1.19103505
