10
Family_1 [H]C([H])=C([H])C([H])=C([H])[H] | RMSD: 0.6898 | 2584.00 to state    1 from traj    3 on state    2
C      19.94272421      8.26148720      1.20283401
H      18.85837750      8.43436834      1.27445639
C      20.72791144      9.55367817      0.96073319
H      21.58753554      9.74724095      0.24952651
C      19.92907779     10.59463301      1.05633500
H      19.00244275     10.43752388      1.34058290
H      20.14204898     11.68497720      0.80468044
C      20.53806902      6.96189852      1.09452016
H      21.66737893      6.91751374      1.40913083
H      20.82641483      7.44308012     -0.05124960
