10
Family_1 [H]C([H])=C([H])C([H])=C([H])[H] | RMSD: 0.6007 | 228.00 to state    3 from traj    1 on state    2
C      20.00387836      8.28298466      1.25547266
H      18.97375469      8.47903852      1.49832462
C      20.62539955      9.49960202      0.87723238
H      21.58513213      9.37234010      0.44680195
C      19.93452504     10.64098691      1.08244002
H      18.87781981     10.66838889      1.44712063
H      20.36286346     11.84699501      0.75114150
C      20.61582047      7.04718239      1.02130020
H      20.18952797      6.15102564      1.31215966
H      21.59653714      6.96656027      0.50072878
