10
Family_1 [H]C([H])=C([H])C([H])=C([H])[H] | RMSD: 0.7601 | 3184.00 to state    1 from traj    5 on state    2
C      19.71913170      8.15724144      0.91162255
H      19.71592162      7.79133323      2.17038745
C      20.57752708      9.52676078      1.00813523
H      21.61255955      9.39853536      0.37906217
C      20.04321082     10.71270186      1.09565567
H      19.05621636     10.82704313      1.30794388
H      20.60035967     11.62493517      1.24724977
C      20.73588301      7.10475434      1.07902304
H      21.34861349      7.16541766      1.96121393
H      20.48965528      6.31124336      0.58255034
