10
Family_1 [H]C([H])=C([H])C([H])=C([H])[H] | RMSD: 0.6490 | 8132.00 to state    1 from traj    6 on state    2
C      19.90523347      8.25035641      1.03749535
H      18.86118933      8.02246084      1.40752485
C      20.59675964      9.49923640      0.89614063
H      21.28126551      9.52487387      0.02990889
C      19.98818633     10.67217158      1.17304423
H      18.95127728     10.71496940      1.17274261
H      20.72187019     11.48235656      0.97177015
C      20.64912481      7.02662397      1.22418961
H      21.73052890      6.75456759      1.30239653
H      20.51993410      7.25164526     -0.05319812
