10
Family_1 [H]C([H])=C([H])C([H])=C([H])[H] | RMSD: 0.5502 | 1192.00 to state    2 from traj    2 on state    3
C      19.89020533      8.22410487      1.12020905
H      19.07067708      8.10796114      1.82080032
C      20.57773701      9.51186579      0.95049616
H      21.56613265      9.71190405      0.79063963
C      20.00127278     10.76398665      1.06927846
H      18.88451133     10.87179644      1.25703541
H      20.49642392     11.60868525      0.92640335
C      20.67766689      6.99812929      1.02692004
H      21.10407635      6.42214016      1.89871602
H      20.85394985      6.43619861      0.09131711
