10
Family_1 [H]C([H])=C([H])C([H])=C([H])[H] | RMSD: 0.8443 | 2724.00 to state    1 from traj    3 on state    2
C      19.95729146      8.15767014      1.16477482
H      19.04590818      8.24601240      1.96720314
C      20.59812733      9.55883178      0.85272388
H      20.86978977      9.89247719      1.88501250
C      19.95443963     10.75652449      1.03205830
H      19.34292042     11.17369126      1.87482945
H      20.47411228     11.54563601      0.42859017
C      20.66013033      6.96399454      0.99384432
H      20.39651718      6.15801618      1.73115759
H      21.57119105      6.87049078      0.36973327
