10
Family_1 [H]C([H])=C([H])C([H])=C([H])[H] | RMSD: 0.3848 | 3808.00 to state    1 from traj    1 on state    2
C      19.97711355      8.19153432      0.96832869
H      18.96232260      8.17657688      0.74624630
C      20.44152393      9.57993051      0.76118903
H      21.15065977      9.33346717      0.08007523
C      20.03545595     10.78144671      1.23154350
H      19.22238632     10.95593293      2.04220184
H      20.50041420     11.72190859      0.92922245
C      20.80191949      6.97857038      1.30563340
H      20.38505229      5.86496618      1.57180792
H      20.45456764      6.70790606      0.22628186
