10
Family_1 [H]C([H])=C([H])C([H])=C([H])[H] | RMSD: 0.5747 | 2384.00 to state    2 from traj    2 on state    3
C      19.83149761      8.22727578      1.20427901
H      18.94525129      7.78135830      1.54339254
C      20.60137317      9.57121640      1.04460909
H      21.60905325      9.19812139      0.99921911
C      20.06882273     10.68770453      1.01455798
H      18.98616149     10.57147111      1.29857195
H      20.09014248     11.68587491      0.48117117
C      20.69419180      7.08527373      0.96537066
H      21.20157229      6.48227251      1.74135894
H      20.55968308      6.56516933     -0.01653752
