10
Family_1 [H]C([H])=C([H])C([H])=C([H])[H] | RMSD: 0.7418 | 7712.00 to state    1 from traj    3 on state    2
C      19.99657038      8.24638018      1.25484374
H      18.86834033      8.19141089      1.68780687
C      20.72201639      9.54169118      0.78938359
H      21.71604251      9.37147690      1.14698883
C      19.90423563     10.74383001      1.08794095
H      18.92229365     10.42520109      0.92548554
H      20.01910833     11.86650999      1.17236431
C      20.57170116      6.92013615      1.11495562
H      21.59548249      6.55394255      0.94674567
H      20.28682282      7.29884991     -0.05035701
