10
Family_1 [H]C([H])=C([H])C([H])=C([H])[H] | RMSD: 0.6403 | 252.00 to state    3 from traj    1 on state    2
C      19.97832062      8.19592693      1.28402078
H      18.97708902      8.17431643      1.69132773
C      20.53649576      9.51730421      1.04620502
H      21.79682251      9.53463229      0.58851031
C      19.97527763     10.73895774      0.97018580
H      19.00930158     10.98739188      1.40552199
H      20.40824568     11.56388490      0.54527702
C      20.63924177      7.02133641      0.91973977
H      20.36493986      6.09769911      1.40798772
H      21.62844770      7.09342555      0.51180517
