10
Family_1 [H]C([H])=C([H])C([H])=C([H])[H] | RMSD: 0.7772 | 8856.00 to state    1 from traj    4 on state    2
C      20.04199391      8.25605091      1.37744338
H      19.27317970      8.28299188      2.14273921
C      20.75156896      9.52464328      1.15739965
H      21.79752935      9.70909422      1.71056780
C      19.91102032     10.56068686      0.85363025
H      18.88706597     10.38985404      0.58029421
H      19.92526228     11.61910434      0.61954334
C      20.61302330      7.17953679      0.77988301
H      20.45649693      6.17633596      1.38614967
H      19.60193971      6.70925528      0.32830908
