10
Family_1 [H]C([H])=C([H])C([H])=C([H])[H] | RMSD: 0.7537 | 4856.00 to state    1 from traj    1 on state    2
C      19.92779093      8.19268013      1.23848263
H      18.98804673      7.55568131      1.17109949
C      20.51531068      9.41573803      0.96671570
H      21.68850329      9.16848530      0.88249793
C      20.05184959     10.78118082      1.04055064
H      18.86318499     10.73728580      1.38691587
H      20.29619849     11.83456250      0.60596237
C      20.62842383      7.02966966      1.03265884
H      21.64473732      7.07496789      1.32426702
H      20.77520198      7.72687182      0.08552253
