10
Family_1 [H]C([H])=C([H])C([H])=C([H])[H] | RMSD: 0.3697 | 6464.00 to state    1 from traj    4 on state    2
C      19.98972984      8.20337370      1.12205526
H      18.96113678      8.39306061      1.16486793
C      20.69741760      9.73957569      0.91123129
H      21.77234391      9.70884281      0.42637520
C      19.89831197     10.73595132      1.09259482
H      18.85514575     10.33867066      1.53062523
H      20.22329065     11.59730144      0.99899374
C      20.74869771      6.84625722      1.05546953
H      20.04937176      6.51537187      2.00432543
H      19.88297315      6.28286488      0.48757622
