10
Family_1 [H]C([H])=C([H])C([H])=C([H])[H] | RMSD: 0.5703 | 84.00 to state    3 from traj    1 on state    2
C      20.00140269      8.23635214      1.12589511
H      19.10647875      8.50694910      1.63762857
C      20.59140219      9.52790931      0.87424396
H      21.40721248      9.37792999      0.41446076
C      19.93018552     10.69924199      1.09165200
H      19.15564191     10.64507772      1.70033029
H      20.39570333     11.59326201      0.84201029
C      20.64175984      7.01740607      1.10272048
H      20.27705111      6.14767970      1.45804252
H      21.42077174      7.09246367      0.40347331
