10
Family_1 [H]C([H])=C([H])C([H])=C([H])[H] | RMSD: 0.6009 | 960.00 to state    2 from traj    2 on state    3
C      20.00421917      8.18888917      1.21044391
H      19.05512819      8.08354811      1.93076728
C      20.56585292      9.55697310      1.01116573
H      21.56981957      9.73884193      0.36010276
C      19.96018230     10.77515865      0.99861964
H      18.95135774     10.85838965      1.39789528
H      20.42670109     11.59756472      0.74582969
C      20.66023402      6.96334603      0.99774748
H      20.05001347      6.01089581      1.49849888
H      21.40315150      7.03292420      0.24324803
