10
Family_9 [H]C([H])=C=C([H])C([H])([H])[H] | RMSD: 0.0000 | 6972.00 to state    1 from traj    1 on state    2
C      19.94084401      8.42249916      1.18918589
H      19.12531031      8.21763993      1.75253835
C      20.79832324      9.46340156      0.94066490
H      20.90556625      6.44141922      1.83774008
C      19.83147076     10.71925164      1.01628184
H      18.90662730     10.46177528      1.56513918
H      20.01326512     11.75874407      0.84600919
C      20.68135978      7.07393718      1.03678534
H      21.69632498      7.41384167      0.48959056
H      20.07615183      6.70849322      0.10307366
