10
Family_1 [H]C([H])=C([H])C([H])=C([H])[H] | RMSD: 0.6785 | 2264.00 to state    2 from traj    2 on state    3
C      19.89621887      8.16278665      1.08931294
H      18.95431063      8.05904227      0.51028634
C      20.55257079      9.53916030      0.76507333
H      21.26085812      9.77868022     -0.00820669
C      20.06111478     10.77122464      1.22411704
H      19.13979120     10.58712203      1.66856939
H      20.17802497     11.90545876      1.21255571
C      20.64151024      6.96389256      1.15069474
H      21.01423351      6.99127604      2.26701881
H      21.37454303      6.56422993      0.39240908
