10
Family_1 [H]C([H])=C([H])C([H])=C([H])[H] | RMSD: 0.5795 | 5044.00 to state    1 from traj    1 on state    2
C      19.97853780      8.29562632      1.20631655
H      19.20416913      8.17225749      1.87402181
C      20.78867142      9.45278661      0.98805273
H      21.96952440      9.55832494      0.96288286
C      19.83920489     10.68539904      0.96676590
H      18.85860233     10.63423087      1.33955450
H      20.10355499     11.68397715      0.94176285
C      20.63879341      7.04326164      1.01849088
H      20.89121814      6.02315330      1.28810969
H      19.77708757      7.33712573      0.22698457
