10
Family_1 [H]C([H])=C([H])C([H])=C([H])[H] | RMSD: 0.4803 | 3832.00 to state    1 from traj    1 on state    2
C      20.00816325      8.20190369      0.88141602
H      18.96048072      8.30649165      0.84001501
C      20.51685331      9.52431041      0.73992540
H      21.29148376      9.89263094      0.07316772
C      19.98290515     10.68126458      1.28150829
H      19.24133378     10.68184311      1.93390304
H      20.54763866     11.88688866      1.20322632
C      20.78694374      7.01419622      1.26498557
H      19.96019096      7.04971111      2.23784175
H      20.21132081      6.25161695      0.48565757
