10
Family_1 [H]C([H])=C([H])C([H])=C([H])[H] | RMSD: 0.5374 | 2524.00 to state    2 from traj    5 on state    3
C      19.92272189      8.15453895      1.21166933
H      18.96478207      8.56071010      1.47736615
C      20.57595484      9.53835737      0.95812746
H      21.47475069      9.46030306      0.58708096
C      20.00806380     10.70116340      1.04770786
H      18.85892200     10.84717238      1.10440183
H      20.47956101     11.76555037      1.07290303
C      20.64635821      7.05584916      1.02076747
H      21.27944568      6.59174798      1.74637813
H      20.84423306      6.50727175     -0.05362116
