10
Family_1 [H]C([H])=C([H])C([H])=C([H])[H] | RMSD: 0.6459 | 144.00 to state    3 from traj    1 on state    2
C      19.97202267      8.24244788      1.21079699
H      18.87237369      8.22282444      1.58594323
C      20.59094700      9.45814524      0.89021141
H      21.48504263      9.50955847      0.28750790
C      19.98120694     10.69170372      1.06343130
H      18.82094199     10.73517491      1.74212440
H      20.44953773     11.67438835      0.78764974
C      20.65559236      7.08615988      1.06719342
H      20.04747027      6.22055759      1.06338513
H      21.67022118      7.03008498      0.54700672
