10
Family_1 [H]C([H])=C([H])C([H])=C([H])[H] | RMSD: 0.6975 | 12508.00 to state    1 from traj    3 on state    2
C      19.72195994      9.11678056      1.31511874
H      18.85456566      8.60027799      1.13459030
C      20.90365778      8.60425962      0.98596322
H      21.71714366      9.40053281      0.70646470
C      19.69672392     10.42626733      1.06775251
H      18.93943980     11.07042234      0.78692726
H      20.54629483     10.89025542      1.48167280
C      20.93343989      7.26236155      0.80845010
H      20.65553551      7.25308580      1.96534304
H      19.96518060      6.99766589      0.58621870
