10
Family_4 [H+].[H][C-]=C([H])C([H])=C([H])[H] | RMSD: 0.9803 | 5076.00 to state    1 from traj    1 on state    2
C      19.62214975      9.23794746      0.82597067
H      18.62914946      8.86007558      0.76784033
C      20.70396354      8.48148595      0.64294556
H      21.27671009      8.69152196     -0.31719692
C      19.96221689     10.60685178      1.52109194
H      18.94374520     10.72990741      0.35567790
H      19.68671006     10.62913386      2.65262752
C      20.94920495      7.24250057      1.20569618
H      21.84817297      6.48577967      0.90451295
H      20.51109039      6.91983892      2.07827104
