10
Family_4 [H+].[H][C-]=C([H])C([H])=C([H])[H] | RMSD: 1.0026 | 236.00 to state    3 from traj    1 on state    2
C      20.08543599      8.31372592      1.30885422
H      19.28715563      8.37922472      2.00981193
C      20.57672259      9.47090385      0.76753222
H      21.47948609      9.53081906      0.02426840
C      19.91953708     10.65990335      1.07144944
H      20.14977768     11.70925482      0.76805482
H      19.31851372     10.45368969      1.83263904
C      20.59045632      7.08901458      1.01850641
H      21.41027310      6.83355815      0.36733602
H      20.02945625      5.82959616      1.78949135
