10
Family_1 [H]C([H])=C([H])C([H])=C([H])[H] | RMSD: 0.6091 | 9020.00 to state    1 from traj    1 on state    2
C      19.83869471      8.19298310      1.35694685
H      19.25678735      8.27255127      0.20194146
C      20.45993461      9.50495409      0.71414977
H      21.35646871      9.15203786      0.27617005
C      20.07312365     10.66723210      1.14216553
H      19.00153088     11.03051154      1.43142913
H      20.71759670     11.52757371      1.45149142
C      20.71765278      7.12332107      1.09906849
H      21.14724951      6.27696928      1.69252613
H      21.18100664      7.01338743     -0.00150636
