10
Family_1 [H]C([H])=C([H])C([H])=C([H])[H] | RMSD: 1.0096 | 3780.00 to state    1 from traj    7 on state    2
C      19.53295009      7.47989488      0.77286202
H      18.74582804      7.33478506      1.49949406
C      20.75822185      9.30142833      0.67146415
H      21.25255369      9.43358591     -0.28387893
C      20.26479961     10.54124744      1.33541263
H      19.05488210     10.24585274      1.53390695
H      20.56245264     11.44118539      1.68578405
C      20.76743629      8.13745754      1.39537084
H      20.88429027      7.86284434      2.56833079
H      19.37234022      7.29392373     -0.31650436
