10
Family_1 [H]C([H])=C([H])C([H])=C([H])[H] | RMSD: 0.9548 | 3804.00 to state    1 from traj    6 on state    2
C      19.54185284      7.42301475      0.80063626
H      18.79061434      7.24866780      1.44457914
C      20.70439961      9.32351508      0.70697946
H      21.20260177      9.38997877     -0.24067803
C      20.27184204     10.61218067      1.31172252
H      19.05471554     10.50375909      1.57455133
H      20.73223099     11.48910506      1.51643007
C      20.77720823      8.09842731      1.37963055
H      20.94999162      7.68498269      2.49823154
H      19.47708413      7.33012455     -0.39027936
