10
Family_1 [H]C([H])=C([H])C([H])=C([H])[H] | RMSD: 0.2820 | 4236.00 to state    1 from traj    8 on state    2
C      20.14767123      8.16465047      1.12856094
H      19.00551176      8.32296478      1.03193495
C      20.59541080      9.68954629      0.89176150
H      21.43031970      9.95664823      0.46506193
C      19.90511325     10.75106234      1.12489229
H      18.81983020     10.70445959      1.32785807
H      20.45579559     11.61758788      0.89679987
C      20.71185583      6.86540798      1.09005579
H      19.88081366      6.34074351      1.87744331
H      19.84344686      6.54300357      0.37117691
