10
Family_1 [H]C([H])=C([H])C([H])=C([H])[H] | RMSD: 0.6092 | 2372.00 to state    2 from traj    4 on state    3
C      19.96457940      8.23795051      1.08408725
H      19.23532085      8.39129995      1.87180045
C      20.50314867      9.50544930      0.83763717
H      21.66756839      9.17359059      0.98889984
C      19.98865799     10.77512590      1.10029283
H      18.87906933     10.93128276      1.20849342
H      20.50115787     11.77110097      1.50096698
C      20.68793866      7.01269965      1.05467324
H      20.96226358      6.24631013      2.05824413
H      20.76086305      6.25023042      0.23145816
