10
Family_1 [H]C([H])=C([H])C([H])=C([H])[H] | RMSD: 0.5074 | 1384.00 to state    2 from traj    2 on state    3
C      19.99702138      8.19760800      1.16406018
H      19.00458992      8.30156779      1.51169794
C      20.53523539      9.56299485      1.05317782
H      21.54695556      9.34699574      0.82646332
C      19.97172697     10.79276987      1.02180100
H      19.03764707     11.11652932      1.42000402
H      20.35186036     11.50003885      0.48820176
C      20.65914442      6.97296922      0.97696434
H      20.95227089      6.06923398      1.93636772
H      20.88886346      6.48763831      0.01712166
