10
Family_1 [H]C([H])=C([H])C([H])=C([H])[H] | RMSD: 0.5921 | 1500.00 to state    3 from traj    3 on state    2
C      20.00019161      8.08059116      1.13154145
H      18.94071306      8.39550344      1.41658170
C      20.57349025      9.67483581      1.02026323
H      21.69620849      9.51538045      0.76507710
C      19.97382957     10.80478567      1.04717362
H      19.25586040     11.36068832      1.76861281
H      19.85781804     11.56436930      0.24866650
C      20.63693083      6.92101963      1.01925322
H      20.69334612      6.17430798      1.68497358
H      21.08426938      6.34926669      0.28939443
