10
Family_1 [H]C([H])=C([H])C([H])=C([H])[H] | RMSD: 0.4443 | 4576.00 to state    3 from traj    1 on state    2
C      19.94509075      8.12414485      1.03454723
H      18.87150167      7.99144666      1.33719926
C      20.58931961      9.53734393      1.04192940
H      21.39109801      9.50378766      0.35700166
C      20.00055275     10.77938379      1.10438115
H      19.00688974     10.91790735      1.44393380
H      20.44544658     11.67146449      0.52439975
C      20.66401392      7.07524156      1.05151470
H      21.00164457      6.47090691      1.99690596
H      20.63844325      6.38836231      0.34536676
