10
Family_1 [H]C([H])=C([H])C([H])=C([H])[H] | RMSD: 0.8365 | 3256.00 to state    1 from traj    3 on state    2
C      19.60617744      9.25549606      0.96532605
H      18.70243736      8.99740469      0.18901310
C      20.87367644      8.42552475      0.65777364
H      21.27803929      9.01441142     -0.10157930
C      19.69291969     10.51362533      1.45669252
H      19.01917074     11.11400784      1.45903983
H      20.72158378     10.95590805      1.35958324
C      21.10919434      7.21238263      1.13738361
H      20.58452730      7.27365532      2.23878772
H      20.06037318      6.88831359      1.04104109
