10
Family_1 [H]C([H])=C([H])C([H])=C([H])[H] | RMSD: 0.6813 | 5596.00 to state    1 from traj    8 on state    2
C      20.14405614      8.29744474      1.03274969
H      19.04817203      8.15108625      1.30667228
C      20.60026677      9.51028368      0.73908929
H      21.65734734      9.68223689      0.40189560
C      19.92062772     10.62625353      1.21466347
H      18.82644620     10.61791112      1.46825794
H      20.40840890     11.50091355      1.32347741
C      20.43419795      6.98840336      1.21289308
H      21.53141146      7.18106079      1.66739740
H      21.07276138      6.92750872      0.23004917
