10
Family_1 [H]C([H])=C([H])C([H])=C([H])[H] | RMSD: 0.6171 | 3176.00 to state    1 from traj    1 on state    2
C      20.01290643      8.18311173      1.38157618
H      19.07616250      8.18260739      1.68683813
C      20.68111834      9.60881427      1.32095600
H      21.74101612      9.73301610      1.17189780
C      19.93683920     10.59678353      0.78738504
H      18.97223834     10.71785190      1.30255040
H      20.12930359     11.07838791     -0.10743441
C      20.67133955      7.11849975      0.79887253
H      20.35171226      6.24969818      1.30810225
H      19.85457791      7.08842124     -0.02939678
