10
Family_1 [H]C([H])=C([H])C([H])=C([H])[H] | RMSD: 0.5578 | 1752.00 to state    2 from traj    2 on state    3
C      20.04609079      8.14024534      1.15637427
H      19.04292803      8.26342358      1.82359295
C      20.57180793      9.56402600      1.06640044
H      21.77481300      9.57506953      0.95650041
C      19.93348887     10.82955935      0.98366013
H      18.90117598     11.10174552      1.14174538
H      20.41081069     11.70648548      0.89701619
C      20.61926229      6.95792172      0.97082540
H      21.20352414      6.35797254      1.75931798
H      20.35930925      6.22946505      0.08333378
