10
Family_1 [H]C([H])=C([H])C([H])=C([H])[H] | RMSD: 0.6635 | 2692.00 to state    2 from traj    2 on state    3
C      20.06032540      8.25316711      1.50567531
H      19.04589500      8.22574245      1.73105801
C      20.69461536      9.49164087      1.13103995
H      21.74628906      9.57813634      0.69362044
C      19.89072904     10.64225803      0.86062088
H      18.90847381     10.53589292      0.93621607
H      20.23350672     11.54103567      0.51036726
C      20.55258229      7.09918202      0.81972387
H      20.21709313      6.05400013      1.04622161
H      21.21240427      7.36494255      0.07821473
