10
Family_1 [H]C([H])=C([H])C([H])=C([H])[H] | RMSD: 0.4785 | 840.00 to state    2 from traj    2 on state    3
C      19.99143289      8.23711147      1.26742094
H      18.92768904      8.17996872      1.60213427
C      20.53412390      9.54209032      0.94117670
H      21.68962170      9.54476627      0.35510417
C      19.98685100     10.69234981      1.05109574
H      18.91335346     10.97273466      1.12629347
H      20.45598592     11.68403665      0.91409663
C      20.68004763      7.02450911      1.01995395
H      20.30487251      6.04518786      1.43627269
H      21.14121055      6.75613114      0.00759430
