10
Family_1 [H]C([H])=C([H])C([H])=C([H])[H] | RMSD: 0.4515 | 5208.00 to state    1 from traj    1 on state    2
C      20.00203790      8.19893585      1.00529232
H      18.83746115      8.29319270      1.33656814
C      20.62294061      9.57767460      0.95016209
H      21.59207804      9.57633361      0.71524961
C      19.93559117     10.73671328      1.14206099
H      18.96570880     10.81803755      1.39724547
H      20.36075569     11.45561678      0.83227699
C      20.73499122      7.00717693      1.03483264
H      20.37785868      6.80044905      1.98095525
H      20.07029949      5.94797713      0.93437045
