10
Family_1 [H]C([H])=C([H])C([H])=C([H])[H] | RMSD: 0.7465 | 4388.00 to state    1 from traj    1 on state    2
C      19.66652708      9.20548316      1.00672395
H      18.77803623      8.82047476      1.44424969
C      20.80986265      8.54711746      0.78644537
H      21.74576010      9.10887554      0.65740610
C      19.73760935     10.54866557      1.21227439
H      18.84115814     10.96599631      1.59928248
H      20.46128304     11.36574590      1.82906617
C      21.07742321      7.10184115      1.02656972
H      20.37982365      7.44477643      2.14390451
H      20.04741506      6.58455853      0.71831153
