10
Family_1 [H]C([H])=C([H])C([H])=C([H])[H] | RMSD: 0.9383 | 4396.00 to state    1 from traj    6 on state    2
C      20.08527703      9.14605812      1.35112455
H      19.54144044      8.42006875      2.02740752
C      21.28284930      8.61692278      1.26132548
H      22.27825257      9.11597546      0.95255830
C      19.36996552     10.35282091      0.91033872
H      18.67591349     10.80427084      1.40775570
H      19.89095163     10.82391113      0.02386719
C      20.56229150      7.33714979      0.71559454
H      19.99304523      7.09198530      1.60088511
H      19.76709590      7.44028802     -0.07928955
