10
Family_1 [H]C([H])=C([H])C([H])=C([H])[H] | RMSD: 0.6899 | 2664.00 to state    1 from traj    3 on state    2
C      19.87695016      8.23801286      1.07557047
H      18.76748757      8.46150705      1.18284081
C      20.70594932      9.50372976      0.90870903
H      21.52699360      9.26747928      0.19361383
C      19.93497651     10.61243567      1.10710325
H      19.26531044     10.64358096      1.94972538
H      20.16778784     11.83506979      0.68655592
C      20.61730629      7.03857388      1.21973809
H      21.67545128      6.91653033      1.15838247
H      20.71215069      7.28964887     -0.10465092
