10
Family_2 [H]C(=[C-]C([H])([H])[H])[C+]([H])[H] | RMSD: 0.4858 | 10136.00 to state    1 from traj    3 on state    2
C      19.99205596      8.35327456      1.01666198
H      18.99654986      8.53039210      1.68512363
C      20.76676301      9.30892257      0.71747399
H      20.40626607     11.13462420      0.41668430
C      19.92544980     10.69765382      1.13400045
H      18.92441226     10.48255071      0.97856065
H      20.30615432     11.19546474      1.90844003
C      20.61536791      7.04875833      1.26950662
H      19.83839648      6.01182171      1.14470796
H      21.68381733      6.87001479      1.00005571
