10
Family_1 [H]C([H])=C([H])C([H])=C([H])[H] | RMSD: 0.6257 | 172.00 to state    3 from traj    1 on state    2
C      20.05535691      8.25603688      1.23063357
H      18.95824633      8.31959788      1.44491223
C      20.61226227      9.50308322      0.89027079
H      21.62848070      9.40225083      0.38295300
C      19.91685441     10.69393146      1.06440935
H      19.09322519     10.76410636      1.61452678
H      20.19107366     11.81728923      0.84136803
C      20.60169743      7.02218185      1.02913840
H      20.00384470      6.17271250      1.24310863
H      21.63274561      6.95503993      0.69147174
