10
Family_1 [H]C([H])=C([H])C([H])=C([H])[H] | RMSD: 0.4703 | 5620.00 to state    1 from traj    1 on state    2
C      19.97579012      8.23124343      1.08777171
H      18.93696924      8.04249596      1.39530017
C      20.54365652      9.51441141      1.10183806
H      21.34482607      9.43715175      0.46281920
C      19.95347268     10.69916524      1.04170969
H      18.96660842     10.88335184      1.35422023
H      20.92439581     11.20185399      0.79151895
C      20.75850957      7.06861793      0.94376029
H      20.32121772      7.15133882      2.24570873
H      20.47432094      6.25957076      0.43792147
