6
Family_2 [H]C([H])=C([H])[H] | RMSD: 0.0000 | 576.00 to state    1 from traj    1 on state    2
C     -1.705140    -0.086997    -0.113088
H     -1.398930     0.089877     1.143442
H     -2.836134     0.221383     0.052604
C     -0.849158     1.632088    -0.065966
H     -1.165064     2.457784     0.618909
H      0.104613     1.574966     0.315320
6
Family_2 [H]C([H])=C([H])[H] | RMSD: 0.5996 | 1520.00 to state    1 from traj    1 on state    2
C     -1.485235     0.227592    -0.033045
H     -1.899588    -0.097887     0.687651
H     -2.645394     0.650820    -0.287285
C     -1.024731     1.314922     0.009680
H     -1.114487     2.287999     0.519110
H     -0.164291     1.533788    -0.644343
6
Family_2 [H]C([H])=C([H])[H] | RMSD: 0.7595 | 1792.00 to state    1 from traj    1 on state    2
C     -1.663054     0.047390     0.009997
H     -1.533584    -0.141125     1.143307
H     -1.988889    -0.150294    -0.936044
C     -0.989700     1.626168    -0.114237
H     -0.434218     2.332067     1.005178
H     -0.165661     0.772590     0.026374
6
Family_2 [H]C([H])=C([H])[H] | RMSD: 0.5773 | 1460.00 to state    1 from traj    1 on state    2
C     -1.619185     0.140270    -0.044086
H     -1.231275     0.714485     0.967816
H     -2.583542     0.111543    -0.654271
C     -0.948494     1.411235    -0.044978
H     -1.306785     2.047278     1.071220
H     -0.014477     1.394285    -0.326792
6
Family_2 [H]C([H])=C([H])[H] | RMSD: 0.6360 | 1108.00 to state    1 from traj    1 on state    2
C     -1.576954     0.039842    -0.107777
H     -1.538037     0.127823     1.004908
H     -2.318046     0.901447    -0.181298
C     -1.004684     1.475955     0.094025
H     -1.076452     2.491743    -0.061980
H     -0.037211     1.172064    -0.601052
6
Family_2 [H]C([H])=C([H])[H] | RMSD: 0.6193 | 1680.00 to state    1 from traj    1 on state    2
C     -1.521019     0.098840    -0.070602
H     -1.896852    -0.275296     1.249341
H     -2.596990     0.747264    -0.306581
C     -1.010515     1.472630     0.014053
H     -1.060121     2.501091     0.399609
H     -0.012809     1.056644    -0.671833
6
Family_2 [H]C([H])=C([H])[H] | RMSD: 0.7546 | 2392.00 to state    1 from traj    1 on state    2
C     -1.682964     0.222188    -0.104820
H     -1.398361     0.441435     0.942767
H     -1.630722    -0.701455    -0.047369
C     -0.965393     1.424818     0.015528
H     -1.190604     2.494599     0.146610
H      0.044943     0.895052     0.018685
6
Family_2 [H]C([H])=C([H])[H] | RMSD: 0.5255 | 1064.00 to state    1 from traj    1 on state    2
C     -1.709433     0.124947    -0.147300
H     -1.066991     0.258277     1.064268
H     -2.590328     0.003581     0.473764
C     -0.827272     1.436049    -0.044389
H     -1.768085     1.908767     0.164723
H     -0.079743     1.983872     0.578067
6
Family_2 [H]C([H])=C([H])[H] | RMSD: 0.4505 | 5148.00 to state    1 from traj    1 on state    2
C     -1.549006     0.124411    -0.088531
H     -1.933942    -0.142757     1.227515
H     -2.857961     0.473161    -0.089149
C     -0.950327     1.397891    -0.036142
H     -1.235192     2.545021     0.790556
H      0.076628     1.740148    -0.446644
6
Family_2 [H]C([H])=C([H])[H] | RMSD: 0.7050 | 944.00 to state    1 from traj    1 on state    2
C     -1.628889     0.046053    -0.140966
H     -1.451244    -0.605997     0.933917
H     -2.355626     0.720559     0.793802
C     -0.923430     1.521046    -0.067007
H     -1.098087     2.493497    -0.208565
H     -0.414144     1.473718     0.955701
6
Family_2 [H]C([H])=C([H])[H] | RMSD: 0.7674 | 1128.00 to state    1 from traj    1 on state    2
C     -1.751182     0.152901    -0.097309
H     -1.286310     0.451784     1.073234
H     -1.478835    -0.835378    -0.224547
C     -0.934010     1.479367    -0.036971
H     -0.976057     2.544034     0.489890
H      0.005371     1.144808     0.258175
6
Family_2 [H]C([H])=C([H])[H] | RMSD: 0.5016 | 10536.00 to state    1 from traj    1 on state    2
C     -1.621086     0.103104    -0.095050
H     -1.638785     0.246704     0.934468
H     -2.586822     0.584027     0.015489
C     -0.901810     1.380649    -0.018526
H     -1.501277     2.012294     0.659286
H      0.057193     2.231875    -0.259193
6
Family_2 [H]C([H])=C([H])[H] | RMSD: 0.7973 | 3132.00 to state    1 from traj    1 on state    2
C     -1.586743     0.171661     0.002059
H     -1.808705    -0.049966     1.018755
H     -2.125429    -0.354029    -0.716210
C     -1.042191     1.541936    -0.075619
H     -0.221491     1.942437     0.651953
H     -0.250563     0.797719    -0.081268
6
Family_2 [H]C([H])=C([H])[H] | RMSD: 0.7607 | 1220.00 to state    1 from traj    1 on state    2
C     -1.653845    -0.015917    -0.076519
H     -1.885647    -0.139321     1.081935
H     -2.384517     0.900101    -0.194214
C     -0.827481     1.497199     0.022024
H     -1.459362     2.062577     0.619782
H     -0.435506     2.280982    -0.861439
6
Family_2 [H]C([H])=C([H])[H] | RMSD: 0.7111 | 2096.00 to state    1 from traj    1 on state    2
C     -1.683682     0.271541    -0.116441
H     -1.313411     0.262716     1.195827
H     -1.872020    -0.776345    -0.151224
C     -0.948163     1.369683     0.049793
H     -1.270902     2.412500    -0.049228
H      0.084836     1.299661    -0.204502
6
Family_2 [H]C([H])=C([H])[H] | RMSD: 0.7471 | 1288.00 to state    1 from traj    1 on state    2
C     -1.568297     0.055729    -0.104554
H     -1.613026    -0.344798     1.106975
H     -2.344480     0.876137    -0.083075
C     -0.996276     1.519305     0.102582
H     -0.980856     2.400348    -0.456189
H     -0.234726     1.055542    -0.547487
6
Family_2 [H]C([H])=C([H])[H] | RMSD: 0.6099 | 996.00 to state    1 from traj    1 on state    2
C     -1.650178     0.013406    -0.136591
H     -1.480210    -0.483211     0.910533
H     -2.275295     0.731710     0.707909
C     -0.916912     1.538624    -0.066002
H     -1.269114     2.554531    -0.051083
H     -0.118478     1.458300     0.843402
6
Family_2 [H]C([H])=C([H])[H] | RMSD: 0.6741 | 1596.00 to state    1 from traj    1 on state    2
C     -1.681307     0.266006    -0.045322
H     -0.944475     0.296438     1.060916
H     -2.016267    -0.457588    -0.698716
C     -0.973249     1.365311    -0.016471
H     -1.512239     2.263463     0.470836
H      0.372099     1.214257    -0.100017
6
Family_2 [H]C([H])=C([H])[H] | RMSD: 0.4085 | 4864.00 to state    1 from traj    1 on state    2
C     -1.637314     0.089804    -0.104098
H     -1.432778     0.370969     1.133964
H     -2.830410     0.311162    -0.132881
C     -0.880817     1.413084    -0.015337
H     -1.544886     2.179942     0.727362
H      0.081599     1.984823    -0.308576
6
Family_2 [H]C([H])=C([H])[H] | RMSD: 0.5160 | 872.00 to state    1 from traj    1 on state    2
C     -1.600662     0.105384    -0.060396
H     -1.404622     0.530137     0.900899
H     -2.552762     0.121187    -0.550166
C     -0.982983     1.448063     0.011623
H     -0.956286     2.399853     0.666403
H     -0.032160     1.193274    -0.439258
6
Family_2 [H]C([H])=C([H])[H] | RMSD: 0.7673 | 1192.00 to state    1 from traj    1 on state    2
C     -1.671973     0.112413    -0.171121
H     -1.172695     0.217677     1.000477
H     -2.492256     0.215769     0.501495
C     -0.921421     1.480828     0.100181
H     -1.438464     1.663950    -0.889276
H      0.273747     1.672893     0.229328
6
Family_2 [H]C([H])=C([H])[H] | RMSD: 0.5813 | 500.00 to state    1 from traj    1 on state    2
C     -1.698916     0.115611    -0.163292
H     -1.221551     0.455381     0.917291
H     -2.438832    -0.140371     0.457338
C     -0.878907     1.455190     0.057325
H     -1.554968     2.020269    -0.323297
H      0.200146     1.702382     0.208053
6
Family_2 [H]C([H])=C([H])[H] | RMSD: 0.4016 | 3324.00 to state    1 from traj    1 on state    2
C     -1.647330    -0.049054    -0.057181
H     -1.559024     0.404772     0.962010
H     -2.789145     0.135571    -0.411026
C     -0.931031     1.632677    -0.058449
H     -0.764833     2.164071     0.848659
H      0.104202     1.180469    -0.025124
6
Family_2 [H]C([H])=C([H])[H] | RMSD: 0.5023 | 3872.00 to state    1 from traj    1 on state    2
C     -1.635775     0.170521    -0.135080
H     -1.499144     0.340729     0.986606
H     -2.630615    -0.056793     0.327832
C     -0.879948     1.408504     0.036420
H     -1.718501     2.017686     0.033144
H      0.093088     1.638044    -0.175271
6
Family_2 [H]C([H])=C([H])[H] | RMSD: 0.5953 | 2964.00 to state    1 from traj    1 on state    2
C     -1.649669    -0.010361    -0.083738
H     -1.525716     0.572124     0.938242
H     -2.592823     0.344881    -0.583691
C     -0.940344     1.473548     0.059199
H     -0.872378     2.539826     0.676603
H      0.120956     1.863122    -0.742035
6
Family_2 [H]C([H])=C([H])[H] | RMSD: 0.5544 | 1332.00 to state    1 from traj    1 on state    2
C     -1.558645     0.070124    -0.049434
H     -1.815954    -0.285828     1.047320
H     -2.255855     0.981890    -0.269894
C     -1.018056     1.481543    -0.048573
H     -1.087975     2.272921     0.601137
H      0.131206     1.296676    -0.214026
6
Family_2 [H]C([H])=C([H])[H] | RMSD: 0.5904 | 2180.00 to state    1 from traj    1 on state    2
C     -1.535715     0.117536    -0.055243
H     -2.056326    -0.135789     0.943673
H     -2.632929     0.630728    -0.205281
C     -0.959102     1.423805    -0.000357
H     -1.234541     2.364927     0.658242
H     -0.080473     1.528829    -0.737407
6
Family_2 [H]C([H])=C([H])[H] | RMSD: 0.7596 | 4648.00 to state    1 from traj    1 on state    2
C     -1.537521     0.158509     0.033195
H     -1.789385    -0.478409     0.957666
H     -2.212587     0.381795    -0.869016
C     -1.100375     1.514638    -0.087886
H     -0.342477     2.025947     0.647182
H      0.045059     0.888812    -0.087441
6
Family_2 [H]C([H])=C([H])[H] | RMSD: 0.3825 | 3652.00 to state    1 from traj    1 on state    2
C     -1.584572     0.145006    -0.087864
H     -1.584983     0.231930     1.007498
H     -2.477432     0.245036    -0.194036
C     -0.972300     1.387384    -0.005706
H     -1.150341     2.585836     0.619496
H     -0.052101     1.432552    -0.321298
6
Family_2 [H]C([H])=C([H])[H] | RMSD: 0.4416 | 3336.00 to state    1 from traj    1 on state    2
C     -1.632123     0.193427    -0.066112
H     -1.154183     0.452430     1.052229
H     -2.652705    -0.044798    -0.492501
C     -0.939577     1.347604    -0.039260
H     -1.340207     2.219535     0.842783
H      0.058938     1.765225    -0.150211
6
Family_2 [H]C([H])=C([H])[H] | RMSD: 0.4844 | 5844.00 to state    1 from traj    1 on state    2
C     -1.640285     0.146036    -0.123852
H     -1.450883     0.454547     1.269116
H     -2.662022     0.242891     0.170340
C     -0.865017     1.376725    -0.074609
H     -1.743762     1.851286     0.869862
H     -0.022671     2.061366     0.052206
6
Family_2 [H]C([H])=C([H])[H] | RMSD: 0.7335 | 10416.00 to state    1 from traj    1 on state    2
C     -1.531897     0.186829    -0.055731
H     -1.722409    -0.297721     0.829518
H     -2.563064     0.944055    -0.322603
C     -0.976658     1.285837     0.056254
H     -1.267908     2.446271     0.323908
H     -0.287195     2.114407    -0.840332
6
Family_2 [H]C([H])=C([H])[H] | RMSD: 0.7091 | 1484.00 to state    1 from traj    1 on state    2
C     -1.751711     0.172723     0.008095
H     -0.738224     0.255007     0.624411
H     -2.060571    -0.448572    -0.939559
C     -0.916003     1.422819    -0.066233
H     -1.322848     2.294766     0.816545
H      0.177549     1.641657     0.188065
6
Family_2 [H]C([H])=C([H])[H] | RMSD: 0.6353 | 2116.00 to state    1 from traj    1 on state    2
C     -1.585471     0.216532     0.002002
H     -1.690013    -0.060363     0.943541
H     -2.245314    -0.236606    -0.636068
C     -1.059165     1.464473    -0.105421
H     -0.476827     1.831530     0.726345
H      0.193068     1.189942     0.195214
6
Family_2 [H]C([H])=C([H])[H] | RMSD: 0.5764 | 2196.00 to state    1 from traj    1 on state    2
C     -1.556984     0.215925    -0.014738
H     -1.833521    -0.114577     1.049422
H     -2.437163    -0.135373    -0.446009
C     -1.043274     1.460846    -0.113874
H     -0.514742     1.793805     0.755093
H      0.037553     1.231095     0.170711
6
Family_2 [H]C([H])=C([H])[H] | RMSD: 0.6542 | 2800.00 to state    1 from traj    1 on state    2
C     -1.644353     0.154157    -0.099506
H     -1.240696     0.539514     1.035960
H     -2.597121    -0.013654    -0.404133
C     -0.885529     1.380910     0.098909
H     -1.607256     2.337148     0.263815
H     -0.141381     1.600453    -0.891806
6
Family_2 [H]C([H])=C([H])[H] | RMSD: 0.7637 | 1072.00 to state    1 from traj    1 on state    2
C     -1.658657     0.040256    -0.133483
H     -1.463226    -0.643602     0.766655
H     -2.231329     0.769380     0.873145
C     -0.876515     1.525861    -0.050631
H     -1.465340     2.364700    -0.298403
H     -0.363527     1.602997     0.849155
6
Family_2 [H]C([H])=C([H])[H] | RMSD: 0.7025 | 1428.00 to state    1 from traj    1 on state    2
C     -1.707610     0.190350    -0.030428
H     -0.925565     0.503178     0.723009
H     -2.369929    -0.696536    -0.798468
C     -0.923110     1.427447     0.018559
H     -1.306771     2.365953     0.474528
H      0.217367     1.305078    -0.260930
6
Family_2 [H]C([H])=C([H])[H] | RMSD: 0.5749 | 2616.00 to state    1 from traj    1 on state    2
C     -1.691703    -0.023084    -0.124570
H     -1.425267    -0.391002     0.810494
H     -2.188766     0.644403     0.640460
C     -0.892997     1.570783    -0.085265
H     -1.361878     2.539979     0.114712
H      0.042646     1.519564     0.931368
6
Family_2 [H]C([H])=C([H])[H] | RMSD: 0.6508 | 2776.00 to state    1 from traj    1 on state    2
C     -1.662842    -0.012825    -0.105811
H     -1.436823    -0.632742     0.819113
H     -2.219863     0.861671     0.588861
C     -0.912096     1.581403    -0.095820
H     -1.419587     2.507568     0.062490
H      0.026692     1.327660     0.928824
6
Family_2 [H]C([H])=C([H])[H] | RMSD: 0.7443 | 2344.00 to state    1 from traj    1 on state    2
C     -1.562238     0.105822    -0.061571
H     -1.972870    -0.186528     0.981748
H     -2.532519     0.980047    -0.072182
C     -0.884941     1.390879    -0.019828
H     -1.496141     2.042731     0.774267
H     -0.570386     2.084364    -0.717195
6
Family_2 [H]C([H])=C([H])[H] | RMSD: 0.5785 | 796.00 to state    1 from traj    1 on state    2
C     -1.606746     0.034484    -0.062593
H     -1.573346     0.672362     0.908778
H     -2.578252     0.215035    -0.572875
C     -0.979982     1.496131     0.005672
H     -0.655022     2.257492     0.819266
H     -0.102473     1.371616    -0.480205
6
Family_2 [H]C([H])=C([H])[H] | RMSD: 0.4825 | 1708.00 to state    1 from traj    1 on state    2
C     -1.566227     0.164634    -0.131195
H     -1.815434    -0.009463     1.267438
H     -2.758257     0.171320     0.181308
C     -0.912834     1.388638     0.029860
H     -1.419351     2.570197     0.303003
H     -0.198974     1.514482    -0.547546
6
Family_2 [H]C([H])=C([H])[H] | RMSD: 0.7039 | 4420.00 to state    1 from traj    1 on state    2
C     -1.726534     0.047659    -0.044425
H     -1.010164     0.466989     0.924772
H     -2.571223    -0.143240    -0.865178
C     -0.829238     1.505273     0.059673
H     -1.350913     2.225821     0.543742
H     -0.345658     1.701007    -0.788303
6
Family_2 [H]C([H])=C([H])[H] | RMSD: 0.2364 | 624.00 to state    1 from traj    1 on state    2
C     -1.736488    -0.063059    -0.122506
H     -1.320327     0.166283     1.204727
H     -2.757470     0.089519     0.107467
C     -0.809263     1.631907    -0.044814
H     -1.584284     2.224734     0.471847
H      0.264723     1.580396     0.206404
6
Family_2 [H]C([H])=C([H])[H] | RMSD: 0.2238 | 1600.00 to state    1 from traj    1 on state    2
C     -1.622649     0.033706    -0.096860
H     -1.508626     0.287592     1.071935
H     -2.835725     0.374275    -0.096226
C     -0.921010     1.484663    -0.050635
H     -1.180975     2.347444     0.785427
H      0.103027     1.653117    -0.006917
6
Family_2 [H]C([H])=C([H])[H] | RMSD: 0.6977 | 3776.00 to state    1 from traj    1 on state    2
C     -1.666009     0.237552    -0.041145
H     -1.023450     0.462994     0.928119
H     -2.113979    -0.663153    -0.769404
C     -1.022300     1.393950    -0.019723
H     -0.856906     2.381971     0.510570
H      0.295643     1.132562     0.052713
6
Family_2 [H]C([H])=C([H])[H] | RMSD: 0.4891 | 4764.00 to state    1 from traj    1 on state    2
C     -1.574561     0.160111    -0.103879
H     -1.558665     0.220558     1.086422
H     -2.828799     0.503476    -0.042235
C     -0.908487     1.341358     0.014042
H     -1.578402     2.231910     0.550766
H     -0.178647     1.907855    -0.527763
6
Family_2 [H]C([H])=C([H])[H] | RMSD: 0.4445 | 6128.00 to state    1 from traj    1 on state    2
C     -1.610299     0.184967    -0.072959
H     -1.279932     0.599395     1.048841
H     -2.730304    -0.244835    -0.341588
C     -0.957521     1.410244    -0.055540
H     -1.272961     2.165256     0.832697
H      0.148803     1.226984    -0.012071
6
Family_2 [H]C([H])=C([H])[H] | RMSD: 0.5436 | 1484.00 to state    1 from traj    1 on state    2
C     -1.602673     0.132227    -0.148809
H     -1.806929    -0.354042     0.920513
H     -2.633343     0.037913     0.779341
C     -0.928758     1.450390    -0.029445
H     -1.047627     2.609634    -0.113418
H     -0.080089     1.603365     0.534291
6
Family_2 [H]C([H])=C([H])[H] | RMSD: 0.5623 | 1580.00 to state    1 from traj    1 on state    2
C     -1.633046     0.122807    -0.150484
H     -1.676975    -0.417565     0.960586
H     -2.432669     0.078404     0.787154
C     -0.921174     1.458255    -0.047224
H     -1.176978     2.658744    -0.098654
H     -0.009828     1.595815     0.703461
6
Family_2 [H]C([H])=C([H])[H] | RMSD: 0.7872 | 2044.00 to state    1 from traj    1 on state    2
C     -1.732277     0.236890    -0.028641
H     -0.737359     0.195389     1.023874
H     -1.704641    -0.420387    -0.817868
C     -0.946497     1.411240    -0.023563
H     -1.619259     2.219924     0.416637
H      0.248959     1.121314    -0.003871
6
Family_2 [H]C([H])=C([H])[H] | RMSD: 0.5980 | 3636.00 to state    1 from traj    1 on state    2
C     -1.646018     0.162460    -0.186627
H     -1.318525     0.486702     0.862669
H     -2.176268     0.117695     0.715538
C     -0.938877     1.361739     0.043601
H     -1.438640     2.369056    -0.249619
H      0.002498     1.619506     0.372378
6
Family_2 [H]C([H])=C([H])[H] | RMSD: 0.5286 | 568.00 to state    1 from traj    1 on state    2
C     -1.741484    -0.083602    -0.146010
H     -1.299319    -0.383269     0.955191
H     -2.539514     0.454843     0.675898
C     -0.806649     1.635547    -0.057556
H     -1.444585     2.426166    -0.048702
H     -0.085554     1.764607     0.839957
6
Family_2 [H]C([H])=C([H])[H] | RMSD: 0.4605 | 1764.00 to state    1 from traj    1 on state    2
C     -1.601187     0.076855    -0.069888
H     -1.439063     0.498996     1.008524
H     -2.614011     0.247084    -0.513238
C     -0.992919     1.466993     0.000779
H     -0.819513     2.256696     0.651133
H      0.051402     1.356048    -0.326220
6
Family_2 [H]C([H])=C([H])[H] | RMSD: 0.6384 | 4452.00 to state    1 from traj    1 on state    2
C     -1.567157     0.138316    -0.051869
H     -1.681743    -0.265932     0.932383
H     -2.295183     0.831431    -0.413302
C     -0.984737     1.366350     0.030771
H     -1.239225     2.540343     0.426037
H     -0.108018     1.719868    -0.697005
6
Family_2 [H]C([H])=C([H])[H] | RMSD: 0.5568 | 14780.00 to state    1 from traj    6 on state    2
C     -1.600463     0.115041    -0.099298
H     -1.871026     0.193395     0.756818
H     -2.699391     0.377131     0.265211
C     -0.860684     1.414744     0.021377
H     -1.704484     2.095971     0.413111
H     -0.130583     1.859909    -0.509931
6
Family_2 [H]C([H])=C([H])[H] | RMSD: 0.5640 | 1900.00 to state    1 from traj    1 on state    2
C     -1.622138     0.013286    -0.121791
H     -1.652585    -0.444649     0.907793
H     -2.248772     0.851145     0.548818
C     -0.946007     1.532619    -0.050517
H     -1.362205     2.632362     0.079451
H      0.133029     1.295459     0.513817
6
Family_2 [H]C([H])=C([H])[H] | RMSD: 0.7607 | 10396.00 to state    1 from traj    6 on state    2
C     -1.635970     0.232592     0.044099
H     -1.509347    -0.636265     0.812451
H     -1.960987    -0.319304    -0.920755
C     -1.032713     1.434720    -0.117534
H     -0.426297     2.376093     0.754913
H     -0.035921     1.467150     0.225127
6
Family_2 [H]C([H])=C([H])[H] | RMSD: 0.5222 | 784.00 to state    1 from traj    1 on state    2
C     -1.595543     0.085063    -0.066073
H     -1.400593     0.591134     0.910858
H     -2.539009     0.474980    -0.537165
C     -0.991702     1.420586     0.010592
H     -0.925600     2.181830     0.712407
H     -0.037736     1.566053    -0.428294
6
Family_2 [H]C([H])=C([H])[H] | RMSD: 0.6567 | 1400.00 to state    1 from traj    1 on state    2
C     -1.566901     0.210146    -0.068622
H     -2.162617    -0.181017     0.791874
H     -2.623202     0.055962     0.126605
C     -0.891243     1.381732     0.026316
H     -1.497449     2.099491     0.309432
H     -0.157998     1.812089    -0.727089
6
Family_2 [H]C([H])=C([H])[H] | RMSD: 0.6825 | 1504.00 to state    1 from traj    1 on state    2
C     -1.573760     0.203176    -0.069810
H     -2.178680    -0.218493     0.784320
H     -2.687381     0.003259     0.157257
C     -0.859847     1.379789     0.022682
H     -1.591343     2.255947     0.404497
H     -0.276225     1.852005    -0.787800
6
Family_2 [H]C([H])=C([H])[H] | RMSD: 0.6388 | 1172.00 to state    1 from traj    1 on state    2
C     -1.608714     0.168174    -0.197901
H     -1.526213     0.246759     1.279296
H     -2.586178     0.034973     0.595162
C     -0.943006     1.413537     0.100036
H     -1.405246     2.165017    -0.599979
H      0.191401     1.460912    -0.111634
6
Family_2 [H]C([H])=C([H])[H] | RMSD: 0.5386 | 612.00 to state    1 from traj    1 on state    2
C     -1.580685     0.054894    -0.071467
H     -1.652142     0.516878     0.989708
H     -2.672780     0.106404    -0.390849
C     -0.981490     1.526147    -0.003816
H     -0.725772     2.341451     0.685613
H     -0.150972     0.950919    -0.390711
6
Family_2 [H]C([H])=C([H])[H] | RMSD: 0.5907 | 1348.00 to state    1 from traj    1 on state    2
C     -1.606996     0.206780    -0.109044
H     -1.379313     0.433601     1.001021
H     -2.690416     0.243177    -0.026337
C     -0.896574     1.330511     0.053125
H     -1.786554     1.876733     0.226618
H     -0.043700     1.883446    -0.538266
6
Family_2 [H]C([H])=C([H])[H] | RMSD: 0.5041 | 1656.00 to state    1 from traj    1 on state    2
C     -1.655125     0.194099    -0.018948
H     -1.321120    -0.507364     0.802146
H     -2.604856    -0.240953    -0.315144
C     -0.935210     1.397469    -0.148847
H     -0.876113     2.524641     0.838967
H     -0.064025     2.013891     0.670137
6
Family_2 [H]C([H])=C([H])[H] | RMSD: 0.4218 | 2320.00 to state    1 from traj    1 on state    2
C     -1.586116     0.191199    -0.152193
H     -1.552823     0.280536     1.230265
H     -2.684226     0.224312     0.581279
C     -0.918510     1.379848    -0.061621
H     -1.630161     1.957033     0.390267
H     -0.020182     1.572849     0.342644
6
Family_2 [H]C([H])=C([H])[H] | RMSD: 0.6967 | 1248.00 to state    1 from traj    1 on state    2
C     -1.652816    -0.054571    -0.077657
H     -1.890769    -0.156432     1.127236
H     -2.560339     0.844647    -0.208194
C     -0.817523     1.540486     0.009008
H     -1.355411     2.225331     0.716224
H     -0.489425     2.135594    -0.820548
6
Family_2 [H]C([H])=C([H])[H] | RMSD: 0.4388 | 3612.00 to state    1 from traj    1 on state    2
C     -1.581469     0.147119    -0.105515
H     -1.700328     0.258491     1.083992
H     -2.764087     0.357526     0.091494
C     -0.917089     1.404179    -0.003261
H     -1.574428     1.980787     0.472848
H      0.079144     1.673255    -0.355481
6
Family_2 [H]C([H])=C([H])[H] | RMSD: 0.6624 | 1080.00 to state    1 from traj    1 on state    2
C     -1.525552     0.132529    -0.069931
H     -1.626037    -0.208828     0.910158
H     -2.177588     0.990741    -0.272227
C     -1.076520     1.401361     0.045259
H     -0.943428     2.571622     0.058812
H      0.020791     1.123952    -0.406043
6
Family_2 [H]C([H])=C([H])[H] | RMSD: 0.5807 | 2244.00 to state    1 from traj    1 on state    2
C     -1.580856     0.146617    -0.083302
H     -1.574271     0.240100     1.067504
H     -2.412512     0.768536    -0.151758
C     -0.930482     1.365501    -0.002856
H     -1.559206     1.933749     0.616326
H     -0.261429     1.794534    -0.508715
6
Family_2 [H]C([H])=C([H])[H] | RMSD: 0.4193 | 776.00 to state    1 from traj    1 on state    2
C     -1.655024     0.187348    -0.086145
H     -1.237070     0.412991     1.108246
H     -2.552739    -0.365298    -0.320548
C     -0.932828     1.395453    -0.028514
H     -1.357492     2.344351     0.633198
H      0.251594     1.502634    -0.057937
6
Family_2 [H]C([H])=C([H])[H] | RMSD: 0.7322 | 5636.00 to state    1 from traj    1 on state    2
C     -1.506174     0.108716    -0.024572
H     -2.229604    -0.334046     0.675542
H     -2.624720     0.668759    -0.249355
C     -0.975675     1.455705     0.013747
H     -0.954221     2.456710     0.537844
H     -0.350261     1.322269    -0.838325
6
Family_2 [H]C([H])=C([H])[H] | RMSD: 0.4923 | 7760.00 to state    1 from traj    1 on state    2
C     -1.531675     0.117576    -0.070258
H     -1.796766     0.099235     1.023952
H     -2.860983     0.674071    -0.194054
C     -0.968222     1.423510    -0.004977
H     -1.290973     2.155802     0.614176
H      0.004980     1.462631    -0.550875
6
Family_2 [H]C([H])=C([H])[H] | RMSD: 0.7581 | 8048.00 to state    1 from traj    1 on state    2
C     -1.768070     0.177159    -0.037876
H     -0.869357     0.199206     1.012440
H     -1.729178    -0.633108    -0.786028
C     -0.913400     1.454918    -0.021103
H     -1.474433     2.474362     0.512159
H      0.292787     1.267059    -0.039086
6
Family_2 [H]C([H])=C([H])[H] | RMSD: 0.3248 | 604.00 to state    1 from traj    1 on state    2
C     -1.683105     0.054496    -0.112597
H     -1.238654     0.387885     0.966097
H     -2.750169     0.136008     0.193130
C     -0.858753     1.499050    -0.066162
H     -1.530411     1.972270     0.551709
H      0.075492     1.747104     0.415814
6
Family_2 [H]C([H])=C([H])[H] | RMSD: 0.8289 | 11388.00 to state    1 from traj    1 on state    2
C     -1.541125     0.093917    -0.065557
H     -2.207653    -0.064129     1.083047
H     -2.456038     0.756507    -0.130534
C     -0.890101     1.452922     0.021898
H     -1.573254     2.254999     0.737494
H     -0.525058     1.375809    -1.173063
6
Family_2 [H]C([H])=C([H])[H] | RMSD: 0.5822 | 516.00 to state    1 from traj    1 on state    2
C     -1.547142     0.111339    -0.081425
H     -2.121010    -0.083083     0.969264
H     -2.811194     0.354696    -0.019496
C     -0.926121     1.444390     0.029825
H     -1.127563     2.326852     0.423952
H     -0.201343     1.618794    -0.762161
6
Family_2 [H]C([H])=C([H])[H] | RMSD: 0.6677 | 804.00 to state    1 from traj    1 on state    2
C     -1.587566     0.080427    -0.053166
H     -1.515428    -0.558636     1.173572
H     -2.343442     1.079458    -0.466231
C     -0.970477     1.441317     0.012114
H     -1.340287     2.512042     0.326716
H     -0.051738     1.589352    -0.548179
6
Family_2 [H]C([H])=C([H])[H] | RMSD: 0.4973 | 4392.00 to state    1 from traj    1 on state    2
C     -1.651789     0.140033    -0.110617
H     -1.398431     0.456451     1.165124
H     -2.534342    -0.416898    -0.320415
C     -0.959550     1.435924     0.040768
H     -0.837744     2.388009     0.263177
H      0.154681     1.548662    -0.278879
6
Family_2 [H]C([H])=C([H])[H] | RMSD: 0.7019 | 2708.00 to state    1 from traj    1 on state    2
C     -1.708149     0.234964     0.002151
H     -0.810330     0.199792     0.608322
H     -1.871607    -0.187822    -0.870138
C     -0.964692     1.344009    -0.040902
H     -1.335942     2.236294     0.639220
H      0.134882     1.692028     0.081062
6
Family_2 [H]C([H])=C([H])[H] | RMSD: 0.6367 | 3832.00 to state    1 from traj    1 on state    2
C     -1.539322     0.140615    -0.062711
H     -1.906955    -0.210290     1.188599
H     -2.595354     0.895306    -0.201615
C     -0.939150     1.385894    -0.027244
H     -1.511119     2.127856     0.760593
H     -0.185612     1.752564    -0.678987
6
Family_2 [H]C([H])=C([H])[H] | RMSD: 0.6093 | 5024.00 to state    1 from traj    1 on state    2
C     -1.532678     0.180659    -0.071411
H     -2.040159    -0.058553     1.048324
H     -2.552931     0.579764    -0.045725
C     -0.940763     1.371004    -0.005140
H     -1.459424     2.090138     0.619792
H     -0.206472     1.654360    -0.713514
6
Family_2 [H]C([H])=C([H])[H] | RMSD: 0.7149 | 960.00 to state    1 from traj    1 on state    2
C     -1.592855     0.078306    -0.144941
H     -1.505548    -0.469052     0.867308
H     -2.376765     0.721759     0.831078
C     -0.953758     1.488589    -0.050038
H     -1.007460     2.500486    -0.254671
H     -0.497310     1.331013     0.876310
6
Family_2 [H]C([H])=C([H])[H] | RMSD: 0.5301 | 2812.00 to state    1 from traj    1 on state    2
C     -1.587290     0.042714    -0.076443
H     -1.609523     0.440217     0.942504
H     -2.367447     0.603080    -0.382633
C     -0.996049     1.476126     0.019578
H     -0.912678     2.346572     0.599032
H     -0.059831     1.266951    -0.484589
6
Family_2 [H]C([H])=C([H])[H] | RMSD: 0.4218 | 3516.00 to state    1 from traj    1 on state    2
C     -1.578842     0.269843    -0.105950
H     -1.604841     0.132919     1.121894
H     -2.707210    -0.273902     0.009232
C     -0.948867     1.312588     0.001785
H     -1.449531     2.470902     0.397203
H      0.149236     1.569164    -0.290410
6
Family_2 [H]C([H])=C([H])[H] | RMSD: 0.3293 | 2456.00 to state    1 from traj    1 on state    2
C     -1.595467     0.178106    -0.107293
H     -1.534906     0.418350     0.980918
H     -2.635724     0.027133     0.205951
C     -0.945591     1.397832    -0.063996
H     -1.476801     2.146637     0.640697
H      0.194155     1.384343     0.210175
6
Family_2 [H]C([H])=C([H])[H] | RMSD: 0.6971 | 3776.00 to state    1 from traj    1 on state    2
C     -1.688493     0.200276    -0.017265
H     -0.762156     0.385886     0.623612
H     -2.029945    -0.104618    -0.873165
C     -0.970165     1.371368     0.017131
H     -1.328350     2.359254     0.431883
H      0.068445     1.387098    -0.184016
6
Family_2 [H]C([H])=C([H])[H] | RMSD: 0.6523 | 5576.00 to state    1 from traj    1 on state    2
C     -1.536613     0.146743    -0.032271
H     -1.975320    -0.179221     0.895052
H     -2.332037     0.779654    -0.390780
C     -1.013290     1.408391     0.000926
H     -1.267520     2.166847     0.563619
H      0.226990     1.457069    -0.697674
6
Family_2 [H]C([H])=C([H])[H] | RMSD: 0.7399 | 2080.00 to state    1 from traj    1 on state    2
C     -1.769890     0.217754    -0.085671
H     -1.225585     0.356604     1.077561
H     -1.706623    -1.058711    -0.212857
C     -0.892386     1.423229    -0.069216
H     -1.274318     2.296492     0.606960
H      0.197630     1.607017     0.370634
6
Family_2 [H]C([H])=C([H])[H] | RMSD: 0.3495 | 3436.00 to state    1 from traj    1 on state    2
C     -1.589190     0.126922    -0.100416
H     -1.604310     0.424295     1.063034
H     -2.688668     0.290413     0.088719
C     -0.949810     1.435357    -0.063902
H     -1.484652     2.031249     0.743671
H      0.299820     1.393258     0.059249
6
Family_2 [H]C([H])=C([H])[H] | RMSD: 0.5756 | 2584.00 to state    1 from traj    1 on state    2
C     -1.728802     0.187908    -0.118612
H     -1.304355     0.316744     1.042782
H     -2.125247    -0.780100    -0.048803
C     -0.884426     1.392437     0.006225
H     -1.239019     2.554541     0.302377
H      0.075282     1.832757     0.039528
6
Family_2 [H]C([H])=C([H])[H] | RMSD: 0.4636 | 9036.00 to state    1 from traj    1 on state    2
C     -1.592731     0.128691    -0.099681
H     -1.460379     0.334545     1.336774
H     -2.840890     0.175625    -0.374957
C     -0.946874     1.422731     0.021474
H     -1.332415     2.329759     0.551259
H      0.163099     1.428651    -0.584473
6
Family_2 [H]C([H])=C([H])[H] | RMSD: 0.2125 | 572.00 to state    1 from traj    1 on state    2
C     -1.724682    -0.044404    -0.120401
H     -1.323256     0.220878     1.055402
H     -2.761201     0.095035     0.170144
C     -0.821669     1.598177    -0.049532
H     -1.532101     2.279491     0.501725
H      0.226353     1.645165     0.294314
6
Family_2 [H]C([H])=C([H])[H] | RMSD: 0.3119 | 4568.00 to state    1 from traj    1 on state    2
C     -1.596686     0.154072    -0.142701
H     -1.650883     0.172408     1.166375
H     -2.747829     0.121430     0.487560
C     -0.916656     1.408627    -0.054959
H     -1.479433     2.243188     0.441049
H      0.094612     1.597187     0.256995
6
Family_2 [H]C([H])=C([H])[H] | RMSD: 0.3785 | 4684.00 to state    1 from traj    1 on state    2
C     -1.600422     0.206355    -0.136670
H     -1.591493     0.328497     1.001079
H     -2.662239    -0.171121     0.474644
C     -0.942858     1.375416    -0.049147
H     -1.423160     2.222587     0.368987
H      0.250084     1.526993     0.366147
6
Family_2 [H]C([H])=C([H])[H] | RMSD: 0.6831 | 4116.00 to state    1 from traj    1 on state    2
C     -1.609289     0.233025     0.021445
H     -1.423160    -0.438558     1.152299
H     -2.056988    -0.121917    -0.924685
C     -1.050129     1.438387    -0.129365
H     -0.576460     2.172956     0.857009
H      0.013675     1.226334     0.198031
6
Family_2 [H]C([H])=C([H])[H] | RMSD: 0.4728 | 1200.00 to state    1 from traj    1 on state    2
C     -1.621267     0.010273    -0.066613
H     -1.473055    -0.398139     0.941000
H     -2.406034     0.734958     0.121795
C     -0.920795     1.590798    -0.100043
H     -1.303707     2.378529     0.465430
H     -0.258533     0.961625     0.454316
6
Family_2 [H]C([H])=C([H])[H] | RMSD: 0.4641 | 1248.00 to state    1 from traj    1 on state    2
C     -1.626441    -0.012913    -0.069964
H     -1.489128    -0.337096     0.917469
H     -2.384676     0.779507     0.135895
C     -0.920373     1.598871    -0.102420
H     -1.208498     2.381432     0.511664
H     -0.302398     1.033211     0.485760
6
Family_2 [H]C([H])=C([H])[H] | RMSD: 0.4649 | 1252.00 to state    2 from traj    2 on state    1
C     -1.626969    -0.015801    -0.070993
H     -1.513580    -0.338873     0.916893
H     -2.384984     0.777481     0.161244
C     -0.917036     1.601885    -0.105638
H     -1.210757     2.372930     0.526162
H     -0.308857     1.044018     0.497098
6
Family_2 [H]C([H])=C([H])[H] | RMSD: 0.6986 | 676.00 to state    1 from traj    1 on state    2
C     -1.699548    -0.055420    -0.094632
H     -1.207005    -0.693326     0.785449
H     -2.263208     0.741137     0.479965
C     -0.861947     1.631727    -0.108446
H     -1.164128     2.577068     0.089649
H     -0.575429     1.347187     1.061463
6
Family_2 [H]C([H])=C([H])[H] | RMSD: 0.6663 | 2508.00 to state    1 from traj    1 on state    2
C     -1.643280     0.033946    -0.081837
H     -1.735207    -0.025311     0.951264
H     -2.298936     0.829188    -0.150867
C     -0.866667     1.430803     0.019424
H     -1.401997     2.252355     0.595836
H     -0.387852     2.245118    -0.655829
6
Family_2 [H]C([H])=C([H])[H] | RMSD: 0.7053 | 1904.00 to state    1 from traj    1 on state    2
C     -1.634363    -0.068821    -0.058481
H     -2.199652    -0.156525     0.825322
H     -2.405000     0.597165    -0.209566
C     -0.861858     1.593768     0.036637
H     -1.098021     2.500685     0.591537
H     -0.284870     1.642722    -0.950290
6
Family_2 [H]C([H])=C([H])[H] | RMSD: 0.5987 | 3188.00 to state    1 from traj    1 on state    2
C     -1.672867     0.199026    -0.060533
H     -0.989108     0.411141     1.145705
H     -2.538791    -0.531879    -0.743945
C     -0.936983     1.407205     0.009219
H     -1.177851     2.332742     0.508328
H      0.072169     1.403490    -0.301932
6
Family_2 [H]C([H])=C([H])[H] | RMSD: 0.5227 | 4984.00 to state    1 from traj    1 on state    2
C     -1.539470     0.141757    -0.062828
H     -1.718999     0.002444     1.034642
H     -2.606033     0.675771    -0.285564
C     -0.969376     1.386631    -0.011931
H     -1.366935     2.480512     0.734228
H     -0.145135     1.384319    -0.595791
6
Family_2 [H]C([H])=C([H])[H] | RMSD: 0.5286 | 5148.00 to state    1 from traj    1 on state    2
C     -1.595126     0.060545    -0.067880
H     -1.642784     0.127163     0.980079
H     -2.405075     0.853520    -0.276870
C     -0.947778     1.448398    -0.004842
H     -1.449473     2.228697     0.666192
H      0.066045     1.565365    -0.506150
6
Family_2 [H]C([H])=C([H])[H] | RMSD: 0.5270 | 2940.00 to state    1 from traj    1 on state    2
C     -1.615196     0.213868    -0.082267
H     -1.346879     0.450617     0.900919
H     -2.627927    -0.020633    -0.133250
C     -0.900970     1.362435     0.009186
H     -1.866445     2.096037     0.493458
H      0.091363     1.446091    -0.393608
6
Family_2 [H]C([H])=C([H])[H] | RMSD: 0.5549 | 3052.00 to state    1 from traj    1 on state    2
C     -1.635554     0.190712    -0.087198
H     -1.305240     0.488234     0.925086
H     -2.580149    -0.072855    -0.096256
C     -0.885998     1.410841     0.017340
H     -1.822667     1.876097     0.333908
H      0.022342     1.379764    -0.333619
6
Family_2 [H]C([H])=C([H])[H] | RMSD: 0.5552 | 4488.00 to state    1 from traj    1 on state    2
C     -1.642384     0.105671    -0.076165
H     -1.334754     0.590281     1.066097
H     -2.522158    -0.202212    -0.577017
C     -0.948112     1.466533     0.027467
H     -1.037546     2.408878     0.596216
H      0.030260     1.223991    -0.508298
6
Family_2 [H]C([H])=C([H])[H] | RMSD: 0.6260 | 1564.00 to state    1 from traj    1 on state    2
C     -1.771169     0.001115    -0.152511
H     -0.756774     0.221167     0.739959
H     -2.590954    -0.049447     0.368443
C     -0.831430     1.550339     0.046445
H     -1.365146     2.277051    -0.493747
H     -0.007106     1.819425     0.645905
6
Family_2 [H]C([H])=C([H])[H] | RMSD: 0.6392 | 1800.00 to state    1 from traj    1 on state    2
C     -1.663351    -0.028328    -0.065589
H     -1.566223     0.702480     0.878918
H     -2.835517     0.082228    -0.560059
C     -0.860907     1.550741     0.038651
H     -1.003588     2.137144     0.804606
H     -0.248137     1.692394    -0.805764
6
Family_2 [H]C([H])=C([H])[H] | RMSD: 0.7042 | 1580.00 to state    1 from traj    1 on state    2
C     -1.658350     0.257288    -0.022565
H     -0.875140     0.220079     0.968189
H     -2.008531    -0.255261    -0.937589
C     -0.995832     1.342860    -0.007412
H     -1.304912     2.549653     0.584614
H      0.083255     1.173501    -0.261297
6
Family_2 [H]C([H])=C([H])[H] | RMSD: 0.4380 | 1904.00 to state    1 from traj    1 on state    2
C     -1.564457     0.098464    -0.076212
H     -1.953409     0.093488     0.929998
H     -2.679451     0.572471     0.021135
C     -0.944911     1.427747    -0.047991
H     -1.191093     2.101674     0.780619
H     -0.006946     1.801349    -0.255076
6
Family_2 [H]C([H])=C([H])[H] | RMSD: 0.5177 | 2692.00 to state    1 from traj    1 on state    2
C     -1.613697     0.126311    -0.086219
H     -1.291605     0.430862     1.200230
H     -2.911584     0.203876    -0.510175
C     -0.916485     1.388644     0.025005
H     -1.353625     2.289313     0.670716
H     -0.026075     1.779065    -0.634640
6
Family_2 [H]C([H])=C([H])[H] | RMSD: 0.7501 | 1032.00 to state    1 from traj    1 on state    2
C     -1.655607     0.050377    -0.134868
H     -1.348780    -0.524469     0.771996
H     -2.166477     0.698598     0.847137
C     -0.900258     1.517492    -0.072263
H     -1.333941     2.462531    -0.192679
H     -0.427647     1.435947     1.038365
6
Family_2 [H]C([H])=C([H])[H] | RMSD: 0.7783 | 1252.00 to state    1 from traj    1 on state    2
C     -1.753025     0.183060    -0.085205
H     -1.132898     0.488767     1.122195
H     -1.657869    -0.968765    -0.361039
C     -0.910446     1.474565    -0.035575
H     -1.177447     2.427159     0.517928
H     -0.026433     1.055948     0.156803
6
Family_2 [H]C([H])=C([H])[H] | RMSD: 0.7279 | 4228.00 to state    1 from traj    1 on state    2
C     -1.737752     0.196962    -0.062747
H     -0.771560     0.321658     0.980556
H     -2.365526    -0.452843    -0.626964
C     -0.868001     1.418447     0.058417
H     -1.820109     2.026817     0.063685
H      0.274797     1.610499    -0.368963
6
Family_2 [H]C([H])=C([H])[H] | RMSD: 0.5800 | 632.00 to state    1 from traj    1 on state    2
C     -1.609281     0.141045    -0.156504
H     -1.793735    -0.281221     1.047934
H     -2.679413    -0.064713     0.714121
C     -0.917139     1.478417     0.021564
H     -1.353537     2.430185    -0.369108
H      0.198984     1.373584     0.211675
6
Family_2 [H]C([H])=C([H])[H] | RMSD: 0.4735 | 2164.00 to state    1 from traj    1 on state    2
C     -1.583087     0.030040    -0.079077
H     -1.640962     0.428366     1.093842
H     -2.605920     0.444485    -0.420885
C     -1.000893     1.502899    -0.008506
H     -0.811935     2.410640     0.751158
H      0.116971     1.205327    -0.383785
6
Family_2 [H]C([H])=C([H])[H] | RMSD: 0.3988 | 2232.00 to state    1 from traj    1 on state    2
C     -1.709871    -0.017407    -0.105222
H     -1.426718     0.200524     0.962745
H     -2.546684     0.475098     0.183640
C     -0.819539     1.535921    -0.060938
H     -1.681781     1.963671     0.639314
H      0.063110     2.021415     0.190928
6
Family_2 [H]C([H])=C([H])[H] | RMSD: 0.3773 | 2744.00 to state    1 from traj    1 on state    2
C     -1.630141     0.167223    -0.103620
H     -1.411459     0.351078     1.073496
H     -2.553475    -0.172412    -0.114425
C     -0.925458     1.401406    -0.000128
H     -1.405185     2.471983     0.491052
H      0.090106     1.412894    -0.217182
6
Family_2 [H]C([H])=C([H])[H] | RMSD: 0.7139 | 3820.00 to state    1 from traj    1 on state    2
C     -1.678704    -0.051842    -0.069840
H     -1.816872    -0.191075     1.026439
H     -2.563587     0.938307    -0.070596
C     -0.798969     1.532872    -0.043772
H     -1.480540     1.827480     0.799911
H     -0.347560     2.532636    -0.405273
6
Family_2 [H]C([H])=C([H])[H] | RMSD: 0.6719 | 6044.00 to state    1 from traj    1 on state    2
C     -1.554127     0.100466    -0.024591
H     -1.760960    -0.524274     0.837153
H     -2.217025     0.935863    -0.402218
C     -1.003839     1.456284    -0.007381
H     -1.168041     2.596886     0.426199
H     -0.105783     1.196625    -0.483444
6
Family_2 [H]C([H])=C([H])[H] | RMSD: 0.4451 | 3536.00 to state    1 from traj    1 on state    2
C     -1.679005     0.012927    -0.150835
H     -1.289732     0.164986     0.951691
H     -2.567887     0.506137     0.651333
C     -0.849906     1.514238    -0.065888
H     -1.789248     2.322801     0.335563
H      0.048838     1.563695     0.640531
6
Family_2 [H]C([H])=C([H])[H] | RMSD: 0.6154 | 1152.00 to state    1 from traj    1 on state    2
C     -1.595782     0.037712    -0.118843
H     -1.694228    -0.462964     0.870093
H     -2.198303     0.815160     0.529912
C     -0.975848     1.524683    -0.033181
H     -1.069307     2.622101    -0.070600
H     -0.127165     1.163536     0.478779
6
Family_2 [H]C([H])=C([H])[H] | RMSD: 0.5074 | 13880.00 to state    1 from traj    1 on state    2
C     -1.567243     0.187512    -0.096788
H     -1.501641     0.295149     1.293082
H     -2.655754     0.226388    -0.217586
C     -0.949642     1.396526     0.011613
H     -1.571629     2.208843     0.492636
H     -0.012302     1.149556    -0.556494
6
Family_2 [H]C([H])=C([H])[H] | RMSD: 0.4438 | 2408.00 to state    1 from traj    1 on state    2
C     -1.545562     0.164699    -0.102479
H     -1.903646    -0.034995     1.281348
H     -2.735672     0.490902     0.073306
C     -0.950243     1.385515    -0.030880
H     -1.345093     2.098729     0.586310
H     -0.008093     1.728342    -0.355183
6
Family_2 [H]C([H])=C([H])[H] | RMSD: 0.6431 | 1376.00 to state    1 from traj    1 on state    2
C     -1.526344     0.140412    -0.054324
H     -2.248095    -0.208938     0.900037
H     -2.829929     0.430534    -0.061421
C     -0.918109     1.410013    -0.014702
H     -1.232794     2.338803     0.757764
H     -0.293575     1.720054    -0.777179
6
Family_2 [H]C([H])=C([H])[H] | RMSD: 0.6182 | 2760.00 to state    1 from traj    1 on state    2
C     -1.565331     0.169065    -0.094495
H     -2.129238    -0.106592     0.989587
H     -2.938484     0.129511     0.219290
C     -0.860025     1.361290    -0.019872
H     -1.313705     2.304614     0.700566
H     -0.450516     2.192075    -0.549965
6
Family_2 [H]C([H])=C([H])[H] | RMSD: 0.5912 | 2008.00 to state    1 from traj    1 on state    2
C     -1.563600     0.118785    -0.092202
H     -1.636415     0.293624     1.128908
H     -2.305199     0.554377    -0.364994
C     -1.013627     1.410102     0.056871
H     -1.090786     2.469610     0.376616
H      0.010092     1.219494    -0.722828
6
Family_2 [H]C([H])=C([H])[H] | RMSD: 0.3143 | 4856.00 to state    1 from traj    1 on state    2
C     -1.636944     0.038922    -0.122742
H     -1.595314     0.229430     1.347692
H     -2.714349     0.414949     0.065498
C     -0.903579     1.501167    -0.046262
H     -1.420664     2.048127     0.628612
H      0.270669     1.711107    -0.031290
6
Family_2 [H]C([H])=C([H])[H] | RMSD: 0.5856 | 2484.00 to state    1 from traj    1 on state    2
C     -1.570612     0.114279    -0.094912
H     -1.989214     0.114001     0.918776
H     -2.625395     0.462890     0.058406
C     -0.910459     1.412745     0.040332
H     -1.275047     2.156517     0.387770
H     -0.278419     1.825891    -0.717870
6
Family_2 [H]C([H])=C([H])[H] | RMSD: 0.8136 | 4140.00 to state    1 from traj    1 on state    2
C     -1.423982     0.169823    -0.013263
H     -1.565568    -0.371471     0.813783
H     -2.523911     1.238123    -0.333052
C     -1.156084     1.446496    -0.077701
H     -0.869143     2.430561     0.446776
H     -0.029861     0.198073     0.153112
6
Family_2 [H]C([H])=C([H])[H] | RMSD: 0.6673 | 1560.00 to state    1 from traj    1 on state    2
C     -1.556432     0.187881    -0.005407
H     -1.650852    -0.046982     1.157747
H     -2.358262    -0.064009    -0.741584
C     -1.068461     1.498467    -0.091330
H     -0.452543     1.964676     0.745543
H      0.007330     0.807151    -0.012299
6
Family_2 [H]C([H])=C([H])[H] | RMSD: 0.7603 | 1436.00 to state    1 from traj    1 on state    2
C     -1.663489     0.193692    -0.176890
H     -1.219195     0.299174     1.076107
H     -2.440848    -0.208162     0.399308
C     -0.902151     1.407224     0.141520
H     -1.584337     2.051516    -0.835310
H      0.084011     1.536297    -0.221936
6
Family_2 [H]C([H])=C([H])[H] | RMSD: 0.3578 | 1852.00 to state    1 from traj    1 on state    2
C     -1.579490     0.104365    -0.094638
H     -1.446014     0.356473     1.314193
H     -2.801529     0.241029    -0.352667
C     -0.991067     1.448961    -0.031393
H     -0.908317     2.324795     0.706405
H      0.054072     1.323593    -0.169474
6
Family_2 [H]C([H])=C([H])[H] | RMSD: 0.7669 | 1288.00 to state    1 from traj    1 on state    2
C     -1.653895    -0.051609    -0.059926
H     -2.020439    -0.188563     1.009209
H     -2.289782     0.805448    -0.210556
C     -0.812950     1.565473     0.005925
H     -1.342870     2.188993     0.737494
H     -0.684490     1.910237    -0.895969
6
Family_2 [H]C([H])=C([H])[H] | RMSD: 0.6389 | 1804.00 to state    1 from traj    1 on state    2
C     -1.532611     0.193395    -0.006651
H     -1.589476    -0.447511     0.841637
H     -2.289269     0.891370    -0.616983
C     -1.044381     1.347635    -0.025338
H     -1.021267     2.382060     0.553896
H     -0.125101     1.566491    -0.400659
6
Family_2 [H]C([H])=C([H])[H] | RMSD: 0.5216 | 856.00 to state    1 from traj    1 on state    2
C     -1.693980     0.060652    -0.181127
H     -1.285129     0.200248     1.155306
H     -2.452315     0.140918     0.655624
C     -0.862605     1.509281     0.012169
H     -1.683411     2.188977    -0.209743
H      0.152593     1.517865     0.408776
6
Family_2 [H]C([H])=C([H])[H] | RMSD: 0.7971 | 1100.00 to state    1 from traj    1 on state    2
C     -1.590476     0.134381    -0.116359
H     -1.502349    -0.607557     0.613920
H     -2.118707     0.749883     0.829493
C     -0.971460     1.431502    -0.077180
H     -1.106467     2.552242    -0.172229
H     -0.476984     1.401691     1.031683
6
Family_2 [H]C([H])=C([H])[H] | RMSD: 0.7996 | 720.00 to state    1 from traj    1 on state    2
C     -1.659642     0.109700    -0.073661
H     -1.512387    -0.037175     0.977374
H     -2.828841     0.175925    -0.147627
C     -0.790019     1.511948     0.091542
H     -2.019033     1.594938    -0.125920
H     -0.182070     1.698098    -0.920169
6
Family_2 [H]C([H])=C([H])[H] | RMSD: 0.5423 | 1712.00 to state    1 from traj    1 on state    2
C     -1.535189     0.125682    -0.086605
H     -2.105787    -0.204677     1.250425
H     -2.773906     0.408578    -0.038003
C     -0.947593     1.450526    -0.007910
H     -1.256607     2.392751     0.559489
H     -0.011383     1.376585    -0.648978
6
Family_2 [H]C([H])=C([H])[H] | RMSD: 0.5635 | 2244.00 to state    1 from traj    1 on state    2
C     -1.702974     0.200722    -0.124037
H     -1.428535     0.354337     0.954605
H     -2.077070    -0.725976     0.159861
C     -0.902319     1.387771    -0.014019
H     -1.372027     2.619819     0.359421
H      0.189745     1.578671     0.167859
6
Family_2 [H]C([H])=C([H])[H] | RMSD: 0.4974 | 3068.00 to state    1 from traj    1 on state    2
C     -1.615166     0.087404    -0.102889
H     -1.406572     0.369073     1.233008
H     -2.561214     0.276786    -0.448039
C     -0.959298     1.426794     0.049970
H     -0.963929     2.481052     0.442846
H     -0.123517     1.585209    -0.600529
6
Family_2 [H]C([H])=C([H])[H] | RMSD: 0.7072 | 3016.00 to state    1 from traj    1 on state    2
C     -1.532906     0.122114    -0.049074
H     -2.175066    -0.317184     0.940668
H     -2.586712     0.768564    -0.122921
C     -0.922994     1.410417    -0.013986
H     -1.230075     2.234318     0.714701
H     -0.476144     1.807988    -0.784331
6
Family_2 [H]C([H])=C([H])[H] | RMSD: 0.5077 | 8968.00 to state    1 from traj    1 on state    2
C     -1.594662     0.147115    -0.080213
H     -1.393985     0.437698     1.150631
H     -2.623982     0.089363    -0.474374
C     -0.969334     1.427140     0.029251
H     -1.196920     2.251637     0.482746
H      0.034922     1.217802    -0.555040
6
Family_2 [H]C([H])=C([H])[H] | RMSD: 0.7103 | 2200.00 to state    1 from traj    1 on state    2
C     -1.514209     0.172984    -0.023884
H     -2.017375    -0.412297     0.879951
H     -2.450285     0.769759    -0.358699
C     -0.977964     1.381846    -0.004593
H     -1.363254     2.479503     0.656489
H     -0.204866     1.391001    -0.841700
6
Family_2 [H]C([H])=C([H])[H] | RMSD: 0.6698 | 3192.00 to state    1 from traj    1 on state    2
C     -1.545046     0.286611    -0.001330
H     -1.533217    -0.158657     0.943738
H     -2.539363    -0.375259    -0.571723
C     -1.004716     1.432559    -0.060460
H     -1.117302     2.281086     0.578609
H     -0.159689     0.522587    -0.217644
6
Family_2 [H]C([H])=C([H])[H] | RMSD: 0.6870 | 2776.00 to state    1 from traj    1 on state    2
C     -1.623075     0.257653    -0.146535
H     -1.782682     0.325603     0.925081
H     -2.036554    -0.699665     0.476513
C     -0.981083     1.376053     0.025734
H     -1.071944     2.439602    -0.105723
H      0.189773     1.222568     0.140278
6
Family_2 [H]C([H])=C([H])[H] | RMSD: 0.6102 | 6016.00 to state    1 from traj    1 on state    2
C     -1.600770     0.220024    -0.046330
H     -1.195088     0.429636     0.810539
H     -2.378355    -0.037441    -0.679069
C     -0.994711     1.340923     0.040851
H     -1.237453     2.529334     0.495700
H      0.006098     1.233557    -0.565168
6
Family_2 [H]C([H])=C([H])[H] | RMSD: 0.8089 | 668.00 to state    1 from traj    1 on state    2
C     -1.542477     0.119500     0.016343
H     -1.951890    -0.425783     0.932309
H     -2.497341     0.381273    -0.872538
C     -1.089503     1.505906    -0.031507
H      0.007892     1.885145     0.449223
H      0.071451     1.546377    -0.331587
6
Family_2 [H]C([H])=C([H])[H] | RMSD: 0.7962 | 800.00 to state    1 from traj    1 on state    2
C     -1.535427     0.150128     0.025877
H     -2.004267    -0.335718     0.844602
H     -2.303020     0.143806    -0.811417
C     -1.105296     1.516640    -0.064236
H     -0.047048     2.014768     0.601885
H      0.088628     1.071304    -0.181280
6
Family_2 [H]C([H])=C([H])[H] | RMSD: 0.6776 | 1804.00 to state    1 from traj    1 on state    2
C     -1.496767     0.166412    -0.044998
H     -2.300315    -0.504351     0.920484
H     -2.559453     0.465408    -0.125565
C     -1.004571     1.417772    -0.011218
H     -0.818192     2.543487     0.492963
H     -0.248617     1.373660    -0.621313
6
Family_2 [H]C([H])=C([H])[H] | RMSD: 0.2614 | 1252.00 to state    1 from traj    1 on state    2
C     -1.653413     0.089246    -0.110981
H     -1.428010     0.368680     1.122783
H     -2.741793    -0.156877    -0.073832
C     -0.906189     1.462143    -0.031335
H     -1.171240     2.439808     0.634297
H      0.108723     1.617371     0.009258
6
Family_2 [H]C([H])=C([H])[H] | RMSD: 0.6539 | 1548.00 to state    1 from traj    1 on state    2
C     -1.644435     0.123202    -0.062650
H     -1.296167     0.699802     0.882132
H     -2.651967    -0.053880    -0.575201
C     -0.891419     1.424007     0.044811
H     -1.593595     2.249526     0.700615
H      0.026438     1.423335    -0.798257
6
Family_2 [H]C([H])=C([H])[H] | RMSD: 0.5017 | 5616.00 to state    1 from traj    1 on state    2
C     -1.583776     0.011143    -0.067222
H     -1.773124    -0.269883     1.096288
H     -2.669772     0.912394    -0.311053
C     -0.969034     1.485544    -0.021528
H     -1.001161     2.511137     0.638551
H      0.130810     1.767134    -0.369550
6
Family_2 [H]C([H])=C([H])[H] | RMSD: 0.3986 | 7304.00 to state    1 from traj    1 on state    2
C     -1.637646     0.131089    -0.130279
H     -1.490107     0.295244     1.318094
H     -2.776778     0.072003     0.014026
C     -0.884138     1.403827     0.004318
H     -1.543663     2.191069     0.472775
H      0.127593     1.906934    -0.307264
6
Family_2 [H]C([H])=C([H])[H] | RMSD: 0.3060 | 4716.00 to state    1 from traj    1 on state    2
C     -1.734129    -0.036366    -0.084385
H     -1.299210     0.436359     0.926748
H     -2.728025    -0.151607    -0.183473
C     -0.850877     1.597644    -0.063306
H     -1.265882     2.210524     0.769721
H      0.363502     1.655856     0.243559
6
Family_2 [H]C([H])=C([H])[H] | RMSD: 0.6245 | 836.00 to state    1 from traj    1 on state    2
C     -1.594258     0.045743    -0.064556
H     -1.574262     0.670232     0.955700
H     -2.515828     0.281105    -0.608719
C     -0.988655     1.485919     0.023122
H     -0.715451     2.314093     0.771006
H     -0.149018     1.238599    -0.627561
6
Family_2 [H]C([H])=C([H])[H] | RMSD: 0.6401 | 4272.00 to state    1 from traj    1 on state    2
C     -1.604351     0.149030     0.018218
H     -1.501199    -0.328127     0.809433
H     -2.342128    -0.094767    -0.565417
C     -0.956464     1.543823    -0.121708
H     -1.109195     2.464112     0.891495
H     -0.265345     0.542116     0.094366
6
Family_2 [H]C([H])=C([H])[H] | RMSD: 0.4495 | 3296.00 to state    1 from traj    1 on state    2
C     -1.690192     0.138709    -0.128023
H     -1.225868     0.528582     0.777591
H     -2.411145    -0.333804     0.340551
C     -0.884937     1.425031    -0.041026
H     -1.474571     2.367122     0.396769
H      0.064274     1.559896     0.496137
6
Family_2 [H]C([H])=C([H])[H] | RMSD: 0.7036 | 1372.00 to state    1 from traj    1 on state    2
C     -1.731134     0.218611    -0.021986
H     -0.926609     0.378290     0.757165
H     -2.036992    -0.641591    -0.691355
C     -0.922834     1.426565    -0.032145
H     -1.445426     1.997552     0.505607
H      0.301144     1.417181     0.070315
6
Family_2 [H]C([H])=C([H])[H] | RMSD: 0.5181 | 660.00 to state    1 from traj    1 on state    2
C     -1.557757     0.085501    -0.081602
H     -1.911811     0.102840     1.003954
H     -2.879255     0.544023    -0.087516
C     -0.918260     1.447105     0.009528
H     -1.381881     2.261910     0.620847
H     -0.055346     1.584021    -0.681751
6
Family_2 [H]C([H])=C([H])[H] | RMSD: 0.3475 | 2944.00 to state    1 from traj    1 on state    2
C     -1.598441     0.149493    -0.114264
H     -1.537019     0.253085     1.248629
H     -2.749860    -0.008870    -0.115035
C     -0.943655     1.410402     0.008607
H     -1.202369     2.436796     0.442768
H      0.048328     1.486609    -0.320675
6
Family_2 [H]C([H])=C([H])[H] | RMSD: 0.6756 | 1276.00 to state    1 from traj    1 on state    2
C     -1.574232     0.135489    -0.009773
H     -1.770364    -0.078584     1.146002
H     -2.580506    -0.013528    -0.765298
C     -1.058705     1.523895    -0.067937
H     -0.217950     1.724740     0.618362
H      0.210337     1.349519    -0.076374
6
Family_2 [H]C([H])=C([H])[H] | RMSD: 0.7537 | 1960.00 to state    1 from traj    1 on state    2
C     -1.562591     0.157433    -0.035943
H     -1.435866    -0.392124     1.001417
H     -2.222586     1.118972    -0.505709
C     -0.976598     1.378748     0.029485
H     -1.521687     2.216369     0.269015
H     -0.295411     1.506971    -0.691050
6
Family_2 [H]C([H])=C([H])[H] | RMSD: 0.7819 | 2524.00 to state    1 from traj    1 on state    2
C     -1.570639     0.100926    -0.137727
H     -1.869651    -0.454366     0.835761
H     -2.109777     0.834098     0.618128
C     -1.008072     1.464169     0.061221
H     -1.051446     2.322264    -0.644276
H      0.026255     1.403659     0.098729
6
Family_2 [H]C([H])=C([H])[H] | RMSD: 0.6597 | 524.00 to state    1 from traj    1 on state    2
C     -1.559267     0.195831    -0.087016
H     -2.152035    -0.247661     0.961311
H     -2.609908     0.029556     0.168096
C     -0.901441     1.417187     0.044587
H     -1.502638     2.320029     0.152849
H     -0.146120     1.432705    -0.779965
6
Family_2 [H]C([H])=C([H])[H] | RMSD: 0.5597 | 832.00 to state    1 from traj    1 on state    2
C     -1.540336     0.134443    -0.087334
H     -1.767069     0.033243     1.245147
H     -2.794542     0.677480    -0.215323
C     -0.951336     1.401090     0.020031
H     -1.379233     2.163072     0.508764
H     -0.100907     1.584119    -0.739902
6
Family_2 [H]C([H])=C([H])[H] | RMSD: 0.1826 | 736.00 to state    1 from traj    1 on state    2
C     -1.721383    -0.067165    -0.098029
H     -1.432363     0.240333     0.891811
H     -2.704019     0.085961     0.072282
C     -0.847376     1.619828    -0.066423
H     -1.212705     2.246754     0.621233
H      0.225885     1.680749     0.370948
6
Family_2 [H]C([H])=C([H])[H] | RMSD: 0.4191 | 1388.00 to state    1 from traj    1 on state    2
C     -1.674477    -0.003901    -0.073909
H     -1.392909     0.512433     0.995978
H     -2.813265     0.213910    -0.416594
C     -0.885963     1.529252    -0.019215
H     -1.273291     2.088533     0.814629
H      0.257137     1.764356    -0.287660
6
Family_2 [H]C([H])=C([H])[H] | RMSD: 0.6641 | 3288.00 to state    1 from traj    1 on state    2
C     -1.576477     0.246514    -0.005488
H     -1.508079    -0.223237     1.077211
H     -2.319373    -0.347061    -0.624896
C     -1.012027     1.469405    -0.079874
H     -0.995455     2.336336     0.635563
H     -0.065017     0.542447    -0.074016
6
Family_2 [H]C([H])=C([H])[H] | RMSD: 0.6035 | 1884.00 to state    1 from traj    1 on state    2
C     -1.526641     0.171365    -0.123386
H     -1.707676     0.161231     1.154441
H     -2.657868     0.478994    -0.109556
C     -1.010543     1.349031     0.101225
H     -0.928961     2.457545    -0.018169
H     -0.204941     1.540503    -0.765932
6
Family_2 [H]C([H])=C([H])[H] | RMSD: 0.4032 | 1804.00 to state    1 from traj    1 on state    2
C     -1.611295     0.170820    -0.095781
H     -1.411214     0.368367     1.179088
H     -2.709942     0.203753    -0.167772
C     -0.925027     1.370016    -0.026931
H     -1.538040     2.019713     0.672889
H      0.149487     1.802888    -0.225294
6
Family_2 [H]C([H])=C([H])[H] | RMSD: 0.5976 | 4448.00 to state    1 from traj    1 on state    2
C     -1.531443     0.110329    -0.046059
H     -2.203406    -0.126626     0.905696
H     -2.709076     0.673967    -0.128292
C     -0.951657     1.416096    -0.057168
H     -1.163252     2.205209     0.984372
H     -0.068160     1.813885    -0.535043
6
Family_2 [H]C([H])=C([H])[H] | RMSD: 0.4037 | 9640.00 to state    1 from traj    1 on state    2
C     -1.580641     0.055405    -0.088781
H     -1.804098     0.072427     1.036854
H     -2.891883     0.599617    -0.046525
C     -0.923188     1.453990    -0.025280
H     -1.163911     2.225370     0.685804
H     -0.037000     1.871951    -0.320304
6
Family_2 [H]C([H])=C([H])[H] | RMSD: 0.5486 | 1124.00 to state    1 from traj    1 on state    2
C     -1.580646     0.122426    -0.116096
H     -1.623475     0.098135     1.312131
H     -2.701997     0.666518    -0.078187
C     -0.903371     1.359720     0.014635
H     -1.474546     2.364462     0.606457
H     -0.332954     1.964928    -0.634708
6
Family_2 [H]C([H])=C([H])[H] | RMSD: 0.5756 | 7432.00 to state    1 from traj    1 on state    2
C     -1.661979     0.204991    -0.054021
H     -1.204607     0.497630     0.828149
H     -2.273385    -0.488663    -0.483766
C     -0.963252     1.410934    -0.012200
H     -1.305219     2.298887     0.538585
H      0.332908     1.192121    -0.097187
6
Family_2 [H]C([H])=C([H])[H] | RMSD: 0.4533 | 2908.00 to state    1 from traj    1 on state    2
C     -1.533283     0.165765    -0.075781
H     -2.019893     0.039915     0.954051
H     -2.964830     0.371770     0.125813
C     -0.941900     1.380920    -0.072166
H     -1.206140     2.019124     0.842785
H     -0.047362     1.894214    -0.163041
6
Family_2 [H]C([H])=C([H])[H] | RMSD: 0.5621 | 3028.00 to state    1 from traj    1 on state    2
C     -1.536493     0.178220    -0.073779
H     -2.013043     0.065452     0.938914
H     -2.908809     0.524554     0.095442
C     -0.939401     1.351732    -0.055390
H     -1.329385     1.786758     0.779514
H      0.021480     2.147641    -0.278015
6
Family_2 [H]C([H])=C([H])[H] | RMSD: 0.6794 | 3276.00 to state    1 from traj    1 on state    2
C     -1.582241     0.115362    -0.061094
H     -1.830248    -0.031468     1.022466
H     -2.312508     0.868674    -0.192449
C     -0.907217     1.401540    -0.010124
H     -1.583729     2.021825     0.722954
H     -0.341638     1.820871    -0.707645
6
Family_2 [H]C([H])=C([H])[H] | RMSD: 0.7114 | 4256.00 to state    1 from traj    1 on state    2
C     -1.583182     0.271437    -0.037170
H     -1.420720     0.070887     1.111469
H     -2.115674    -0.465389    -0.543956
C     -1.027906     1.429182    -0.038688
H     -0.853703     2.323561     0.444462
H     -0.228728     0.561740    -0.111364
6
Family_2 [H]C([H])=C([H])[H] | RMSD: 0.5920 | 1376.00 to state    1 from traj    1 on state    2
C     -1.637367     0.230982    -0.031084
H     -1.506505     0.070804     1.030240
H     -2.279388    -0.625336    -0.488698
C     -1.008502     1.428508    -0.113024
H     -0.556824     2.050399     0.777352
H      0.138334     1.485007     0.394964
6
Family_2 [H]C([H])=C([H])[H] | RMSD: 0.5365 | 1532.00 to state    1 from traj    1 on state    2
C     -1.614114     0.193381    -0.024523
H     -1.648469    -0.140790     1.101440
H     -2.522041    -0.427565    -0.512161
C     -1.011630     1.454178    -0.128200
H     -0.505996     2.156047     0.884325
H      0.232303     1.535348     0.342910
6
Family_2 [H]C([H])=C([H])[H] | RMSD: 0.7043 | 960.00 to state    1 from traj    1 on state    2
C     -1.624693     0.049952    -0.142037
H     -1.702304    -0.522071     0.813574
H     -2.173345     0.712236     0.792656
C     -0.941862     1.515054    -0.006544
H     -1.303077     2.519340    -0.385020
H      0.029246     1.397218     0.545942
6
Family_2 [H]C([H])=C([H])[H] | RMSD: 0.5011 | 6020.00 to state    1 from traj    1 on state    2
C     -1.582539     0.163490    -0.140066
H     -1.711148     0.189137     1.204542
H     -2.684150     0.136537     0.212206
C     -0.913475     1.398958     0.058806
H     -1.381600     2.263279     0.067884
H     -0.213114     1.548239    -0.519654
6
Family_2 [H]C([H])=C([H])[H] | RMSD: 0.4036 | 552.00 to state    1 from traj    1 on state    2
C     -1.757433    -0.064026    -0.115477
H     -1.055401     0.110339     0.816615
H     -2.771910     0.146743     0.318762
C     -0.789420     1.639412    -0.045962
H     -1.649242     2.110039     0.159507
H      0.092321     1.615918     0.625492
6
Family_2 [H]C([H])=C([H])[H] | RMSD: 0.5769 | 1456.00 to state    1 from traj    1 on state    2
C     -1.650853    -0.075566    -0.094242
H     -1.989194    -0.041849     1.093379
H     -2.704863     0.425978    -0.200637
C     -0.857012     1.589225     0.049991
H     -1.050775     2.550448     0.481693
H     -0.103969     1.783975    -0.850437
6
Family_2 [H]C([H])=C([H])[H] | RMSD: 0.6875 | 1236.00 to state    1 from traj    1 on state    2
C     -1.714760     0.129502    -0.168393
H     -0.998211     0.286256     0.768776
H     -2.253880     0.134846     0.644549
C     -0.867945     1.401698     0.034831
H     -1.639775     2.090346    -0.404657
H     -0.065160     1.998083     0.579526
6
Family_2 [H]C([H])=C([H])[H] | RMSD: 0.6313 | 3980.00 to state    1 from traj    1 on state    2
C     -1.618511     0.210733    -0.155427
H     -1.405740     0.377889     1.187897
H     -2.509852    -0.169627     0.165459
C     -0.913489     1.373121     0.111738
H     -1.580207     2.297845    -0.277342
H     -0.065409     1.376020    -0.558711
6
Family_2 [H]C([H])=C([H])[H] | RMSD: 0.2530 | 788.00 to state    1 from traj    1 on state    2
C     -1.713646    -0.014212    -0.103219
H     -1.332353     0.313583     0.813894
H     -2.708215     0.044296     0.160043
C     -0.849928     1.555913    -0.070014
H     -1.403024     2.296128     0.631902
H      0.258597     1.730401     0.455058
6
Family_2 [H]C([H])=C([H])[H] | RMSD: 0.4283 | 2856.00 to state    1 from traj    1 on state    2
C     -1.494924     0.260434    -0.097666
H     -1.893476     0.023755     1.213568
H     -2.714819     0.174520     0.100231
C     -1.007983     1.339679    -0.035765
H     -1.212078     2.308630     0.529057
H     -0.087507     1.181480    -0.256210
6
Family_2 [H]C([H])=C([H])[H] | RMSD: 0.3809 | 3232.00 to state    1 from traj    1 on state    2
C     -1.676526    -0.000202    -0.104748
H     -1.409248     0.308367     1.288393
H     -2.875311     0.258130    -0.276702
C     -0.858568     1.518353    -0.009204
H     -1.416145     2.229912     0.700268
H      0.176362     1.868605    -0.357432
6
Family_2 [H]C([H])=C([H])[H] | RMSD: 0.6733 | 4004.00 to state    1 from traj    1 on state    2
C     -1.482910     0.214286    -0.053111
H     -2.111954    -0.363409     1.151065
H     -2.386679     0.695534    -0.218348
C     -1.032242     1.370053    -0.010235
H     -1.221746     2.373679     0.529898
H     -0.041596     1.170541    -0.711085
6
Family_2 [H]C([H])=C([H])[H] | RMSD: 0.7239 | 9148.00 to state    1 from traj    1 on state    2
C     -1.574309     0.072590    -0.012018
H     -1.734692    -0.683688     0.967124
H     -2.498669     1.061332    -0.571668
C     -0.946749     1.456695    -0.014150
H     -1.330110     2.462588     0.598293
H     -0.128125     1.692119    -0.685216
6
Family_2 [H]C([H])=C([H])[H] | RMSD: 0.2536 | 592.00 to state    1 from traj    1 on state    2
C     -1.707197    -0.049736    -0.099829
H     -1.359282     0.214399     0.959580
H     -2.828406     0.333440     0.104644
C     -0.828487     1.578871    -0.078991
H     -1.441279     2.097791     0.714968
H      0.111648     1.888512     0.348283
6
Family_2 [H]C([H])=C([H])[H] | RMSD: 0.3148 | 840.00 to state    1 from traj    1 on state    2
C     -1.716937    -0.062156    -0.085344
H     -1.446569     0.342189     0.855851
H     -2.782994     0.149244    -0.196371
C     -0.850880     1.571166    -0.027443
H     -1.217925     2.304107     0.721220
H      0.313051     1.978401    -0.040044
6
Family_2 [H]C([H])=C([H])[H] | RMSD: 0.5374 | 8912.00 to state    1 from traj    1 on state    2
C     -1.667253     0.083932    -0.118867
H     -1.389889     0.513580     0.850845
H     -2.971644    -0.412713    -0.033676
C     -0.859422     1.484194     0.077421
H     -1.474817     2.523316     0.135658
H      0.211692     1.445355    -0.462248
6
Family_2 [H]C([H])=C([H])[H] | RMSD: 0.5091 | 1236.00 to state    1 from traj    1 on state    2
C     -1.633811     0.166401    -0.143191
H     -1.524100     0.234973     1.129168
H     -2.590334     0.206572     0.544923
C     -0.863210     1.399868    -0.039253
H     -1.877279     1.826013     0.306986
H      0.013705     1.824104     0.189582
6
Family_2 [H]C([H])=C([H])[H] | RMSD: 0.5003 | 4496.00 to state    1 from traj    1 on state    2
C     -1.534908     0.181839    -0.073861
H     -1.795027     0.160977     0.985593
H     -2.656969     0.623357    -0.062298
C     -0.965312     1.358418    -0.023439
H     -1.385688     1.924730     0.642018
H     -0.102208     1.692547    -0.409199
6
Family_2 [H]C([H])=C([H])[H] | RMSD: 0.6625 | 5316.00 to state    1 from traj    1 on state    2
C     -1.621867     0.212665    -0.136773
H     -1.538791    -0.389419     0.864383
H     -2.226439     0.093411     0.876614
C     -0.912521     1.394484    -0.077633
H     -1.405818     2.345619    -0.069451
H     -0.361712     1.554934     0.879963
6
Family_2 [H]C([H])=C([H])[H] | RMSD: 0.6046 | 1244.00 to state    1 from traj    1 on state    2
C     -1.657647     0.187511    -0.051851
H     -1.130534     0.521288     0.901169
H     -2.309128    -0.335078    -0.668197
C     -0.961271     1.406603     0.019711
H     -1.257588     2.332721     0.514201
H      0.171728     1.240937    -0.367489
6
Family_2 [H]C([H])=C([H])[H] | RMSD: 0.6240 | 3320.00 to state    1 from traj    1 on state    2
C     -1.556772     0.164224    -0.109173
H     -1.584951     0.238062     1.232135
H     -2.520239     0.648423    -0.135543
C     -0.938809     1.360993     0.056731
H     -1.556031     2.206225     0.340783
H     -0.333951     1.488112    -0.815784
6
Family_2 [H]C([H])=C([H])[H] | RMSD: 0.5007 | 5560.00 to state    1 from traj    1 on state    2
C     -1.610348     0.186724    -0.122642
H     -1.368765     0.263368     1.183666
H     -2.622238    -0.158797    -0.212149
C     -0.946054     1.349183     0.064744
H     -1.057202     2.734981     0.209942
H     -0.222243     1.613895    -0.494847
6
Family_2 [H]C([H])=C([H])[H] | RMSD: 0.4317 | 2044.00 to state    1 from traj    1 on state    2
C     -1.660587     0.094308    -0.079963
H     -1.316509     0.519874     0.835696
H     -2.938721    -0.162673    -0.211808
C     -0.868668     1.470060    -0.002793
H     -1.538092     2.160882     0.591205
H      0.199398     1.596242    -0.232286
6
Family_2 [H]C([H])=C([H])[H] | RMSD: 0.5733 | 2220.00 to state    1 from traj    1 on state    2
C     -1.652210     0.183033    -0.099607
H     -1.199789     0.448226     1.303874
H     -2.465185    -0.229089    -0.384536
C     -0.909436     1.419721     0.035899
H     -1.585243     2.169865     0.345108
H      0.042246     1.267922    -0.508593
6
Family_2 [H]C([H])=C([H])[H] | RMSD: 0.8178 | 3612.00 to state    1 from traj    1 on state    2
C     -1.678120     0.150581     0.006044
H     -1.405988     0.240626     1.020119
H     -1.739470    -0.472672    -0.842862
C     -1.006814     1.543720    -0.126755
H     -0.494684     1.843431     0.975435
H     -0.098760     0.954698     0.282373
6
Family_2 [H]C([H])=C([H])[H] | RMSD: 0.6518 | 4052.00 to state    1 from traj    1 on state    2
C     -1.701029     0.230612    -0.014251
H     -0.902539     0.208086     0.783617
H     -2.110807    -0.352322    -0.875364
C     -0.967939     1.355864    -0.023748
H     -1.178954     2.216053     0.558881
H      0.263149     1.779075    -0.017632
6
Family_2 [H]C([H])=C([H])[H] | RMSD: 0.7617 | 808.00 to state    1 from traj    1 on state    2
C     -1.711655     0.060274    -0.093126
H     -1.707352    -0.017153     1.007431
H     -2.847632    -0.356259    -0.001970
C     -0.712800     1.557847     0.079259
H     -1.731966     1.932153     0.063499
H     -0.555743     1.915083    -0.907006
6
Family_2 [H]C([H])=C([H])[H] | RMSD: 0.3905 | 580.00 to state    1 from traj    1 on state    2
C     -1.703953     0.027461    -0.110297
H     -1.215093     0.289749     0.862965
H     -2.769754     0.206004     0.242166
C     -0.829404     1.525245    -0.046260
H     -1.637326     1.891179     0.370400
H      0.077120     1.866343     0.386661
6
Family_2 [H]C([H])=C([H])[H] | RMSD: 0.5629 | 3136.00 to state    1 from traj    1 on state    2
C     -1.704930     0.231951    -0.100697
H     -1.166393     0.398578     1.159756
H     -2.222802    -0.781981    -0.190727
C     -0.911140     1.391759    -0.030054
H     -1.295175     2.203093     0.416670
H      0.124908     1.587530     0.168998
6
Family_2 [H]C([H])=C([H])[H] | RMSD: 0.3521 | 1340.00 to state    1 from traj    1 on state    2
C     -1.653873     0.038356    -0.078299
H     -1.416379     0.459073     0.873202
H     -2.873221     0.208094    -0.161109
C     -0.893442     1.496118    -0.048481
H     -1.470820     2.115432     0.811008
H      0.381701     1.687934    -0.015716
6
Family_2 [H]C([H])=C([H])[H] | RMSD: 0.4708 | 4680.00 to state    1 from traj    1 on state    2
C     -1.654585     0.097088    -0.153990
H     -1.585500     0.356109     1.082226
H     -2.521270    -0.145493     0.335048
C     -0.900957     1.485809     0.053584
H     -1.401891     2.273474    -0.076807
H      0.227964     1.409447    -0.147337
6
Family_2 [H]C([H])=C([H])[H] | RMSD: 0.6976 | 2356.00 to state    1 from traj    1 on state    2
C     -1.763350     0.243874    -0.075445
H     -1.080009     0.108439     1.057440
H     -1.834805    -0.820526    -0.372529
C     -0.877059     1.367969    -0.017072
H     -1.425868     2.322479     0.356094
H      0.071235     1.938226     0.058115
6
Family_2 [H]C([H])=C([H])[H] | RMSD: 0.7885 | 2484.00 to state    1 from traj    1 on state    2
C     -1.642966     0.220190    -0.063411
H     -1.463377    -0.093966     1.037251
H     -2.701617     0.060158    -0.221350
C     -0.800652     1.381246     0.053216
H     -2.080285     1.724994     0.180895
H     -0.369069     1.981448    -0.878598
6
Family_2 [H]C([H])=C([H])[H] | RMSD: 0.6849 | 2880.00 to state    1 from traj    1 on state    2
C     -1.561229     0.109515    -0.055306
H     -1.885906    -0.061606     0.991327
H     -2.498541     0.868071    -0.293962
C     -0.934319     1.413651     0.021305
H     -1.479717     2.056335     0.575780
H     -0.131408     1.742467    -0.871272
6
Family_2 [H]C([H])=C([H])[H] | RMSD: 0.6094 | 3756.00 to state    1 from traj    1 on state    2
C     -1.570602     0.148638    -0.108042
H     -1.481668     0.370587     1.143489
H     -2.592045     0.405467    -0.143108
C     -0.918105     1.397355     0.059108
H     -1.480331     2.316059     0.340966
H     -0.523034     1.241156    -0.761543
6
Family_2 [H]C([H])=C([H])[H] | RMSD: 0.6168 | 3892.00 to state    1 from traj    1 on state    2
C     -1.605272     0.123210    -0.097410
H     -1.425767     0.520304     1.033238
H     -2.606008     0.242980    -0.386220
C     -0.928727     1.402896     0.092778
H     -1.303525     2.289880     0.293611
H     -0.202096     1.517070    -0.888725
6
Family_2 [H]C([H])=C([H])[H] | RMSD: 0.6554 | 1640.00 to state    1 from traj    1 on state    2
C     -1.698233     0.200630    -0.051917
H     -0.968046     0.369057     1.042021
H     -1.970157    -0.477831    -0.717553
C     -0.967820     1.419690    -0.007427
H     -1.134518     2.340022     0.453889
H      0.108834     1.216369    -0.074507
6
Family_2 [H]C([H])=C([H])[H] | RMSD: 0.5017 | 2396.00 to state    1 from traj    1 on state    2
C     -1.623102     0.152646    -0.088092
H     -1.292690     0.461223     1.179480
H     -2.593782    -0.151725    -0.504329
C     -0.957985     1.416874     0.031210
H     -1.070328     2.393122     0.470422
H     -0.019512     1.350314    -0.471069
6
Family_2 [H]C([H])=C([H])[H] | RMSD: 0.4943 | 4692.00 to state    1 from traj    1 on state    2
C     -1.593278     0.207558    -0.106242
H     -1.464531     0.315152     1.200583
H     -2.557408     0.385981    -0.054665
C     -0.918565     1.313426    -0.010241
H     -1.674414     2.015857     0.608258
H     -0.105040     1.914283    -0.369479
6
Family_2 [H]C([H])=C([H])[H] | RMSD: 0.6410 | 1352.00 to state    1 from traj    1 on state    2
C     -1.569573     0.065377    -0.068178
H     -1.735650    -0.206345     0.984774
H     -2.433045     0.824463    -0.247558
C     -0.947829     1.480843     0.046694
H     -1.152717     2.372250     0.222877
H     -0.413741     1.340193    -0.707383
6
Family_2 [H]C([H])=C([H])[H] | RMSD: 0.7413 | 5876.00 to state    1 from traj    1 on state    2
C     -1.732461     0.279878    -0.089571
H     -1.332826     0.049661     1.056448
H     -1.632759    -0.862701    -0.142050
C     -0.919993     1.364961    -0.006986
H     -1.458324     2.352238     0.158105
H      0.297984     1.616253     0.074755
6
Family_2 [H]C([H])=C([H])[H] | RMSD: 0.5497 | 2408.00 to state    1 from traj    1 on state    2
C     -1.558934     0.121863    -0.072149
H     -1.711509    -0.149614     1.166018
H     -2.688520     0.905765    -0.223911
C     -0.957040     1.382745    -0.024095
H     -1.287325     2.055830     0.627953
H     -0.064814     2.014429    -0.426531
6
Family_2 [H]C([H])=C([H])[H] | RMSD: 0.5016 | 6768.00 to state    1 from traj    1 on state    2
C     -1.535723     0.187853    -0.058085
H     -1.479292    -0.021867     1.170560
H     -2.477130     0.748285    -0.489861
C     -1.028764     1.333979    -0.023787
H     -1.162288     2.395523     0.695978
H     -0.055399     1.499226    -0.404404
6
Family_2 [H]C([H])=C([H])[H] | RMSD: 0.7541 | 8248.00 to state    1 from traj    1 on state    2
C     -1.638174     0.146096     0.029938
H     -1.563528    -0.384965     1.028902
H     -2.004643    -0.296361    -0.918668
C     -1.016568     1.556534    -0.124166
H     -0.496866     2.300187     0.885729
H     -0.033620     0.847975     0.123543
6
Family_2 [H]C([H])=C([H])[H] | RMSD: 0.6855 | 6620.00 to state    1 from traj    1 on state    2
C     -1.702653     0.001174    -0.105262
H     -1.537667    -0.774226     0.796750
H     -2.013723     0.734484     0.569683
C     -0.857860     1.542631    -0.068063
H     -1.514526     2.596778     0.040762
H     -0.155545     1.802299     0.654813
6
Family_2 [H]C([H])=C([H])[H] | RMSD: 0.4174 | 2436.00 to state    1 from traj    1 on state    2
C     -1.717763    -0.061269    -0.098126
H     -1.319581     0.084823     1.049142
H     -2.856513     0.553327     0.103039
C     -0.797244     1.594654    -0.068987
H     -1.725241     1.828915     0.599667
H      0.137644     2.016438     0.236139
6
Family_2 [H]C([H])=C([H])[H] | RMSD: 0.4591 | 3132.00 to state    1 from traj    1 on state    2
C     -1.582341     0.249850    -0.117516
H     -1.668012     0.241794     1.135291
H     -2.474827    -0.449557     0.085436
C     -0.994408     1.365706    -0.005366
H     -1.002670     2.445906     0.270695
H      0.117514     1.266238    -0.030479
6
Family_2 [H]C([H])=C([H])[H] | RMSD: 0.7841 | 1184.00 to state    1 from traj    1 on state    2
C     -1.575710     0.180533    -0.133254
H     -1.474214    -0.483363     0.769996
H     -2.082163     0.674971     0.858149
C     -0.967188     1.398623    -0.054302
H     -1.272384     2.504380    -0.237711
H     -0.602603     1.242111     0.841142
6
Family_2 [H]C([H])=C([H])[H] | RMSD: 0.6783 | 2916.00 to state    1 from traj    1 on state    2
C     -1.603729     0.098040    -0.061676
H     -1.676542    -0.347241     1.009628
H     -2.346053     1.007929    -0.220983
C     -0.908484     1.375827    -0.016957
H     -1.399590     2.279111     0.633148
H     -0.374804     2.252904    -0.488107
6
Family_2 [H]C([H])=C([H])[H] | RMSD: 0.3368 | 576.00 to state    1 from traj    1 on state    2
C     -1.653514     0.090369    -0.114098
H     -1.423707     0.354423     1.191258
H     -2.833361    -0.135477    -0.107057
C     -0.887148     1.461876    -0.009548
H     -1.452638     2.481709     0.601352
H      0.251715     1.558120    -0.215510
6
Family_2 [H]C([H])=C([H])[H] | RMSD: 0.5582 | 2124.00 to state    1 from traj    1 on state    2
C     -1.531279     0.118720    -0.036805
H     -1.553852    -0.072431     0.948765
H     -2.576047     0.994256    -0.479782
C     -1.021233     1.415971    -0.018687
H     -1.215853     2.235817     0.613994
H      0.028952     1.310307    -0.425040
6
Family_2 [H]C([H])=C([H])[H] | RMSD: 0.2809 | 2716.00 to state    1 from traj    1 on state    2
C     -1.649983     0.118792    -0.111977
H     -1.356414     0.373920     1.120597
H     -2.757425    -0.110528    -0.012227
C     -0.896110     1.427900    -0.046197
H     -1.473334     2.456150     0.716305
H      0.193878     1.605395     0.056791
6
Family_2 [H]C([H])=C([H])[H] | RMSD: 0.7515 | 3788.00 to state    1 from traj    1 on state    2
C     -1.631681     0.196168     0.020028
H     -1.429816    -0.159474     0.829665
H     -2.059504    -0.467309    -0.781804
C     -0.989088     1.525280    -0.073365
H     -0.859768     2.295198     0.630919
H     -0.154377     0.574187    -0.046511
6
Family_2 [H]C([H])=C([H])[H] | RMSD: 0.5301 | 2208.00 to state    1 from traj    1 on state    2
C     -1.621872     0.169065    -0.052976
H     -1.153434     0.595354     1.000526
H     -2.420860    -0.020893    -0.699124
C     -1.009548     1.390385    -0.023379
H     -0.941204     2.193779     0.760237
H      0.138937     1.404685    -0.155099
6
Family_2 [H]C([H])=C([H])[H] | RMSD: 0.4575 | 896.00 to state    1 from traj    1 on state    2
C     -1.560544     0.101353    -0.075711
H     -1.607679     0.328570     0.945549
H     -2.578313     0.473923    -0.303767
C     -1.000666     1.440348     0.012552
H     -0.951479     2.326196     0.518666
H     -0.075683     1.255719    -0.411143
6
Family_2 [H]C([H])=C([H])[H] | RMSD: 0.6935 | 1916.00 to state    1 from traj    1 on state    2
C     -1.552063     0.145674    -0.000327
H     -1.733315    -0.363280     0.704324
H     -2.307144     0.906667    -0.612410
C     -1.009189     1.393250     0.003059
H     -1.267118     2.310469     0.540931
H      0.094924     1.563652    -0.668684
6
Family_2 [H]C([H])=C([H])[H] | RMSD: 0.6082 | 5100.00 to state    1 from traj    1 on state    2
C     -1.656612     0.220405    -0.103897
H     -1.462462     0.503021     0.943816
H     -2.192494    -0.842870    -0.049029
C     -0.974726     1.409460    -0.018782
H     -0.920348     2.471194     0.374147
H      0.197766     1.202535     0.189591
6
Family_2 [H]C([H])=C([H])[H] | RMSD: 0.2721 | 4160.00 to state    1 from traj    1 on state    2
C     -1.630240     0.086220    -0.120534
H     -1.532233     0.249640     1.232575
H     -2.779001     0.224764     0.035245
C     -0.904841     1.444914    -0.026978
H     -1.318723     2.204123     0.568439
H      0.105450     1.831801    -0.081835
6
Family_2 [H]C([H])=C([H])[H] | RMSD: 0.2506 | 1068.00 to state    1 from traj    1 on state    2
C     -1.662394     0.028934    -0.134102
H     -1.460203     0.231348     1.344621
H     -2.648323     0.342508     0.195028
C     -0.889841     1.509807    -0.074927
H     -1.447776     2.148916     0.660625
H      0.236198     1.696916     0.287171
6
Family_2 [H]C([H])=C([H])[H] | RMSD: 0.5850 | 2176.00 to state    1 from traj    1 on state    2
C     -1.550611     0.152318    -0.100319
H     -1.474377     0.329853     1.196756
H     -2.767567     0.337166    -0.362602
C     -0.968878     1.385835     0.069522
H     -1.144155     2.489785     0.339118
H     -0.324190     1.269888    -0.809581
6
Family_2 [H]C([H])=C([H])[H] | RMSD: 0.3343 | 696.00 to state    1 from traj    1 on state    2
C     -1.599859     0.108129    -0.124483
H     -1.802501     0.097534     1.293675
H     -2.637190     0.110060     0.145991
C     -0.929579     1.465116    -0.019804
H     -1.295673     2.403139     0.476165
H      0.143622     1.397817    -0.199838
6
Family_2 [H]C([H])=C([H])[H] | RMSD: 0.7035 | 2164.00 to state    1 from traj    1 on state    2
C     -1.673883     0.239655    -0.039262
H     -1.087815     0.501672     0.805953
H     -2.154141    -0.710876    -0.620904
C     -0.952170     1.409009    -0.003998
H     -1.315818     2.316767     0.501253
H      0.117261     1.002304    -0.174109
6
Family_2 [H]C([H])=C([H])[H] | RMSD: 0.4393 | 1008.00 to state    1 from traj    1 on state    2
C     -1.665505     0.094426    -0.147036
H     -1.332167     0.239113     0.987247
H     -2.490215     0.328760     0.603159
C     -0.863391     1.438936    -0.066891
H     -1.779579     2.179919     0.396956
H      0.003751     1.735981     0.558441
6
Family_2 [H]C([H])=C([H])[H] | RMSD: 0.5071 | 1060.00 to state    1 from traj    1 on state    2
C     -1.575652     0.078424    -0.081599
H     -1.707519     0.131142     1.166999
H     -2.657333     0.720005    -0.265660
C     -0.944107     1.438036    -0.000883
H     -1.413466     2.254410     0.689285
H      0.071241     1.579623    -0.611087
6
Family_2 [H]C([H])=C([H])[H] | RMSD: 0.7771 | 1212.00 to state    1 from traj    1 on state    2
C     -1.648419     0.028282    -0.083678
H     -1.378067    -0.842574     0.733663
H     -2.061438     0.857539     0.473170
C     -0.917321     1.546258    -0.097383
H     -1.069822     2.604215     0.019846
H     -0.649862     1.373930     0.927510
6
Family_2 [H]C([H])=C([H])[H] | RMSD: 0.7454 | 1660.00 to state    1 from traj    1 on state    2
C     -1.503434     0.180198    -0.014778
H     -1.879885    -0.552811     0.852405
H     -2.419392     0.858907    -0.492146
C     -1.022764     1.390107     0.022874
H     -1.104697     2.449009     0.335588
H     -0.226388     1.288466    -0.795595
6
Family_2 [H]C([H])=C([H])[H] | RMSD: 0.7170 | 732.00 to state    1 from traj    1 on state    2
C     -1.606273     0.022512    -0.108101
H     -1.657592    -0.514234     0.832497
H     -2.144845     0.865429     0.372136
C     -0.971018     1.568041     0.032706
H     -1.189637     2.453727    -0.441797
H     -0.029459     0.997391     0.132271
6
Family_2 [H]C([H])=C([H])[H] | RMSD: 0.5085 | 1232.00 to state    1 from traj    1 on state    2
C     -1.576196     0.118722    -0.120987
H     -1.995992    -0.057211     1.250055
H     -2.726654     0.180371     0.123432
C     -0.918210     1.447939     0.034514
H     -1.312063     2.450048     0.281926
H      0.025528     1.513783    -0.628313
6
Family_2 [H]C([H])=C([H])[H] | RMSD: 0.5662 | 4136.00 to state    1 from traj    1 on state    2
C     -1.545172     0.180677    -0.060736
H     -1.817022    -0.252493     1.101459
H     -2.499216     0.824875    -0.172910
C     -0.967682     1.319341    -0.062037
H     -1.267321     2.218463     0.852519
H     -0.205797     2.090241    -0.321422
6
Family_2 [H]C([H])=C([H])[H] | RMSD: 0.3930 | 3576.00 to state    1 from traj    1 on state    2
C     -1.576498     0.203806    -0.107028
H     -1.674992     0.204024     1.048823
H     -2.674935    -0.268736    -0.036975
C     -1.000962     1.370303    -0.001335
H     -0.885063     2.604083     0.377461
H      0.215466     1.458886    -0.101371
6
Family_2 [H]C([H])=C([H])[H] | RMSD: 0.4550 | 3836.00 to state    1 from traj    1 on state    2
C     -1.607274     0.118734    -0.075175
H     -1.335978     0.414185     1.111011
H     -2.662468     0.345747    -0.442321
C     -0.945223     1.423748     0.002291
H     -1.345891     2.118812     0.636571
H      0.027364     1.496360    -0.440079
6
Family_2 [H]C([H])=C([H])[H] | RMSD: 0.7034 | 4400.00 to state    1 from traj    1 on state    2
C     -1.523838     0.151540    -0.037084
H     -2.139401    -0.395827     0.689864
H     -2.723723     0.630805    -0.217736
C     -0.962626     1.348636     0.005478
H     -0.972915     2.579256     0.634997
H     -0.267772     2.064972    -0.733797
6
Family_2 [H]C([H])=C([H])[H] | RMSD: 0.7023 | 2624.00 to state    1 from traj    1 on state    2
C     -1.609177     0.076873    -0.113776
H     -1.750697     0.136056     1.024156
H     -2.433812     0.762254    -0.005219
C     -0.888020     1.378328     0.057264
H     -1.197863     2.196435     0.370027
H     -0.593545     2.320378    -0.718868
6
Family_2 [H]C([H])=C([H])[H] | RMSD: 0.7019 | 2788.00 to state    1 from traj    1 on state    2
C     -1.602604     0.098768    -0.052769
H     -1.713209    -0.323931     1.014683
H     -2.214802     0.996944    -0.279304
C     -0.907179     1.405654    -0.003579
H     -1.654966     2.289047     0.612546
H     -0.242961     1.866556    -0.679783
6
Family_2 [H]C([H])=C([H])[H] | RMSD: 0.6296 | 2672.00 to state    1 from traj    1 on state    2
C     -1.619975     0.172443    -0.015303
H     -1.578441    -0.014571     1.237495
H     -2.418664    -0.464414    -0.613608
C     -0.997515     1.542178    -0.130547
H     -0.612994     1.827380     0.850825
H      0.067554     0.975548     0.259902
6
Family_2 [H]C([H])=C([H])[H] | RMSD: 0.6088 | 3128.00 to state    1 from traj    1 on state    2
C     -1.653681     0.247103    -0.041475
H     -1.087565     0.302980     0.927648
H     -2.289478    -0.322128    -0.700015
C     -0.962737     1.349125     0.010942
H     -1.478675     2.351196     0.498413
H      0.300390     1.402637    -0.365508
6
Family_2 [H]C([H])=C([H])[H] | RMSD: 0.6355 | 1792.00 to state    1 from traj    1 on state    2
C     -1.604933     0.091963    -0.087794
H     -1.499033     0.517108     1.151272
H     -2.657554    -0.169523    -0.558348
C     -0.970203     1.484964     0.060551
H     -0.799889     2.581903     0.447313
H     -0.090749     1.035184    -0.718895
6
Family_2 [H]C([H])=C([H])[H] | RMSD: 0.5093 | 2216.00 to state    1 from traj    1 on state    2
C     -1.567118     0.241121    -0.128011
H     -1.823282     0.099053     1.179500
H     -2.621897    -0.169130     0.251239
C     -0.966708     1.367176     0.020663
H     -1.526003     2.348592     0.135881
H      0.431723     1.312354    -0.290778
6
Family_2 [H]C([H])=C([H])[H] | RMSD: 0.5301 | 3080.00 to state    1 from traj    1 on state    2
C     -1.630323     0.133852    -0.127814
H     -1.387125     0.407197     1.259243
H     -2.863788     0.090233    -0.117462
C     -0.880010     1.406406     0.065750
H     -1.604230     2.128071     0.228787
H      0.035750     1.776104    -0.634315
6
Family_2 [H]C([H])=C([H])[H] | RMSD: 0.5962 | 968.00 to state    1 from traj    1 on state    2
C     -1.622969     0.000057    -0.082520
H     -1.817963    -0.095874     0.893582
H     -2.530319     0.768431    -0.146386
C     -0.886400     1.472822     0.034141
H     -1.165049     2.495257     0.494135
H     -0.317543     2.036666    -0.668141
6
Family_2 [H]C([H])=C([H])[H] | RMSD: 0.4549 | 1588.00 to state    1 from traj    1 on state    2
C     -1.682504     0.175119    -0.100364
H     -1.280347     0.518556     0.993156
H     -2.459658    -0.589546    -0.065446
C     -0.908697     1.426444    -0.043407
H     -1.304852     2.239505     0.564191
H      0.189060     1.502611     0.217938
6
Family_2 [H]C([H])=C([H])[H] | RMSD: 0.2671 | 1904.00 to state    1 from traj    1 on state    2
C     -1.590487     0.115199    -0.109447
H     -1.691224     0.260620     1.133106
H     -2.690487     0.143979     0.092855
C     -0.952208     1.455859    -0.041541
H     -1.189818     2.252260     0.576373
H      0.137751     1.377742    -0.006488
6
Family_2 [H]C([H])=C([H])[H] | RMSD: 0.4844 | 2220.00 to state    1 from traj    1 on state    2
C     -1.628163     0.230605    -0.079163
H     -1.130903     0.516593     1.201868
H     -2.567417    -0.334994    -0.404327
C     -0.947130     1.373844    -0.042860
H     -1.388796     2.167129     0.718219
H      0.041762     1.287997    -0.065058
6
Family_2 [H]C([H])=C([H])[H] | RMSD: 0.4692 | 540.00 to state    1 from traj    1 on state    2
C     -1.690815     0.140965    -0.094448
H     -1.265802     0.495581     0.977173
H     -2.569202    -0.354164    -0.177125
C     -0.876683     1.442475     0.003158
H     -1.540553     2.075432     0.429849
H      0.237327     1.670218    -0.145400
6
Family_2 [H]C([H])=C([H])[H] | RMSD: 0.7484 | 1192.00 to state    1 from traj    1 on state    2
C     -1.724391     0.183630    -0.107538
H     -1.349450     0.650822     0.918666
H     -1.701201    -0.902168     0.065364
C     -0.921027     1.465652    -0.047866
H     -1.179979     2.305637     0.470805
H      0.020866     1.048211     0.393619
6
Family_2 [H]C([H])=C([H])[H] | RMSD: 0.7512 | 1216.00 to state    1 from traj    1 on state    2
C     -1.720227     0.198091    -0.094782
H     -1.320974     0.655191     0.875911
H     -1.729217    -0.920789    -0.029600
C     -0.925541     1.454396    -0.049088
H     -1.214268     2.293402     0.520102
H      0.058862     1.036515     0.344616
6
Family_2 [H]C([H])=C([H])[H] | RMSD: 0.7579 | 4100.00 to state    1 from traj    1 on state    2
C     -1.596571     0.029319    -0.124538
H     -1.803242    -0.692109     0.748112
H     -2.297937     0.918149     0.850669
C     -0.926381     1.543665    -0.039255
H     -1.299167     2.514822    -0.238701
H     -0.268694     1.270788     0.588331
6
Family_2 [H]C([H])=C([H])[H] | RMSD: 0.7470 | 9220.00 to state    1 from traj    1 on state    2
C     -1.582404     0.012665    -0.066930
H     -2.228600    -0.284983     0.854343
H     -2.624674     0.663170    -0.105760
C     -0.881721     1.489448     0.036746
H     -1.016778     2.546229     0.551102
H     -0.499942     1.931709    -0.943298
6
Family_2 [H]C([H])=C([H])[H] | RMSD: 0.3816 | 1116.00 to state    1 from traj    1 on state    2
C     -1.611525     0.186038    -0.153306
H     -1.518127     0.325328     1.294343
H     -2.696476    -0.002003     0.455009
C     -0.905832     1.386394    -0.047450
H     -1.585389     2.050523     0.406242
H      0.064297     1.644385     0.233268
6
Family_2 [H]C([H])=C([H])[H] | RMSD: 0.5080 | 1424.00 to state    1 from traj    1 on state    2
C     -1.677163     0.052982    -0.106629
H     -1.369431     0.506960     1.047057
H     -2.887394     0.085656    -0.244238
C     -0.848274     1.450614     0.040600
H     -1.548649     2.207630     0.534505
H      0.166058     2.038208    -0.553835
6
Family_2 [H]C([H])=C([H])[H] | RMSD: 0.5607 | 1716.00 to state    1 from traj    1 on state    2
C     -1.678229     0.066740    -0.141492
H     -1.392300     0.486190     0.981513
H     -2.782853    -0.106810     0.069601
C     -0.865009     1.486058     0.108045
H     -1.538156     2.196847    -0.156479
H      0.286006     1.675964    -0.499379
6
Family_2 [H]C([H])=C([H])[H] | RMSD: 0.7455 | 1396.00 to state    1 from traj    1 on state    2
C     -1.719365     0.110623    -0.145980
H     -0.939690    -0.021098     0.626103
H     -2.568087     0.128212     0.775643
C     -0.789407     1.438178    -0.020478
H     -1.720683     2.139599    -0.246241
H     -0.609535     2.053087     0.824676
6
Family_2 [H]C([H])=C([H])[H] | RMSD: 0.7416 | 2484.00 to state    1 from traj    1 on state    2
C     -1.491645     0.149271    -0.046805
H     -1.978013    -0.105093     0.694269
H     -2.714942     0.817723    -0.190759
C     -0.968419     1.388187     0.051827
H     -1.186881     2.338708     0.373942
H     -0.538548     1.383637    -0.940581
6
Family_2 [H]C([H])=C([H])[H] | RMSD: 0.4987 | 2244.00 to state    1 from traj    1 on state    2
C     -1.689121    -0.096636    -0.087283
H     -1.683699    -0.095863     1.035257
H     -2.788724     0.814337     0.012795
C     -0.804856     1.599246    -0.035495
H     -1.595727     2.005053     0.649639
H      0.053868     2.126668    -0.237994
6
Family_2 [H]C([H])=C([H])[H] | RMSD: 0.7578 | 608.00 to state    1 from traj    1 on state    2
C     -1.630116     0.038350    -0.121359
H     -1.451161    -0.569378     0.774675
H     -2.102419     0.734720     0.607973
C     -0.959847     1.551516    -0.020531
H     -0.979818     2.463612    -0.449783
H     -0.337149     1.181541     0.754568
6
Family_2 [H]C([H])=C([H])[H] | RMSD: 0.3762 | 2872.00 to state    1 from traj    1 on state    2
C     -1.586514     0.202156    -0.121126
H     -1.504973     0.321515     1.279620
H     -2.897863    -0.195358     0.018686
C     -0.938522     1.389673    -0.008350
H     -1.405554     2.283052     0.428055
H      0.164200     1.377901    -0.186852
6
Family_2 [H]C([H])=C([H])[H] | RMSD: 0.4850 | 3084.00 to state    1 from traj    1 on state    2
C     -1.622811     0.059877    -0.108434
H     -1.705715     0.243394     0.975586
H     -2.537952     0.216770     0.214739
C     -0.880748     1.539698     0.005024
H     -1.680842     2.237850     0.330759
H      0.024389     0.996787    -0.292171
6
Family_2 [H]C([H])=C([H])[H] | RMSD: 0.4611 | 5044.00 to state    1 from traj    1 on state    2
C     -1.541004     0.213599    -0.083833
H     -1.829070     0.177605     1.088667
H     -2.442300     0.287396    -0.014924
C     -0.980687     1.356896    -0.042093
H     -1.512638     2.347862     0.764020
H      0.099958     1.228458    -0.340552
6
Family_2 [H]C([H])=C([H])[H] | RMSD: 0.7439 | 876.00 to state    1 from traj    1 on state    2
C     -1.713550    -0.047413    -0.142341
H     -1.357265    -0.584144     0.685330
H     -2.469219     0.630958     0.879995
C     -0.821261     1.594744    -0.034944
H     -1.369598     2.405291    -0.372138
H     -0.331645     1.865229     0.915996
6
Family_2 [H]C([H])=C([H])[H] | RMSD: 0.4587 | 2536.00 to state    1 from traj    1 on state    2
C     -1.629781    -0.050471    -0.083490
H     -1.647732    -0.037834     1.079207
H     -2.670007     0.799009    -0.265336
C     -0.902936     1.548292     0.008451
H     -1.193940     2.511237     0.576666
H     -0.040989     1.634857    -0.499677
6
Family_2 [H]C([H])=C([H])[H] | RMSD: 0.7287 | 756.00 to state    1 from traj    1 on state    2
C     -1.728627     0.206619    -0.082746
H     -1.104476     0.363061     1.193897
H     -1.733288    -0.832886    -0.489089
C     -0.959806     1.436080    -0.020078
H     -1.032065     2.464408     0.401702
H      0.172616     1.186372     0.115433
6
Family_2 [H]C([H])=C([H])[H] | RMSD: 0.5960 | 2324.00 to state    1 from traj    1 on state    2
C     -1.535218     0.109924    -0.062466
H     -2.055301    -0.037785     0.920789
H     -2.509791     0.525021    -0.110402
C     -0.964528     1.469613     0.007447
H     -1.169291     2.310753     0.510212
H     -0.211165     1.135586    -0.668288
6
Family_2 [H]C([H])=C([H])[H] | RMSD: 0.5816 | 5992.00 to state    1 from traj    1 on state    2
C     -1.692414     0.221877    -0.049651
H     -0.993965     0.366149     0.932928
H     -2.220852    -0.407636    -0.586381
C     -0.925440     1.381394    -0.013813
H     -1.497844     2.185890     0.524869
H      0.174450     1.506362    -0.118491
6
Family_2 [H]C([H])=C([H])[H] | RMSD: 0.5059 | 6844.00 to state    1 from traj    1 on state    2
C     -1.558537     0.143582    -0.096021
H     -1.755975     0.084028     1.243022
H     -2.806541     0.594264    -0.091269
C     -0.923420     1.370864    -0.012941
H     -1.546986     2.228964     0.723722
H     -0.048009     1.801914    -0.580405
6
Family_2 [H]C([H])=C([H])[H] | RMSD: 0.5168 | 2080.00 to state    1 from traj    1 on state    2
C     -1.613721     0.178183    -0.071022
H     -1.222717     0.419649     1.097931
H     -2.776178     0.056739    -0.528699
C     -0.923950     1.363034     0.010393
H     -1.540551     2.350118     0.708416
H      0.045798     1.563667    -0.558490
6
Family_2 [H]C([H])=C([H])[H] | RMSD: 0.4507 | 4556.00 to state    1 from traj    1 on state    2
C     -1.580549     0.119666    -0.098945
H     -1.514862     0.102659     1.298836
H     -2.630949     0.526095    -0.333101
C     -0.972803     1.396436     0.023187
H     -1.131295     2.405443     0.458512
H     -0.029695     1.655248    -0.524812
6
Family_2 [H]C([H])=C([H])[H] | RMSD: 0.4488 | 6664.00 to state    1 from traj    1 on state    2
C     -1.603749     0.154616    -0.079652
H     -1.347801     0.430619     1.156506
H     -2.774992     0.167595    -0.378213
C     -0.933746     1.400890    -0.010716
H     -1.507989     2.134894     0.705106
H      0.135042     1.486809    -0.409885
6
Family_2 [H]C([H])=C([H])[H] | RMSD: 0.7740 | 5352.00 to state    1 from traj    1 on state    2
C     -1.533353     0.155823    -0.081651
H     -1.981848    -0.097564     1.048658
H     -2.492828     0.883107     0.020270
C     -0.901311     1.352351     0.011657
H     -1.425074     2.099237     0.594756
H     -0.821289     1.899120    -0.832941
6
Family_2 [H]C([H])=C([H])[H] | RMSD: 0.7956 | 5572.00 to state    1 from traj    1 on state    2
C     -1.682817     0.168675    -0.145532
H     -1.314487    -0.357407     0.774128
H     -2.048018     0.122228     0.990074
C     -0.860148     1.443926    -0.066511
H     -1.738006     2.250385    -0.263745
H     -0.330049     1.524391     1.022895
6
Family_2 [H]C([H])=C([H])[H] | RMSD: 0.6629 | 6044.00 to state    1 from traj    1 on state    2
C     -1.548375     0.125924    -0.003421
H     -1.818220    -0.529138     0.723974
H     -2.211104     1.001095    -0.509055
C     -1.053553     1.401236    -0.046137
H     -0.910429     2.388486     0.617223
H      0.211777     1.697231    -0.244909
6
Family_2 [H]C([H])=C([H])[H] | RMSD: 0.4711 | 7524.00 to state    1 from traj    1 on state    2
C     -1.602242     0.233493    -0.100629
H     -1.484979     0.448292     0.944275
H     -2.521965    -0.479499     0.058469
C     -0.964287     1.390803    -0.028080
H     -1.304781     2.371249     0.446722
H      0.161942     1.060195     0.080906
6
Family_2 [H]C([H])=C([H])[H] | RMSD: 0.4383 | 1364.00 to state    1 from traj    1 on state    2
C     -1.662387     0.076043    -0.095480
H     -1.414768     0.505550     0.859612
H     -2.878341    -0.069877    -0.112627
C     -0.867975     1.478036     0.024435
H     -1.518169     2.108877     0.420061
H      0.230540     1.692366    -0.323777
6
Family_2 [H]C([H])=C([H])[H] | RMSD: 0.5842 | 1564.00 to state    1 from traj    1 on state    2
C     -1.664513     0.184681    -0.078357
H     -1.064184     0.431615     1.142627
H     -2.484066    -0.178877    -0.544188
C     -0.897495     1.384889     0.030648
H     -1.657438     2.347413     0.510074
H      0.002037     1.452189    -0.543315
6
Family_2 [H]C([H])=C([H])[H] | RMSD: 0.5296 | 3604.00 to state    1 from traj    1 on state    2
C     -1.628868     0.021797    -0.096370
H     -1.551436     0.419221     1.024142
H     -2.559017     0.431788    -0.401547
C     -0.947346     1.474633     0.068604
H     -0.933827     2.340588     0.380414
H      0.009899     1.732243    -0.675436
6
Family_2 [H]C([H])=C([H])[H] | RMSD: 0.7613 | 1104.00 to state    1 from traj    1 on state    2
C     -1.599085     0.080464    -0.095969
H     -1.579073     0.582651     1.000973
H     -2.660730     0.340895    -0.342379
C     -0.872547     1.416523     0.084183
H     -1.220370     2.364224     0.577446
H     -0.820372     1.629442    -1.098875
6
Family_2 [H]C([H])=C([H])[H] | RMSD: 0.6870 | 1196.00 to state    1 from traj    1 on state    2
C     -1.603851     0.077316    -0.100683
H     -1.525272     0.580930     0.896651
H     -2.637564     0.450001    -0.245121
C     -0.883158     1.403965     0.083803
H     -1.280377     2.340123     0.486094
H     -0.654103     1.733303    -0.939769
6
Family_2 [H]C([H])=C([H])[H] | RMSD: 0.8061 | 616.00 to state    1 from traj    1 on state    2
C     -1.667807     0.028539    -0.112892
H     -1.379612    -0.753313     0.642332
H     -2.113290     0.763480     0.727045
C     -0.900245     1.532891    -0.063277
H     -1.147402     2.516943    -0.277141
H     -0.491328     1.622212     1.003659
6
Family_2 [H]C([H])=C([H])[H] | RMSD: 0.7333 | 1848.00 to state    1 from traj    1 on state    2
C     -1.585326     0.008278    -0.022169
H     -2.186695    -0.120416     0.649066
H     -2.232772     0.732838    -0.302898
C     -0.926912     1.547018     0.002688
H     -1.187269     2.313224     0.716477
H     -0.189958     1.296780    -0.833793
6
Family_2 [H]C([H])=C([H])[H] | RMSD: 0.7104 | 2112.00 to state    1 from traj    1 on state    2
C     -1.623496     0.180793     0.010267
H     -1.356118    -0.030685     1.026016
H     -2.134783    -0.340939    -0.836866
C     -1.014721     1.509505    -0.119552
H     -0.875678     2.410746     0.986482
H      0.071012     0.574651     0.123300
6
Family_2 [H]C([H])=C([H])[H] | RMSD: 0.5324 | 2492.00 to state    1 from traj    1 on state    2
C     -1.565478     0.125814    -0.047313
H     -1.471641    -0.011873     0.974770
H     -2.307154     0.908218    -0.475625
C     -1.014967     1.378326    -0.029676
H     -1.270074     2.463604     0.750315
H      0.064911     1.472031    -0.335366
6
Family_2 [H]C([H])=C([H])[H] | RMSD: 0.5320 | 2588.00 to state    1 from traj    1 on state    2
C     -1.581908     0.090346    -0.067891
H     -1.452912    -0.008751     1.015816
H     -2.282468     0.903283    -0.439427
C     -1.019913     1.406736     0.012894
H     -1.007705     2.431603     0.432717
H      0.013839     1.589933    -0.357072
6
Family_2 [H]C([H])=C([H])[H] | RMSD: 0.7575 | 3076.00 to state    1 from traj    1 on state    2
C     -1.672983     0.147227    -0.178180
H     -1.748031     0.739045     1.140209
H     -1.874341    -0.679124     0.530507
C     -0.914033     1.476215     0.028549
H     -1.319352     2.452496     0.136123
H      0.036069     0.897998    -0.027159
6
Family_2 [H]C([H])=C([H])[H] | RMSD: 0.4065 | 4292.00 to state    1 from traj    1 on state    2
C     -1.624298     0.167450    -0.103979
H     -1.308607     0.367978     1.272346
H     -2.762352    -0.119001    -0.253584
C     -0.913334     1.405244     0.003074
H     -1.402413     2.270393     0.511240
H     -0.020742     1.495737    -0.330935
6
Family_2 [H]C([H])=C([H])[H] | RMSD: 0.5097 | 3916.00 to state    1 from traj    1 on state    2
C     -1.585874     0.148442    -0.115446
H     -1.401350     0.289691     1.114225
H     -2.818573     0.327713    -0.254272
C     -0.954860     1.337029     0.070936
H     -1.030526     2.456461     0.253231
H     -0.206696     1.980573    -0.586102
6
Family_2 [H]C([H])=C([H])[H] | RMSD: 0.5055 | 4072.00 to state    1 from traj    1 on state    2
C     -1.579066     0.194351    -0.100991
H     -1.414864     0.347312     1.131120
H     -2.913274     0.136810    -0.233780
C     -0.928353     1.350474     0.049865
H     -1.507408     2.237078     0.354329
H     -0.018568     1.625985    -0.645752
6
Family_2 [H]C([H])=C([H])[H] | RMSD: 0.2797 | 4776.00 to state    1 from traj    1 on state    2
C     -1.623592     0.082829    -0.095005
H     -1.531364     0.316988     0.930785
H     -2.678360     0.051122    -0.129831
C     -0.959064     1.440433    -0.031588
H     -0.875668     2.557259     0.662849
H      0.127777     1.678759     0.041359
6
Family_2 [H]C([H])=C([H])[H] | RMSD: 0.7455 | 964.00 to state    1 from traj    1 on state    2
C     -1.670567     0.176145    -0.029576
H     -1.562415     0.076472     1.167818
H     -1.805490    -0.660961    -0.460575
C     -0.975455     1.546450    -0.127592
H     -0.706073     2.009926     0.809071
H     -0.128594     0.803497     0.353165
6
Family_2 [H]C([H])=C([H])[H] | RMSD: 0.7110 | 1156.00 to state    1 from traj    1 on state    2
C     -1.649743     0.222707    -0.030826
H     -1.459415     0.225486     1.029230
H     -2.244295    -0.873040    -0.319953
C     -0.928225     1.513873    -0.130215
H     -1.050062     2.016779     0.869199
H     -0.259711     0.693075     0.337156
6
Family_2 [H]C([H])=C([H])[H] | RMSD: 0.3590 | 2236.00 to state    1 from traj    1 on state    2
C     -1.641001     0.144244    -0.094053
H     -1.305111     0.444750     1.101390
H     -2.757953    -0.091791    -0.173994
C     -0.905058     1.422916    -0.032840
H     -1.514411     2.174100     0.670087
H      0.183777     1.553982    -0.088752
6
Family_2 [H]C([H])=C([H])[H] | RMSD: 0.4260 | 4560.00 to state    1 from traj    1 on state    2
C     -1.558954     0.209664    -0.078167
H     -1.436777     0.489380     1.133245
H     -2.755343     0.224511    -0.270927
C     -1.004206     1.359008    -0.048983
H     -1.357446     1.922084     0.755535
H      0.359649     1.427062    -0.106059
6
Family_2 [H]C([H])=C([H])[H] | RMSD: 0.5185 | 1968.00 to state    1 from traj    1 on state    2
C     -1.637459     0.173095    -0.073400
H     -1.157868     0.452982     1.123729
H     -2.684331    -0.076331    -0.578968
C     -0.928595     1.384161     0.022124
H     -1.363206     2.198873     0.551910
H      0.049967     1.623538    -0.488973
6
Family_2 [H]C([H])=C([H])[H] | RMSD: 0.5860 | 2096.00 to state    1 from traj    1 on state    2
C     -1.627262     0.187338    -0.050648
H     -0.946004     0.425399     1.200566
H     -2.341204     0.272526    -0.855840
C     -0.999289     1.350400    -0.017597
H     -1.273261     2.231838     0.770668
H      0.125893     1.501871    -0.305486
6
Family_2 [H]C([H])=C([H])[H] | RMSD: 0.4331 | 1356.00 to state    1 from traj    1 on state    2
C     -1.612133     0.149805    -0.106599
H     -1.499157     0.361016     0.966676
H     -2.726092     0.031264     0.040995
C     -0.899447     1.416950     0.019678
H     -1.685335     2.320295     0.384836
H      0.106048     1.373295    -0.360066
6
Family_2 [H]C([H])=C([H])[H] | RMSD: 0.7762 | 2040.00 to state    1 from traj    1 on state    2
C     -1.651793     0.284620    -0.077805
H     -1.529683    -0.179452     1.060564
H     -2.648649    -0.363070    -0.082528
C     -0.788296     1.312974     0.035570
H     -1.881508     2.019682     0.249574
H     -0.596557     2.241238    -0.727635
6
Family_2 [H]C([H])=C([H])[H] | RMSD: 0.7491 | 3076.00 to state    1 from traj    1 on state    2
C     -1.737797     0.232150    -0.094107
H     -1.414039     0.014566     0.977159
H     -1.369782    -0.674123     0.007090
C     -0.932213     1.398311    -0.033724
H     -1.367028     2.514337     0.243313
H      0.234118     1.471991     0.292348
6
Family_2 [H]C([H])=C([H])[H] | RMSD: 0.7550 | 1032.00 to state    1 from traj    1 on state    2
C     -1.580016     0.118293    -0.118009
H     -1.581931    -0.707718     0.828836
H     -2.165699     0.861419     0.774589
C     -0.959905     1.451938    -0.084823
H     -1.263164     2.625575    -0.040073
H     -0.456033     1.265182     0.850250
6
Family_2 [H]C([H])=C([H])[H] | RMSD: 0.8240 | 1224.00 to state    1 from traj    1 on state    2
C     -1.714236     0.214328    -0.117720
H     -1.523258     0.553302     0.849337
H     -1.600649    -1.088483     0.196346
C     -0.946577     1.433200    -0.036724
H     -0.913259     2.512296     0.342543
H      0.010839     1.146293     0.448799
6
Family_2 [H]C([H])=C([H])[H] | RMSD: 0.6078 | 1564.00 to state    1 from traj    1 on state    2
C     -1.742310     0.182453    -0.111662
H     -1.232948     0.534382     0.911292
H     -2.451156    -0.923523     0.108301
C     -0.827725     1.424236    -0.038750
H     -1.634084     2.206703     0.507768
H      0.210194     1.792484     0.261615
6
Family_2 [H]C([H])=C([H])[H] | RMSD: 0.6544 | 1696.00 to state    1 from traj    1 on state    2
C     -1.773166     0.147740    -0.129730
H     -1.313299     0.550797     0.950012
H     -2.178736    -0.851585     0.240848
C     -0.800127     1.453597    -0.016072
H     -1.678659     2.078773     0.352939
H      0.101513     1.895816     0.190249
6
Family_2 [H]C([H])=C([H])[H] | RMSD: 0.4858 | 3476.00 to state    1 from traj    1 on state    2
C     -1.637064     0.184675    -0.125060
H     -1.367997     0.379299     1.057140
H     -2.819178    -0.151402     0.078659
C     -0.864042     1.366058     0.037263
H     -1.763952     2.286016     0.287071
H      0.021793     1.762877    -0.379982
6
Family_2 [H]C([H])=C([H])[H] | RMSD: 0.6710 | 1036.00 to state    1 from traj    1 on state    2
C     -1.648422     0.070767    -0.149330
H     -1.406607    -0.362817     0.875231
H     -2.198493     0.633774     0.872982
C     -0.891368     1.480697    -0.067104
H     -1.463765     2.500081    -0.052497
H     -0.399535     1.497038     0.879961
6
Family_2 [H]C([H])=C([H])[H] | RMSD: 0.5495 | 1876.00 to state    1 from traj    1 on state    2
C     -1.602325     0.107865    -0.127569
H     -1.820384     0.077591     1.338287
H     -2.605160     0.552299     0.153420
C     -0.876935     1.406996     0.003874
H     -1.580299     2.071627     0.511420
H     -0.183802     2.002715    -0.532497
6
Family_2 [H]C([H])=C([H])[H] | RMSD: 0.6664 | 2064.00 to state    1 from traj    1 on state    2
C     -1.592431     0.072888    -0.076406
H     -2.227616     0.058473     0.976999
H     -2.560026     0.481413     0.062985
C     -0.859809     1.467923    -0.012318
H     -1.567916     2.015465     0.797727
H     -0.156051     1.839660    -0.783789
6
Family_2 [H]C([H])=C([H])[H] | RMSD: 0.5863 | 9656.00 to state    1 from traj    1 on state    2
C     -1.639429     0.183465    -0.052528
H     -0.971136     0.445859     1.185054
H     -2.621430    -0.209228    -0.863732
C     -0.974107     1.402031     0.003549
H     -1.076986     2.259169     0.602641
H      0.079899     1.366771    -0.343616
6
Family_2 [H]C([H])=C([H])[H] | RMSD: 0.6017 | 4488.00 to state    1 from traj    1 on state    2
C     -1.553575     0.186921    -0.124097
H     -1.746809     0.179958     1.169415
H     -2.630239     0.366362     0.120685
C     -0.917809     1.364012     0.063522
H     -1.655650     2.317098     0.208910
H     -0.250794     1.410992    -0.780505
6
Family_2 [H]C([H])=C([H])[H] | RMSD: 0.4252 | 4620.00 to state    1 from traj    1 on state    2
C     -1.558231     0.203668    -0.124649
H     -1.660380     0.139234     1.310433
H     -2.872149     0.101556     0.066378
C     -0.937099     1.358075     0.012851
H     -1.520397     2.434224     0.404133
H      0.054762     1.470583    -0.452070
6
Family_2 [H]C([H])=C([H])[H] | RMSD: 0.6867 | 5132.00 to state    1 from traj    1 on state    2
C     -1.737408     0.179191    -0.038838
H     -0.836410     0.342672     1.026416
H     -2.061853    -0.631037    -0.830379
C     -0.924736     1.442202    -0.027423
H     -1.283639     2.414509     0.618020
H      0.171450     1.308683    -0.027789
6
Family_2 [H]C([H])=C([H])[H] | RMSD: 0.4105 | 3212.00 to state    1 from traj    1 on state    2
C     -1.610965     0.191236    -0.084825
H     -1.452963     0.304193     0.911410
H     -2.640424    -0.200041    -0.181288
C     -0.939293     1.373707     0.000724
H     -1.409247     2.599675     0.548665
H      0.158981     1.403636    -0.279945
6
Family_2 [H]C([H])=C([H])[H] | RMSD: 0.6117 | 1028.00 to state    1 from traj    1 on state    2
C     -1.558789     0.211214    -0.125589
H     -1.999506    -0.545628     1.021588
H     -2.474382     0.060415     0.748743
C     -0.955966     1.434168    -0.048986
H     -1.348049     2.440224    -0.072285
H      0.055233     1.193967     0.378853
6
Family_2 [H]C([H])=C([H])[H] | RMSD: 0.6325 | 608.00 to state    1 from traj    1 on state    2
C     -1.545834     0.081403    -0.078285
H     -1.936893    -0.007204     0.986279
H     -2.812623     0.680686    -0.122344
C     -0.912878     1.445074     0.036131
H     -1.234151     2.285524     0.489990
H     -0.450822     1.606809    -0.854917
6
Family_2 [H]C([H])=C([H])[H] | RMSD: 0.6593 | 820.00 to state    1 from traj    1 on state    2
C     -1.506981     0.109853    -0.023947
H     -2.275469     0.009070     0.622640
H     -2.734871     0.670058    -0.194678
C     -0.996303     1.439406    -0.034616
H     -0.870180     1.942906     0.806088
H     -0.022862     1.672310    -0.539520
6
Family_2 [H]C([H])=C([H])[H] | RMSD: 0.6520 | 956.00 to state    1 from traj    1 on state    2
C     -1.567436     0.232875    -0.020428
H     -1.714548    -0.065459     1.128959
H     -2.319467    -0.448699    -0.512889
C     -1.045913     1.476560    -0.105200
H     -0.636442     2.220460     0.759188
H      0.078578     0.679443     0.118394
6
Family_2 [H]C([H])=C([H])[H] | RMSD: 0.3887 | 1004.00 to state    1 from traj    1 on state    2
C     -1.567456     0.161496    -0.088799
H     -1.649625     0.138486     1.170042
H     -2.789806     0.320985    -0.196346
C     -0.959333     1.358483    -0.028891
H     -1.394989     2.520689     0.807009
H      0.211123     1.663083    -0.381636
6
Family_2 [H]C([H])=C([H])[H] | RMSD: 0.6654 | 4080.00 to state    1 from traj    1 on state    2
C     -1.602488     0.043273    -0.054034
H     -1.940647    -0.253604     0.828093
H     -2.223320     0.783330    -0.313368
C     -0.957225     1.471055     0.044142
H     -1.091865     2.419672     0.340052
H      0.024834     1.761179    -0.740199
6
Family_2 [H]C([H])=C([H])[H] | RMSD: 0.7502 | 4328.00 to state    1 from traj    1 on state    2
C     -1.622183    -0.036186    -0.041202
H     -1.815257    -0.816664     1.006110
H     -2.394218     1.048724    -0.284556
C     -0.880991     1.591020     0.011596
H     -1.460132     2.619977     0.300425
H     -0.235094     1.375886    -0.672479
6
Family_2 [H]C([H])=C([H])[H] | RMSD: 0.6933 | 5028.00 to state    1 from traj    1 on state    2
C     -1.507922     0.159428    -0.047608
H     -2.089904    -0.042135     0.714031
H     -2.798748     0.831557    -0.083996
C     -0.951633     1.343912    -0.007331
H     -1.231958     2.004153     0.707476
H     -0.303842     2.047934    -0.686151
6
Family_2 [H]C([H])=C([H])[H] | RMSD: 0.6623 | 5128.00 to state    1 from traj    1 on state    2
C     -1.584096     0.280561    -0.014681
H     -1.456206     0.042966     1.200247
H     -2.126403    -0.320732    -0.622397
C     -1.068105     1.425797    -0.124083
H     -0.710868     1.751936     0.742687
H      0.164533     0.948238     0.329652
6
Family_2 [H]C([H])=C([H])[H] | RMSD: 0.4102 | 1304.00 to state    1 from traj    1 on state    2
C     -1.676427     0.146202    -0.113249
H     -1.349378     0.494668     0.928373
H     -2.629571    -0.428432     0.139743
C     -0.887271     1.444472    -0.033963
H     -1.442206     2.141283     0.443786
H      0.237650     1.593339     0.238947
6
Family_2 [H]C([H])=C([H])[H] | RMSD: 0.3449 | 1136.00 to state    1 from traj    1 on state    2
C     -1.691533     0.039339    -0.158246
H     -1.317602     0.224664     1.178095
H     -2.695245     0.084369     0.471514
C     -0.846461     1.521653    -0.030471
H     -1.631076     2.238439     0.208759
H      0.154133     1.607071     0.387042
6
Family_2 [H]C([H])=C([H])[H] | RMSD: 0.7258 | 536.00 to state    1 from traj    1 on state    2
C     -1.698071    -0.065990    -0.073105
H     -1.439711    -0.837436     0.553490
H     -2.126951     0.843331     0.472849
C     -0.861886     1.638330    -0.085782
H     -1.349580     2.656452     0.042801
H     -0.311846     1.356974     0.820826
6
Family_2 [H]C([H])=C([H])[H] | RMSD: 0.4627 | 1468.00 to state    1 from traj    1 on state    2
C     -1.661840     0.040198    -0.082433
H     -1.348666     0.504486     1.073366
H     -2.836424     0.183988    -0.350087
C     -0.867440     1.506880     0.001320
H     -1.532990     2.013314     0.675457
H      0.124454     1.618548    -0.435494
6
Family_2 [H]C([H])=C([H])[H] | RMSD: 0.3255 | 580.00 to state    1 from traj    1 on state    2
C     -1.728458    -0.078137    -0.104833
H     -1.429412     0.043605     1.099764
H     -2.747110     0.302986     0.060863
C     -0.796233     1.646803    -0.022659
H     -1.684878     2.070004     0.381882
H      0.213092     1.646501    -0.026633
6
Family_2 [H]C([H])=C([H])[H] | RMSD: 0.7271 | 1172.00 to state    1 from traj    1 on state    2
C     -1.588006     0.111427    -0.145262
H     -1.560742    -0.477956     0.784346
H     -2.338904     0.713513     0.917076
C     -0.944092     1.438226    -0.053962
H     -1.132962     2.551925    -0.187101
H     -0.527439     1.502180     0.856291
6
Family_2 [H]C([H])=C([H])[H] | RMSD: 0.5217 | 1048.00 to state    1 from traj    1 on state    2
C     -1.576772     0.172721    -0.050374
H     -1.243068     0.485910     0.952467
H     -2.597501     0.323916    -0.656474
C     -1.007169     1.365405     0.002849
H     -1.084518     2.194891     0.685439
H     -0.017218     1.422293    -0.418410
6
Family_2 [H]C([H])=C([H])[H] | RMSD: 0.5043 | 1628.00 to state    1 from traj    1 on state    2
C     -1.584279     0.134212    -0.066459
H     -2.153421    -0.250751     0.812675
H     -2.591784    -0.089852     0.110598
C     -0.922185     1.479092    -0.022021
H     -1.122862     2.467332     0.448154
H      0.002564     1.404482    -0.320410
6
Family_2 [H]C([H])=C([H])[H] | RMSD: 0.3418 | 1820.00 to state    1 from traj    1 on state    2
C     -1.666399     0.088403    -0.100196
H     -1.301147     0.547240     1.020412
H     -2.764902    -0.339830    -0.069781
C     -0.904517     1.491380    -0.070194
H     -1.177012     2.329015     0.778426
H      0.145559     1.394207     0.297978
6
Family_2 [H]C([H])=C([H])[H] | RMSD: 0.6075 | 5916.00 to state    1 from traj    1 on state    2
C     -1.667279     0.283091    -0.085749
H     -1.370016     0.306595     0.960969
H     -1.831028    -0.637745    -0.048207
C     -0.974175     1.342223    -0.067947
H     -1.345058     2.387997     0.558909
H      0.289105     1.331268     0.356445
6
Family_2 [H]C([H])=C([H])[H] | RMSD: 0.7003 | 1096.00 to state    1 from traj    1 on state    2
C     -1.618617    -0.003432    -0.084987
H     -1.450153    -0.593376     0.764280
H     -2.364403     0.734440     0.397148
C     -0.928345     1.579823    -0.104738
H     -0.745793     2.670563     0.234952
H     -0.822592     1.159430     0.861042
6
Family_2 [H]C([H])=C([H])[H] | RMSD: 0.7662 | 2440.00 to state    1 from traj    1 on state    2
C     -1.668855     0.252125    -0.071642
H     -1.197833     0.102079     0.985767
H     -2.640791    -0.255121    -0.194535
C     -0.830664     1.394942     0.057582
H     -2.046682     1.522467    -0.099662
H     -0.062943     1.759482    -0.527328
6
Family_2 [H]C([H])=C([H])[H] | RMSD: 0.4794 | 1996.00 to state    1 from traj    1 on state    2
C     -1.560580     0.153791    -0.069561
H     -1.545953     0.210099     1.055491
H     -2.591957     0.675707    -0.324841
C     -0.974323     1.355227    -0.017660
H     -1.427935     2.244695     0.768208
H      0.039222     1.643356    -0.462845
6
Family_2 [H]C([H])=C([H])[H] | RMSD: 0.7599 | 568.00 to state    1 from traj    1 on state    2
C     -1.654194     0.158731    -0.007294
H     -1.549967    -0.085264     1.034112
H     -1.958968    -0.608123    -0.657046
C     -0.981663     1.564568    -0.088772
H     -0.608560     2.254506     0.676950
H     -0.206195     0.659433     0.087384
6
Family_2 [H]C([H])=C([H])[H] | RMSD: 0.6853 | 2000.00 to state    1 from traj    1 on state    2
C     -1.559933     0.109024    -0.007537
H     -1.739488    -0.398948     0.777909
H     -2.457481     1.045881    -0.497059
C     -0.959707     1.419774    -0.018953
H     -1.409843     2.197780     0.658581
H     -0.101680     1.693440    -0.627067
6
Family_2 [H]C([H])=C([H])[H] | RMSD: 0.4568 | 1032.00 to state    1 from traj    1 on state    2
C     -1.638024     0.103790    -0.124392
H     -1.460019     0.422686     0.962234
H     -2.794167     0.082825     0.086735
C     -0.869749     1.435475     0.055778
H     -1.560644     2.210318     0.195961
H     -0.035067     1.697614    -0.430640
6
Family_2 [H]C([H])=C([H])[H] | RMSD: 0.3585 | 1788.00 to state    1 from traj    1 on state    2
C     -1.622144     0.087218    -0.102371
H     -1.565093     0.330997     0.960893
H     -2.624744     0.488531     0.168332
C     -0.915083     1.427149    -0.073187
H     -1.499046     2.022082     0.779413
H      0.189951     1.868511     0.179977
6
Family_2 [H]C([H])=C([H])[H] | RMSD: 0.3907 | 4716.00 to state    1 from traj    1 on state    2
C     -1.606591     0.197509    -0.084621
H     -1.401881     0.266581     1.003907
H     -2.505415     0.042196    -0.308753
C     -0.974504     1.336170     0.007188
H     -1.150448     2.423472     0.497367
H      0.081517     1.747757    -0.273133
6
Family_2 [H]C([H])=C([H])[H] | RMSD: 0.7118 | 1980.00 to state    1 from traj    1 on state    2
C     -1.580758     0.093375    -0.061895
H     -1.992944     0.097110     0.807988
H     -2.516265     0.808351    -0.101812
C     -0.891783     1.397083     0.005910
H     -1.512098     1.980142     0.745106
H     -0.248398     2.109398    -0.787474
6
Family_2 [H]C([H])=C([H])[H] | RMSD: 0.5600 | 3792.00 to state    1 from traj    1 on state    2
C     -1.551341     0.181331    -0.079939
H     -1.885151     0.037802     1.041546
H     -2.643880     0.612388    -0.053609
C     -0.939394     1.327097    -0.017552
H     -1.471069     2.082678     0.714746
H     -0.052810     2.048009    -0.544294
6
Family_2 [H]C([H])=C([H])[H] | RMSD: 0.6209 | 4064.00 to state    1 from traj    1 on state    2
C     -1.546908     0.098500    -0.077995
H     -2.041238    -0.120205     0.912815
H     -2.908487     0.486277    -0.174941
C     -0.948568     1.402878     0.047511
H     -0.976166     2.555682     0.446539
H     -0.070531     1.943137    -0.824451
6
Family_2 [H]C([H])=C([H])[H] | RMSD: 0.5962 | 5556.00 to state    1 from traj    1 on state    2
C     -1.512416     0.143843    -0.067768
H     -1.967383    -0.275136     1.229741
H     -2.647156     0.643967    -0.235056
C     -0.985089     1.416185    -0.012670
H     -1.225527     2.580618     0.648967
H     -0.132182     1.216578    -0.688459
6
Family_2 [H]C([H])=C([H])[H] | RMSD: 0.3723 | 1296.00 to state    1 from traj    1 on state    2
C     -1.571550     0.112514    -0.097774
H     -1.748810     0.212852     1.064298
H     -2.610051     0.152125    -0.063109
C     -0.980775     1.452019    -0.014167
H     -1.017485     2.579192     0.562721
H      0.057318     1.168183    -0.233333
6
Family_2 [H]C([H])=C([H])[H] | RMSD: 0.5554 | 4420.00 to state    1 from traj    1 on state    2
C     -1.594035     0.173355    -0.087415
H     -1.421733     0.403329     0.859748
H     -2.687234     0.417606    -0.208505
C     -0.924987     1.329218     0.050844
H     -1.646394     2.161547     0.414158
H      0.039509     1.868165    -0.632908
6
Family_2 [H]C([H])=C([H])[H] | RMSD: 0.6294 | 720.00 to state    1 from traj    1 on state    2
C     -1.558464     0.147910    -0.002499
H     -1.932441    -0.128586     0.983982
H     -2.614353    -0.061802    -0.539573
C     -1.037090     1.528117    -0.104849
H     -0.335749     1.737581     0.761869
H      0.078618     1.236624     0.069558
6
Family_2 [H]C([H])=C([H])[H] | RMSD: 0.4765 | 2680.00 to state    1 from traj    1 on state    2
C     -1.544838     0.159600    -0.062661
H     -1.825996     0.091006     0.947159
H     -2.479025     0.662123    -0.184966
C     -0.992439     1.357890    -0.038946
H     -1.253954     2.221786     0.808763
H      0.060645     1.697987    -0.363512
6
Family_2 [H]C([H])=C([H])[H] | RMSD: 0.5851 | 2224.00 to state    1 from traj    1 on state    2
C     -1.696136     0.253939    -0.109561
H     -1.313260     0.257709     1.069302
H     -2.142830    -0.629791    -0.006782
C     -0.898173     1.355807     0.004280
H     -1.653253     2.258429     0.220696
H      0.290573     1.687263    -0.032003
6
Family_2 [H]C([H])=C([H])[H] | RMSD: 0.7189 | 2752.00 to state    1 from traj    1 on state    2
C     -1.597078     0.055893    -0.073769
H     -1.871516    -0.193284     1.089408
H     -2.469960     0.915258    -0.247040
C     -0.888639     1.428963     0.032362
H     -1.514140     2.364251     0.589630
H     -0.257087     1.975542    -0.941892
6
Family_2 [H]C([H])=C([H])[H] | RMSD: 0.7872 | 1032.00 to state    1 from traj    1 on state    2
C     -1.594031     0.071429    -0.133484
H     -1.439713    -0.556207     0.766812
H     -2.350243     0.901013     0.881312
C     -0.938731     1.480151    -0.084191
H     -1.095760     2.521133    -0.108183
H     -0.666429     1.400758     1.050528
6
Family_2 [H]C([H])=C([H])[H] | RMSD: 0.5511 | 1044.00 to state    1 from traj    1 on state    2
C     -1.627591     0.007078    -0.114817
H     -1.530558    -0.349642     0.878211
H     -2.267662     0.870170     0.538397
C     -0.918817     1.541507    -0.074315
H     -1.482133     2.608011     0.253730
H     -0.109179     1.173839     0.580008
6
Family_2 [H]C([H])=C([H])[H] | RMSD: 0.4493 | 1480.00 to state    1 from traj    1 on state    2
C     -1.639525     0.179206    -0.085025
H     -1.179517     0.410261     1.095331
H     -2.567256    -0.057823    -0.395511
C     -0.928482     1.380989     0.013400
H     -1.314938     2.164850     0.455072
H     -0.070464     1.646757    -0.304714
6
Family_2 [H]C([H])=C([H])[H] | RMSD: 0.4164 | 2192.00 to state    1 from traj    1 on state    2
C     -1.588452     0.109952    -0.114708
H     -1.773890     0.162254     1.177221
H     -2.742119    -0.016527    -0.045921
C     -0.965046     1.455600     0.016279
H     -1.134704     2.680514     0.409660
H      0.345661     1.273975    -0.371392
6
Family_2 [H]C([H])=C([H])[H] | RMSD: 0.5173 | 2588.00 to state    1 from traj    1 on state    2
C     -1.592653     0.064180    -0.064376
H     -1.450596     0.391772     0.878998
H     -2.771222     0.651189    -0.412768
C     -0.939756     1.446832     0.022659
H     -1.340595     2.129277     0.606474
H      0.006066     1.577855    -0.578903
6
Family_2 [H]C([H])=C([H])[H] | RMSD: 0.7576 | 588.00 to state    1 from traj    1 on state    2
C     -1.671658     0.149649    -0.011278
H     -1.423722     0.103031     1.075829
H     -2.012262    -0.673994    -0.684735
C     -0.958250     1.569860    -0.101372
H     -0.680126     2.146632     0.809435
H     -0.278457     0.690041     0.138483
6
Family_2 [H]C([H])=C([H])[H] | RMSD: 0.6227 | 3188.00 to state    1 from traj    1 on state    2
C     -1.647466     0.260099    -0.101186
H     -1.322921     0.325157     1.004565
H     -2.176920    -0.490472    -0.259967
C     -0.959392     1.335695     0.074302
H     -1.294817     2.426356     0.004928
H      0.125422     1.478825    -0.432459
6
Family_2 [H]C([H])=C([H])[H] | RMSD: 0.6258 | 1264.00 to state    1 from traj    1 on state    2
C     -1.600885     0.164536    -0.164163
H     -1.666424    -0.232702     0.988949
H     -2.311906     0.429655     0.910042
C     -0.941921     1.407473    -0.024400
H     -1.536103     2.275649    -0.229785
H      0.081970     1.550676     0.574377
6
Family_2 [H]C([H])=C([H])[H] | RMSD: 0.6239 | 1312.00 to state    1 from traj    1 on state    2
C     -1.603072     0.157983    -0.155914
H     -1.715544    -0.357580     0.999687
H     -2.354406     0.388361     0.913151
C     -0.934896     1.427685    -0.045034
H     -1.472173     2.264444    -0.180822
H      0.052012     1.565284     0.659133
6
Family_2 [H]C([H])=C([H])[H] | RMSD: 0.5713 | 2088.00 to state    1 from traj    1 on state    2
C     -1.545634     0.137128    -0.073478
H     -1.238609    -0.057664     1.209777
H     -2.276599     1.095142    -0.427190
C     -1.062567     1.383809    -0.014966
H     -1.160811     2.407852     0.410236
H      0.022789     1.186498    -0.142225
6
Family_2 [H]C([H])=C([H])[H] | RMSD: 0.7134 | 1800.00 to state    1 from traj    1 on state    2
C     -1.735740     0.219543    -0.009309
H     -0.739111     0.032075     0.833239
H     -2.145396    -0.442322    -0.998591
C     -0.925305     1.349631    -0.024652
H     -1.323386     2.567176     0.643472
H      0.184342     1.900126    -0.076732
6
Family_2 [H]C([H])=C([H])[H] | RMSD: 0.6504 | 1888.00 to state    1 from traj    1 on state    2
C     -1.735279     0.201894    -0.026959
H     -0.761872     0.158684     0.795443
H     -2.062127    -0.270422    -0.774634
C     -0.914814     1.359174    -0.026400
H     -1.294179     2.276859     0.549414
H     -0.035880     1.988523     0.062299
6
Family_2 [H]C([H])=C([H])[H] | RMSD: 0.7928 | 2140.00 to state    1 from traj    1 on state    2
C     -1.739691     0.286097     0.012817
H     -0.785658     0.145565     0.675387
H     -2.159888    -0.706223    -0.877286
C     -0.886724     1.354344    -0.051718
H     -1.808637     2.056665     0.681466
H      0.317986     1.711848    -0.019324
6
Family_2 [H]C([H])=C([H])[H] | RMSD: 0.8189 | 2272.00 to state    1 from traj    1 on state    2
C     -1.755999     0.287262    -0.026207
H     -0.916939     0.108827     0.964018
H     -1.803558    -0.818699    -0.656377
C     -0.882162     1.378451    -0.040795
H     -1.935267     2.182677     0.533437
H      0.359528     1.433916    -0.045985
6
Family_2 [H]C([H])=C([H])[H] | RMSD: 0.7170 | 1372.00 to state    1 from traj    1 on state    2
C     -1.678966     0.093618    -0.188074
H     -1.011808     0.354430     0.809690
H     -2.454382     0.324700     0.687987
C     -0.909470     1.438078     0.082139
H     -1.461766     2.080845    -0.722750
H      0.039214     1.743657     0.484078
6
Family_2 [H]C([H])=C([H])[H] | RMSD: 0.5461 | 2796.00 to state    1 from traj    1 on state    2
C     -1.616134    -0.008024    -0.072149
H     -1.700794    -0.233757     1.082803
H     -2.407418     1.018744    -0.231982
C     -0.929996     1.515590    -0.006593
H     -1.395336     2.391384     0.532327
H      0.110702     1.614783    -0.448169
6
Family_2 [H]C([H])=C([H])[H] | RMSD: 0.6295 | 2876.00 to state    1 from traj    1 on state    2
C     -1.623347    -0.018737    -0.055999
H     -1.917202    -0.355073     1.009732
H     -2.305197     0.943795    -0.245899
C     -0.907195     1.548011     0.000538
H     -1.363436     2.309328     0.520232
H      0.007248     1.634434    -0.626487
6
Family_2 [H]C([H])=C([H])[H] | RMSD: 0.7889 | 1096.00 to state    1 from traj    1 on state    2
C     -1.610859     0.056183    -0.091448
H     -1.577914    -0.860680     0.744902
H     -2.052998     0.829215     0.527857
C     -0.966046     1.532418    -0.069486
H     -0.932697     2.633120    -0.161913
H     -0.462533     1.223909     0.803510
6
Family_2 [H]C([H])=C([H])[H] | RMSD: 0.6870 | 1232.00 to state    1 from traj    1 on state    2
C     -1.554555     0.094933    -0.067258
H     -1.968194    -0.193535     0.976677
H     -2.339776     0.724700    -0.186151
C     -0.952712     1.460146     0.046660
H     -1.200569     2.368991     0.300254
H     -0.347393     1.324846    -0.848618
6
Family_2 [H]C([H])=C([H])[H] | RMSD: 0.5644 | 1252.00 to state    1 from traj    1 on state    2
C     -1.562013     0.103142    -0.047636
H     -1.696462    -0.152614     0.992447
H     -2.498386     0.977589    -0.317811
C     -0.963492     1.416538    -0.028140
H     -1.341863     2.122157     0.677954
H     -0.101900     1.699674    -0.452954
6
Family_2 [H]C([H])=C([H])[H] | RMSD: 0.6647 | 2136.00 to state    1 from traj    1 on state    2
C     -1.682674     0.240329    -0.031506
H     -0.779647     0.256225     0.907489
H     -2.197849    -0.220211    -0.867252
C     -0.953926     1.347506     0.021413
H     -1.364251     2.221403     0.352318
H      0.026907     1.577280    -0.275570
6
Family_2 [H]C([H])=C([H])[H] | RMSD: 0.4553 | 696.00 to state    1 from traj    1 on state    2
C     -1.592886     0.057154    -0.084484
H     -1.574212     0.371542     0.972235
H     -2.728034     0.389869    -0.309533
C     -0.947943     1.473770     0.033128
H     -1.092559     2.366451     0.504801
H     -0.061210     1.384971    -0.558839
6
Family_2 [H]C([H])=C([H])[H] | RMSD: 0.3750 | 1332.00 to state    1 from traj    1 on state    2
C     -1.639538     0.202062    -0.098255
H     -1.402679     0.339569     1.001372
H     -2.645701    -0.361758    -0.089592
C     -0.939535     1.367559    -0.025761
H     -1.173650     2.247353     0.488946
H      0.221723     1.826559     0.073726
6
Family_2 [H]C([H])=C([H])[H] | RMSD: 0.7577 | 576.00 to state    1 from traj    1 on state    2
C     -1.739772    -0.086929    -0.130349
H     -1.199069    -0.717362     0.717280
H     -2.315199     0.574660     0.676273
C     -0.835837     1.650881    -0.032446
H     -1.203589     2.694718    -0.432755
H     -0.323722     1.567259     0.975723
6
Family_2 [H]C([H])=C([H])[H] | RMSD: 0.2978 | 1736.00 to state    1 from traj    1 on state    2
C     -1.647711     0.083102    -0.118691
H     -1.518176     0.303331     1.033117
H     -2.770974    -0.046516     0.041367
C     -0.889448     1.455873     0.005952
H     -1.328950     2.475088     0.444164
H      0.118358     1.684989    -0.178576
6
Family_2 [H]C([H])=C([H])[H] | RMSD: 0.5834 | 2132.00 to state    1 from traj    1 on state    2
C     -1.751505    -0.075498    -0.107404
H     -1.145766     0.166440     0.853143
H     -2.790786     0.378274    -0.028337
C     -0.777555     1.625120     0.078835
H     -1.825414     1.912855    -0.170555
H      0.165723     1.832447    -0.317123
6
Family_2 [H]C([H])=C([H])[H] | RMSD: 0.7133 | 2568.00 to state    1 from traj    1 on state    2
C     -1.530650     0.171992    -0.053924
H     -2.045947    -0.147248     1.058652
H     -2.442646     0.767825    -0.242471
C     -0.960804     1.376433     0.012658
H     -1.569114     2.087644     0.596199
H      0.013355     1.596064    -0.923957
6
Family_2 [H]C([H])=C([H])[H] | RMSD: 0.5382 | 3428.00 to state    1 from traj    1 on state    2
C     -1.574478     0.151370    -0.094920
H     -1.569764     0.327455     1.177627
H     -2.623863    -0.107510    -0.127785
C     -0.947443     1.478665    -0.004358
H     -1.181010     2.391251     0.468998
H     -0.306677     0.720658    -0.339158
6
Family_2 [H]C([H])=C([H])[H] | RMSD: 0.4694 | 5648.00 to state    1 from traj    1 on state    2
C     -1.593219     0.077883    -0.082324
H     -1.714368     0.285775     0.877241
H     -2.466942     0.516061    -0.160478
C     -0.957064     1.452120     0.024821
H     -1.274044     2.257751     0.464574
H      0.111990     1.464214    -0.499439
6
Family_2 [H]C([H])=C([H])[H] | RMSD: 0.6471 | 2452.00 to state    1 from traj    1 on state    2
C     -1.691831     0.211713    -0.040619
H     -1.013469     0.358100     0.826887
H     -2.190083    -0.507021    -0.725944
C     -0.945070     1.392752     0.022496
H     -1.293013     2.383765     0.397503
H      0.185314     1.401695    -0.285787
6
Family_2 [H]C([H])=C([H])[H] | RMSD: 0.7372 | 688.00 to state    1 from traj    1 on state    2
C     -1.714577    -0.022897    -0.125011
H     -1.348162    -0.614291     0.713975
H     -2.119271     0.632995     0.743576
C     -0.848015     1.597304    -0.044795
H     -1.443516     2.430414    -0.311962
H     -0.285742     1.545584     0.874485
6
Family_2 [H]C([H])=C([H])[H] | RMSD: 0.7600 | 1692.00 to state    1 from traj    1 on state    2
C     -1.592097     0.015482    -0.063192
H     -2.121026    -0.119092     1.000821
H     -2.622164     0.840834    -0.187659
C     -0.858803     1.476064     0.007707
H     -1.327735     2.191494     0.811519
H     -0.456655     2.068797    -0.966816
6
Family_2 [H]C([H])=C([H])[H] | RMSD: 0.7978 | 1884.00 to state    1 from traj    1 on state    2
C     -1.676610     0.015739    -0.138897
H     -1.557274    -0.627843     0.765666
H     -2.174466     0.586540     0.876618
C     -0.885550     1.589680    -0.012170
H     -1.377102     2.228769    -0.610074
H     -0.092996     1.437702     0.764578
6
Family_2 [H]C([H])=C([H])[H] | RMSD: 0.5100 | 2816.00 to state    1 from traj    1 on state    2
C     -1.564096     0.269450    -0.091212
H     -1.530484     0.248189     1.087334
H     -2.547274    -0.287554    -0.325804
C     -1.038314     1.316555     0.038391
H     -0.893484     2.485977     0.226994
H      0.249017     1.409880    -0.362410
6
Family_2 [H]C([H])=C([H])[H] | RMSD: 0.7047 | 588.00 to state    1 from traj    1 on state    2
C     -1.552910     0.068392    -0.087174
H     -1.662190    -0.429471     1.143576
H     -2.402679     0.844099    -0.260043
C     -1.008750     1.481201     0.069385
H     -0.824172     2.719007    -0.087915
H     -0.318756     1.156735    -0.586933
6
Family_2 [H]C([H])=C([H])[H] | RMSD: 0.5743 | 1672.00 to state    1 from traj    1 on state    2
C     -1.571593     0.103635    -0.098544
H     -1.560950     0.281178     1.377602
H     -2.603740     0.322678    -0.421366
C     -0.979317     1.455455     0.033902
H     -1.217556     2.587438     0.535963
H      0.046351     0.985924    -0.725220
6
Family_2 [H]C([H])=C([H])[H] | RMSD: 0.6920 | 2864.00 to state    1 from traj    1 on state    2
C     -1.623231     0.019729    -0.050016
H     -1.827458    -0.243451     0.899773
H     -2.467664     1.012733    -0.191329
C     -0.853177     1.457130    -0.033751
H     -1.622776     2.262564     0.892969
H     -0.305731     2.125199    -0.606556
6
Family_2 [H]C([H])=C([H])[H] | RMSD: 0.7175 | 532.00 to state    1 from traj    1 on state    2
C     -1.746671    -0.075338    -0.117696
H     -1.059066    -0.559597     0.710741
H     -2.320060     0.636927     0.590736
C     -0.809812     1.654355    -0.037665
H     -1.521029     2.393450    -0.346101
H     -0.369327     1.468986     0.892572
6
Family_2 [H]C([H])=C([H])[H] | RMSD: 0.6966 | 1968.00 to state    1 from traj    1 on state    2
C     -1.570155     0.061330    -0.066020
H     -1.745540    -0.226165     0.891709
H     -2.610728     0.968521    -0.227480
C     -0.905860     1.427136     0.044408
H     -1.357485     2.521331     0.436878
H     -0.514559     1.755053    -0.846870
6
Family_2 [H]C([H])=C([H])[H] | RMSD: 0.5382 | 1288.00 to state    1 from traj    1 on state    2
C     -1.767268    -0.054676    -0.134868
H     -1.044121    -0.059378     0.775700
H     -2.555346     0.269865     0.565753
C     -0.769777     1.605613    -0.042665
H     -1.598123     2.214145    -0.008306
H     -0.303509     1.849716     0.778999
6
Family_2 [H]C([H])=C([H])[H] | RMSD: 0.6507 | 2684.00 to state    1 from traj    1 on state    2
C     -1.543072     0.154721    -0.056251
H     -1.838172    -0.280862     1.028001
H     -2.540305     0.816727    -0.330314
C     -0.966157     1.357065     0.021849
H     -1.272825     2.341328     0.497549
H     -0.181240     1.863680    -0.788593
6
Family_2 [H]C([H])=C([H])[H] | RMSD: 0.6337 | 2776.00 to state    1 from traj    1 on state    2
C     -1.647080    -0.032371    -0.102173
H     -1.670537    -0.015350     1.197559
H     -2.573349     0.807090    -0.233073
C     -0.849382     1.498633     0.045758
H     -1.352601     2.491147     0.540057
H     -0.388186     2.000430    -0.835606
6
Family_2 [H]C([H])=C([H])[H] | RMSD: 0.7040 | 6352.00 to state    1 from traj    1 on state    2
C     -1.677635     0.009731    -0.152593
H     -1.301884    -0.481887     0.911820
H     -2.382349     0.632090     0.809610
C     -0.860070     1.551959    -0.032673
H     -1.299951     2.383937    -0.352791
H     -0.509063     1.612093     0.835649
6
Family_2 [H]C([H])=C([H])[H] | RMSD: 0.6940 | 6792.00 to state    1 from traj    1 on state    2
C     -1.636964     0.304463    -0.026257
H     -1.016184     0.233085     0.877335
H     -2.057019    -0.366557    -0.810927
C     -1.003334     1.319572     0.022662
H     -1.212500     2.255915     0.311350
H      0.014923     1.280897    -0.338208
6
Family_2 [H]C([H])=C([H])[H] | RMSD: 0.6878 | 10568.00 to state    1 from traj    1 on state    2
C     -1.493482     0.207757    -0.033406
H     -1.997299    -0.180157     0.993411
H     -2.442416     0.768751    -0.337135
C     -1.018706     1.379054    -0.002097
H     -1.353995     2.011892     0.535440
H     -0.003574     1.246399    -0.771949
6
Family_2 [H]C([H])=C([H])[H] | RMSD: 0.6368 | 10692.00 to state    1 from traj    1 on state    2
C     -1.535321     0.141557    -0.025077
H     -1.824290    -0.338851     0.778501
H     -2.404943     0.840548    -0.367374
C     -0.982604     1.392849    -0.012545
H     -1.149007     2.462270     0.618896
H     -0.350696     1.507370    -0.585013
6
Family_2 [H]C([H])=C([H])[H] | RMSD: 0.7464 | 6036.00 to state    1 from traj    1 on state    2
C     -1.616343     0.158486     0.035486
H     -1.595314    -0.438728     0.915361
H     -2.030406    -0.182844    -0.901600
C     -1.035283     1.523124    -0.124054
H     -0.469033     2.456097     0.914968
H     -0.041034     0.882781     0.123330
6
Family_2 [H]C([H])=C([H])[H] | RMSD: 0.5882 | 2416.00 to state    1 from traj    1 on state    2
C     -1.570848     0.028165    -0.053355
H     -2.108085    -0.190483     0.997259
H     -2.433342     0.894401    -0.192579
C     -0.960565     1.494192    -0.043738
H     -1.102238     2.219922     0.818553
H      0.075450     1.691070    -0.469577
6
Family_2 [H]C([H])=C([H])[H] | RMSD: 0.4067 | 1032.00 to state    1 from traj    1 on state    2
C     -1.582366     0.104207    -0.089350
H     -1.732505     0.232340     1.070218
H     -2.736678     0.476451    -0.083105
C     -0.934222     1.425073    -0.020645
H     -1.428784     2.163606     0.701534
H      0.153113     1.660016    -0.381264
6
Family_2 [H]C([H])=C([H])[H] | RMSD: 0.6902 | 1376.00 to state    1 from traj    1 on state    2
C     -1.737432     0.057103    -0.104160
H     -0.985987    -0.089725     0.526158
H     -2.516872     0.187220     0.569009
C     -0.796593     1.537708    -0.048734
H     -1.732838     1.833271    -0.161310
H     -0.301382     1.820803     0.884701
6
Family_2 [H]C([H])=C([H])[H] | RMSD: 0.4281 | 2736.00 to state    1 from traj    1 on state    2
C     -1.557341     0.164528    -0.079441
H     -1.705902     0.121689     0.982521
H     -2.769163     0.475133    -0.143324
C     -0.954534     1.340116    -0.018279
H     -1.388100     2.403041     0.749504
H      0.062152     1.826105    -0.427591
6
Family_2 [H]C([H])=C([H])[H] | RMSD: 0.5181 | 3020.00 to state    1 from traj    1 on state    2
C     -1.614592     0.179384    -0.100101
H     -1.293361     0.404400     1.278407
H     -2.571419     0.107785    -0.317949
C     -0.924588     1.392633     0.032337
H     -1.465905     2.035127     0.368844
H     -0.144977     1.475867    -0.525126
6
Family_2 [H]C([H])=C([H])[H] | RMSD: 0.4608 | 1220.00 to state    1 from traj    1 on state    2
C     -1.611331     0.204709    -0.122614
H     -1.504213     0.334130     1.098404
H     -2.658883    -0.131290     0.026569
C     -0.927687     1.362719     0.047185
H     -1.466491     2.222779     0.155094
H      0.151994     1.652246    -0.384563
6
Family_2 [H]C([H])=C([H])[H] | RMSD: 0.5541 | 2672.00 to state    1 from traj    1 on state    2
C     -1.685750     0.202899    -0.057811
H     -1.007088     0.300459     1.029543
H     -2.295909    -0.367885    -0.676180
C     -0.938988     1.368960    -0.000147
H     -1.226401     2.432342     0.541158
H      0.073217     1.660151    -0.207195
6
Family_2 [H]C([H])=C([H])[H] | RMSD: 0.6427 | 536.00 to state    1 from traj    1 on state    2
C     -1.626704     0.033917    -0.109660
H     -1.621430    -0.507408     0.735360
H     -2.086473     0.787214     0.569178
C     -0.958537     1.528815    -0.049313
H     -1.159061     2.542109    -0.078824
H     -0.059840     1.311897     0.665277
6
Family_2 [H]C([H])=C([H])[H] | RMSD: 0.5267 | 1196.00 to state    1 from traj    1 on state    2
C     -1.654701    -0.032507    -0.123492
H     -1.471943    -0.348055     0.908878
H     -2.363880     0.670562     0.569162
C     -0.899573     1.597057    -0.077306
H     -1.165917     2.556506     0.146388
H     -0.294061     1.233132     0.764931
6
Family_2 [H]C([H])=C([H])[H] | RMSD: 0.6958 | 1820.00 to state    1 from traj    1 on state    2
C     -1.708243     0.294865    -0.056983
H     -1.079794     0.162568     1.022505
H     -1.931610    -0.749516    -0.481621
C     -0.923107     1.352659    -0.007776
H     -1.583486     2.255759     0.327672
H      0.217493     1.454650    -0.100190
6
Family_2 [H]C([H])=C([H])[H] | RMSD: 0.3810 | 2112.00 to state    1 from traj    1 on state    2
C     -1.643946     0.168678    -0.105238
H     -1.343713     0.514985     1.193042
H     -2.467540    -0.189884    -0.107915
C     -0.941448     1.413207    -0.051826
H     -1.354103     2.116593     0.673296
H      0.240366     1.463893     0.109814
6
Family_2 [H]C([H])=C([H])[H] | RMSD: 0.6783 | 2992.00 to state    1 from traj    1 on state    2
C     -1.669703     0.297620    -0.030128
H     -0.948054     0.287119     0.930493
H     -2.058441    -0.444750    -0.698292
C     -0.963580     1.342890    -0.015654
H     -1.532842     2.049506     0.438723
H      0.184977     1.315160    -0.128683
6
Family_2 [H]C([H])=C([H])[H] | RMSD: 0.6620 | 1260.00 to state    1 from traj    1 on state    2
C     -1.729749     0.096725    -0.132179
H     -0.871367     0.168285     0.532342
H     -2.552030    -0.084610     0.628276
C     -0.801141     1.466086    -0.030031
H     -1.692724     2.316435    -0.074435
H     -0.458326     1.732762     0.843383
6
Family_2 [H]C([H])=C([H])[H] | RMSD: 0.6442 | 1344.00 to state    1 from traj    1 on state    2
C     -1.726198     0.091417    -0.134497
H     -0.877107     0.226735     0.584143
H     -2.496675    -0.054002     0.588664
C     -0.824769     1.473174    -0.030283
H     -1.524887     2.206674    -0.097628
H     -0.436535     1.732248     0.884999
6
Family_2 [H]C([H])=C([H])[H] | RMSD: 0.5498 | 2448.00 to state    1 from traj    1 on state    2
C     -1.602947     0.092571    -0.062736
H     -1.324778     0.408378     0.973462
H     -2.552280     0.546965    -0.666599
C     -0.997969     1.401815     0.035588
H     -0.988720     2.278312     0.568355
H      0.125735     1.714543    -0.555014
6
Family_2 [H]C([H])=C([H])[H] | RMSD: 0.5570 | 3012.00 to state    1 from traj    1 on state    2
C     -1.646984     0.187743     0.015973
H     -1.234091    -0.445111     0.912334
H     -2.577919    -0.073560    -0.781420
C     -0.981963     1.430132    -0.128733
H     -0.748072     2.072329     0.798938
H      0.154053     1.923090     0.410482
6
Family_2 [H]C([H])=C([H])[H] | RMSD: 0.3949 | 992.00 to state    1 from traj    1 on state    2
C     -1.576795     0.150278    -0.092782
H     -1.629826     0.202480     1.125541
H     -2.678011     0.396395    -0.113575
C     -0.937901     1.379877    -0.014895
H     -1.427733     2.277246     0.667560
H     -0.031829     1.645871    -0.399768
6
Family_2 [H]C([H])=C([H])[H] | RMSD: 0.5482 | 1392.00 to state    1 from traj    1 on state    2
C     -1.667479     0.166373    -0.115949
H     -1.295989     0.447158     1.174704
H     -2.629187    -0.483604    -0.208440
C     -0.884793     1.423921     0.053062
H     -1.539470     2.435436     0.258789
H      0.144979     1.406404    -0.478986
6
Family_2 [H]C([H])=C([H])[H] | RMSD: 0.8018 | 2424.00 to state    1 from traj    1 on state    2
C     -1.501172     0.091711    -0.016864
H     -2.495960    -0.320321     0.613630
H     -2.586187     0.623314    -0.192622
C     -0.977687     1.475598    -0.007694
H     -0.691945     2.282721     0.672651
H     -0.420339     1.493557    -0.804318
6
Family_2 [H]C([H])=C([H])[H] | RMSD: 0.6163 | 552.00 to state    1 from traj    1 on state    2
C     -1.639066     0.089387    -0.159727
H     -1.812957    -0.164174     1.061182
H     -2.798903     0.077070     0.646980
C     -0.853373     1.501447     0.064202
H     -1.613682     2.166693    -0.397759
H      0.192928     1.719371    -0.175436
6
Family_2 [H]C([H])=C([H])[H] | RMSD: 0.4929 | 3512.00 to state    1 from traj    1 on state    2
C     -1.610459     0.121316    -0.079138
H     -1.285212     0.307970     1.168706
H     -2.609195     0.257448    -0.520224
C     -0.938947     1.399472     0.007998
H     -1.278952     2.639135     0.736462
H     -0.180453     1.429048    -0.540550
6
Family_2 [H]C([H])=C([H])[H] | RMSD: 0.4005 | 3160.00 to state    1 from traj    1 on state    2
C     -1.665015     0.137296    -0.092137
H     -1.249487     0.508559     1.016617
H     -2.758518    -0.277532    -0.187277
C     -0.882221     1.439327    -0.021182
H     -1.391695     2.092203     0.583786
H      0.020026     1.645064    -0.066133
6
Family_2 [H]C([H])=C([H])[H] | RMSD: 0.4755 | 4544.00 to state    1 from traj    1 on state    2
C     -1.604158     0.154812    -0.099137
H     -1.457111     0.399617     1.182217
H     -2.775661    -0.149117    -0.333305
C     -0.957868     1.428226     0.043519
H     -1.082860     2.239543     0.297669
H      0.112192     1.401809    -0.487137
6
Family_2 [H]C([H])=C([H])[H] | RMSD: 0.3850 | 1536.00 to state    1 from traj    1 on state    2
C     -1.598364     0.084915    -0.101325
H     -1.587335     0.281948     1.168559
H     -2.779842     0.075853    -0.154787
C     -0.923867     1.474716    -0.008449
H     -1.167393     2.602976     0.651945
H     -0.143057     1.209981    -0.360967
6
Family_2 [H]C([H])=C([H])[H] | RMSD: 0.5696 | 1704.00 to state    1 from traj    1 on state    2
C     -1.618501     0.077210    -0.072805
H     -1.459772     0.571404     1.072614
H     -2.591611    -0.080231    -0.533396
C     -0.965583     1.519949     0.024782
H     -0.983075     2.277702     0.542076
H      0.093855     0.954720    -0.512345
6
Family_2 [H]C([H])=C([H])[H] | RMSD: 0.4790 | 2104.00 to state    1 from traj    1 on state    2
C     -1.660297     0.245498    -0.071090
H     -1.065043     0.277114     1.137208
H     -2.389338    -0.398749    -0.496556
C     -0.954795     1.332611    -0.039199
H     -1.145584     2.315180     0.617634
H      0.028846     1.757031     0.052600
6
Family_2 [H]C([H])=C([H])[H] | RMSD: 0.7892 | 2032.00 to state    1 from traj    1 on state    2
C     -1.650115     0.231685     0.007306
H     -1.205124    -0.183001     1.211260
H     -1.896485    -0.522405    -0.892803
C     -1.016769     1.497417    -0.118793
H     -0.834190     2.242990     0.766715
H     -0.018187     0.613816     0.239989
6
Family_2 [H]C([H])=C([H])[H] | RMSD: 0.7065 | 4972.00 to state    1 from traj    1 on state    2
C     -1.569627     0.127254    -0.086752
H     -2.099428     0.120328     0.893804
H     -2.768764     0.506544     0.189062
C     -0.851898     1.411125     0.014293
H     -1.688911     1.832033     0.563889
H     -0.320500     1.965098    -0.786636
6
Family_2 [H]C([H])=C([H])[H] | RMSD: 0.6746 | 6056.00 to state    1 from traj    1 on state    2
C     -1.521958     0.108814    -0.034874
H     -2.169694    -0.237177     0.761516
H     -2.587008     0.671784    -0.299965
C     -0.995018     1.442226     0.023018
H     -0.980622     2.346793     0.487605
H     -0.002913     1.491732    -0.811161
6
Family_2 [H]C([H])=C([H])[H] | RMSD: 0.7316 | 932.00 to state    1 from traj    1 on state    2
C     -1.615972     0.040534    -0.069888
H     -1.939094    -0.079171     1.026153
H     -2.486430     0.914856    -0.049582
C     -0.846251     1.440786    -0.042854
H     -1.438889     1.918733     0.912933
H     -0.528232     2.349472    -0.549384
6
Family_2 [H]C([H])=C([H])[H] | RMSD: 0.5891 | 2452.00 to state    1 from traj    1 on state    2
C     -1.595396     0.087542    -0.083722
H     -1.574316     0.291828     1.064003
H     -2.669561     0.742914    -0.288495
C     -0.911829     1.395920     0.020592
H     -1.645757     2.212185     0.710235
H      0.033209     1.831433    -0.736791
6
Family_2 [H]C([H])=C([H])[H] | RMSD: 0.4854 | 984.00 to state    1 from traj    1 on state    2
C     -1.663539     0.121592    -0.132700
H     -1.403818     0.286143     0.944662
H     -2.505873     0.231385     0.508282
C     -0.859300     1.435353    -0.046378
H     -1.758500     1.833743     0.301022
H     -0.002176     1.851498     0.376582
6
Family_2 [H]C([H])=C([H])[H] | RMSD: 0.2715 | 1844.00 to state    1 from traj    1 on state    2
C     -1.692349     0.000725    -0.116243
H     -1.442974     0.241049     1.065463
H     -2.824671     0.188685     0.068939
C     -0.855163     1.503184    -0.049678
H     -1.315609     2.286557     0.678250
H      0.206869     2.118445     0.161139
6
Family_2 [H]C([H])=C([H])[H] | RMSD: 0.7449 | 996.00 to state    1 from traj    1 on state    2
C     -1.601589     0.116695    -0.139451
H     -1.383587    -0.376630     0.792910
H     -2.183754     0.600724     0.828473
C     -0.970719     1.455635    -0.075824
H     -1.009545     2.537068    -0.157885
H     -0.504031     1.258283     1.098367
6
Family_2 [H]C([H])=C([H])[H] | RMSD: 0.7385 | 1232.00 to state    1 from traj    1 on state    2
C     -1.725081     0.211559    -0.118776
H     -1.494031     0.280348     1.047816
H     -1.507743    -0.817774     0.088298
C     -0.947973     1.417861    -0.020221
H     -1.143118     2.517513     0.234501
H      0.264421     1.359092     0.282351
6
Family_2 [H]C([H])=C([H])[H] | RMSD: 0.6830 | 1540.00 to state    1 from traj    1 on state    2
C     -1.616803     0.137394     0.023012
H     -1.274040    -0.260315     0.930032
H     -2.208617     0.098070    -0.841440
C     -0.986083     1.549169    -0.090411
H     -1.018080     2.253279     0.728055
H     -0.215821     0.567244    -0.016823
6
Family_2 [H]C([H])=C([H])[H] | RMSD: 0.7306 | 2684.00 to state    1 from traj    1 on state    2
C     -1.722329     0.256449    -0.022529
H     -0.922104     0.061032     0.791464
H     -2.172768    -0.660151    -0.878967
C     -0.950751     1.323296     0.002563
H     -1.028094     2.420585     0.402765
H      0.242817     2.109618    -0.080627
6
Family_2 [H]C([H])=C([H])[H] | RMSD: 0.6982 | 920.00 to state    1 from traj    1 on state    2
C     -1.560645     0.035607    -0.057685
H     -1.798471     0.674655     1.034795
H     -2.495047     0.444389    -0.627444
C     -1.035856     1.508487     0.002212
H     -0.486389     2.051036     0.853181
H     -0.012742     1.185824    -0.602826
6
Family_2 [H]C([H])=C([H])[H] | RMSD: 0.3129 | 588.00 to state    1 from traj    1 on state    2
C     -1.736814    -0.056625    -0.126555
H     -1.351663     0.049340     1.134671
H     -2.757811     0.223382     0.281575
C     -0.791654     1.616148    -0.051699
H     -1.718788     2.126944     0.396175
H      0.224963     1.772386     0.308314
6
Family_2 [H]C([H])=C([H])[H] | RMSD: 0.3657 | 9796.00 to state    1 from traj    1 on state    2
C     -1.581962     0.182024    -0.116725
H     -1.584053     0.190501     1.316377
H     -2.710297     0.065148    -0.044538
C     -0.942825     1.378129    -0.005744
H     -1.401439     2.457995     0.525212
H      0.048624     1.450907    -0.341028
6
Family_2 [H]C([H])=C([H])[H] | RMSD: 0.4144 | 1056.00 to state    1 from traj    1 on state    2
C     -1.676241     0.060586    -0.124963
H     -1.270083     0.295614     0.910882
H     -2.803356     0.253957     0.455769
C     -0.838574     1.486804    -0.079472
H     -1.753879     1.972705     0.500687
H      0.061329     1.794356     0.565363
6
Family_2 [H]C([H])=C([H])[H] | RMSD: 0.5669 | 1564.00 to state    1 from traj    1 on state    2
C     -1.653695     0.239705    -0.061943
H     -1.108108     0.326931     1.086347
H     -2.426969    -0.524473    -0.600824
C     -0.950554     1.371574     0.001661
H     -1.308716     2.420658     0.499298
H      0.143475     1.332221    -0.269800
6
Family_2 [H]C([H])=C([H])[H] | RMSD: 0.6079 | 7216.00 to state    1 from traj    1 on state    2
C     -1.653813     0.125545    -0.161101
H     -1.425746     0.337229     1.211353
H     -2.489743    -0.052011     0.251002
C     -0.875147     1.460532     0.101437
H     -1.670961     2.227999    -0.280491
H     -0.010986     1.342430    -0.474203
6
Family_2 [H]C([H])=C([H])[H] | RMSD: 0.6109 | 2304.00 to state    1 from traj    1 on state    2
C     -1.562589     0.068482    -0.038524
H     -2.021549    -0.256689     0.983859
H     -2.375000     0.898476    -0.241971
C     -0.948924     1.472602    -0.055142
H     -1.291189     2.214754     0.874662
H     -0.117599     1.535216    -0.503738
6
Family_2 [H]C([H])=C([H])[H] | RMSD: 0.4612 | 13060.00 to state    1 from traj    1 on state    2
C     -1.652282     0.179094    -0.121422
H     -1.210182     0.358704     1.286285
H     -2.704488    -0.163623    -0.233389
C     -0.898610     1.356083     0.032037
H     -1.335661     2.313024     0.356951
H     -0.085769     1.954043    -0.348053
6
Family_2 [H]C([H])=C([H])[H] | RMSD: 0.6710 | 1004.00 to state    1 from traj    1 on state    2
C     -1.602050     0.106197    -0.060902
H     -1.583410    -0.386389     1.140563
H     -2.176007     1.112112    -0.275807
C     -0.939658     1.401710    -0.016620
H     -1.588743     2.178573     0.503780
H     -0.097375     1.882788    -0.448092
6
Family_2 [H]C([H])=C([H])[H] | RMSD: 0.7757 | 1604.00 to state    1 from traj    1 on state    2
C     -1.736291     0.262306    -0.111454
H     -1.530313     0.054928     0.998307
H     -1.531050    -0.902306     0.198227
C     -0.896834     1.387085    -0.014904
H     -1.484988     2.361980     0.105071
H      0.190109     1.586619     0.200755
6
Family_2 [H]C([H])=C([H])[H] | RMSD: 0.7706 | 1112.00 to state    1 from traj    1 on state    2
C     -1.574569     0.078506    -0.077285
H     -2.031881    -0.141112     0.967863
H     -2.485009     0.862494     0.008782
C     -0.862301     1.406816     0.000316
H     -1.353388     2.260426     0.735397
H     -0.824475     2.074398    -0.798183
6
Family_2 [H]C([H])=C([H])[H] | RMSD: 0.6887 | 4500.00 to state    1 from traj    1 on state    2
C     -1.652089     0.130035     0.011113
H     -1.418080     0.006457     1.051928
H     -2.281356    -0.429120    -0.784879
C     -0.948454     1.587417    -0.119143
H     -0.835073     1.997246     0.939885
H     -0.209977     0.715638     0.077027
6
Family_2 [H]C([H])=C([H])[H] | RMSD: 0.4552 | 5028.00 to state    1 from traj    1 on state    2
C     -1.555079     0.161400    -0.079960
H     -1.812123     0.003704     1.058019
H     -2.682357     0.512813    -0.115440
C     -0.951241     1.349553    -0.024474
H     -1.358745     2.405547     0.760888
H     -0.013980     1.828727    -0.462351
6
Family_2 [H]C([H])=C([H])[H] | RMSD: 0.7136 | 1376.00 to state    1 from traj    1 on state    2
C     -1.703704     0.208219     0.003023
H     -0.777991     0.288465     0.648734
H     -2.036249    -0.262766    -0.988577
C     -0.959453     1.381215    -0.019178
H     -1.346162     2.362013     0.640320
H      0.162009     1.427928    -0.111261
6
Family_2 [H]C([H])=C([H])[H] | RMSD: 0.8245 | 1128.00 to state    1 from traj    1 on state    2
C     -1.526158     0.108444    -0.036334
H     -1.955025     0.535540     0.876761
H     -2.392263     0.171378    -0.589086
C     -1.067746     1.503983     0.005980
H     -0.127724     1.883407     0.617289
H     -0.348565     0.951341    -0.546561
6
Family_2 [H]C([H])=C([H])[H] | RMSD: 0.4099 | 2636.00 to state    1 from traj    1 on state    2
C     -1.638985     0.107518    -0.078564
H     -1.335141     0.528076     1.118102
H     -2.572500     0.138407    -0.422191
C     -0.960582     1.428515    -0.043327
H     -1.221670     2.136154     0.853345
H      0.373197     1.649311    -0.100125
6
Family_2 [H]C([H])=C([H])[H] | RMSD: 0.5823 | 3156.00 to state    1 from traj    1 on state    2
C     -1.660263     0.267201    -0.087352
H     -1.192120     0.269155     1.125164
H     -2.455306    -0.537530    -0.381520
C     -0.921494     1.331515     0.033918
H     -1.575011     2.349554     0.278395
H      0.254114     1.623863    -0.388621
6
Family_2 [H]C([H])=C([H])[H] | RMSD: 0.6448 | 4836.00 to state    1 from traj    1 on state    2
C     -1.519355     0.048826    -0.045868
H     -2.127899    -0.372496     0.858125
H     -2.712019     0.740978    -0.264644
C     -1.012602     1.493002    -0.002094
H     -0.575980     2.595403     0.500551
H     -0.145823     1.419008    -0.525817
6
Family_2 [H]C([H])=C([H])[H] | RMSD: 0.6398 | 8520.00 to state    1 from traj    1 on state    2
C     -1.599508     0.110758    -0.109280
H     -1.399827     0.414436     1.080792
H     -2.557105     0.745412    -0.151455
C     -0.892172     1.364618     0.052293
H     -1.591940     2.158988     0.473667
H     -0.492780     1.855884    -0.727260
6
Family_2 [H]C([H])=C([H])[H] | RMSD: 0.7717 | 2028.00 to state    1 from traj    1 on state    2
C     -1.590350     0.107031    -0.012104
H     -1.774917     0.172368     1.149897
H     -2.390187    -0.248033    -0.758166
C     -1.020179     1.597787    -0.057978
H     -0.322445     1.790789     0.688061
H     -0.137940     0.725631    -0.248001
6
Family_2 [H]C([H])=C([H])[H] | RMSD: 0.6971 | 2164.00 to state    1 from traj    1 on state    2
C     -1.599199     0.137562    -0.005190
H     -1.572924    -0.017736     1.143898
H     -2.241603    -0.198873    -0.792237
C     -1.027455     1.545228    -0.094545
H     -0.502311     2.239576     0.864351
H     -0.116516     0.680268    -0.030885
6
Family_2 [H]C([H])=C([H])[H] | RMSD: 0.5512 | 3484.00 to state    1 from traj    1 on state    2
C     -1.608055     0.227038    -0.074161
H     -1.164531     0.265047     1.060253
H     -2.627854     0.025452    -0.567993
C     -0.953647     1.307344     0.051498
H     -1.402600     2.508941     0.405691
H     -0.012315     1.672174    -0.631191
6
Family_2 [H]C([H])=C([H])[H] | RMSD: 0.6282 | 1524.00 to state    1 from traj    1 on state    2
C     -1.550052     0.095442    -0.076575
H     -2.279814    -0.178445     1.135541
H     -2.918182     0.355723     0.008999
C     -0.887730     1.471428    -0.013600
H     -1.288722     2.211676     0.713035
H     -0.197179     1.695557    -0.786355
6
Family_2 [H]C([H])=C([H])[H] | RMSD: 0.4297 | 948.00 to state    1 from traj    1 on state    2
C     -1.613047     0.048084    -0.073871
H     -1.419962     0.464932     1.047912
H     -2.721131     0.287925    -0.509362
C     -0.970819     1.477347    -0.006712
H     -0.819327     2.309603     0.726938
H      0.017224     1.515822    -0.308568
6
Family_2 [H]C([H])=C([H])[H] | RMSD: 0.5787 | 3352.00 to state    1 from traj    1 on state    2
C     -1.665956     0.145025    -0.177433
H     -1.379074     0.294572     0.919775
H     -2.577393    -0.027526     0.708916
C     -0.868642     1.403641     0.044020
H     -1.712482     2.197311    -0.268681
H      0.138696     1.837064     0.226414
6
Family_2 [H]C([H])=C([H])[H] | RMSD: 0.6737 | 3396.00 to state    1 from traj    1 on state    2
C     -1.588915     0.125878    -0.039668
H     -1.730471    -0.298901     0.918861
H     -2.285821     0.952046    -0.365180
C     -0.947775     1.376074    -0.008879
H     -1.377062     2.113876     0.589732
H     -0.111968     2.091033    -0.568227
6
Family_2 [H]C([H])=C([H])[H] | RMSD: 0.7776 | 2188.00 to state    1 from traj    1 on state    2
C     -1.561353     0.058099    -0.031120
H     -2.255741    -0.272926     0.720934
H     -2.490425     0.815998    -0.232432
C     -0.909135     1.462453     0.012432
H     -1.226381     2.248113     0.694031
H     -0.321624     1.845228    -0.963137
6
Family_2 [H]C([H])=C([H])[H] | RMSD: 0.3538 | 7784.00 to state    1 from traj    1 on state    2
C     -1.646424     0.064377    -0.076558
H     -1.368782     0.513259     0.933289
H     -2.636568    -0.087720    -0.284766
C     -0.938215     1.488917    -0.065658
H     -1.018670     2.492679     0.929983
H      0.090037     1.328048     0.112806
6
Family_2 [H]C([H])=C([H])[H] | RMSD: 0.3637 | 740.00 to state    1 from traj    1 on state    2
C     -1.712170    -0.054628    -0.111697
H     -1.539865     0.175900     1.054588
H     -2.821047     0.302905     0.148388
C     -0.791800     1.593914    -0.028267
H     -1.723975     2.058503     0.546866
H      0.189667     1.875878    -0.085363
6
Family_2 [H]C([H])=C([H])[H] | RMSD: 0.6842 | 1420.00 to state    1 from traj    1 on state    2
C     -1.533693     0.108993    -0.020271
H     -2.106621    -0.331519     0.790390
H     -2.529219     0.796159    -0.400950
C     -0.989019     1.435381     0.001614
H     -1.114431     2.270847     0.607978
H      0.078383     1.617075    -0.778382
6
Family_2 [H]C([H])=C([H])[H] | RMSD: 0.7153 | 2164.00 to state    1 from traj    1 on state    2
C     -1.676058     0.255944    -0.036232
H     -1.129677     0.239016     0.851939
H     -1.764707    -0.531813    -0.735441
C     -1.021073     1.357067    -0.002442
H     -0.869569     2.460296     0.392577
H      0.170383     1.367210    -0.051524
6
Family_2 [H]C([H])=C([H])[H] | RMSD: 0.6544 | 2816.00 to state    1 from traj    1 on state    2
C     -1.524641     0.076946    -0.052533
H     -2.312796    -0.245575     0.827558
H     -2.568244     0.494525    -0.133804
C     -0.996045     1.482877    -0.002751
H     -0.629689     2.511990     0.553967
H     -0.185298     1.407534    -0.592255
6
Family_2 [H]C([H])=C([H])[H] | RMSD: 0.5940 | 3832.00 to state    1 from traj    1 on state    2
C     -1.569439     0.106475    -0.049248
H     -1.714108    -0.247864     1.027814
H     -2.507851     1.001910    -0.268916
C     -0.935661     1.389638    -0.052171
H     -1.409506     2.248335     0.860757
H     -0.250282     1.925233    -0.414464
6
Family_2 [H]C([H])=C([H])[H] | RMSD: 0.4690 | 1544.00 to state    1 from traj    1 on state    2
C     -1.564866     0.160369    -0.100628
H     -1.677927     0.199442     0.982461
H     -2.719377     0.357246    -0.061659
C     -0.938378     1.353195     0.035920
H     -1.336149     2.461234     0.442333
H     -0.170409     1.701767    -0.595382
6
Family_2 [H]C([H])=C([H])[H] | RMSD: 0.6712 | 3060.00 to state    1 from traj    1 on state    2
C     -1.612743     0.103018    -0.103776
H     -1.732904     0.108145     1.029511
H     -2.470871     0.788320     0.088579
C     -0.863340     1.352582    -0.010009
H     -1.512383     2.086650     0.708661
H     -0.511346     2.427251    -0.474206
6
Family_2 [H]C([H])=C([H])[H] | RMSD: 0.4530 | 5340.00 to state    1 from traj    1 on state    2
C     -1.656163     0.165259    -0.117488
H     -1.431347     0.300505     1.072222
H     -2.725332    -0.444613    -0.107149
C     -0.907572     1.378926     0.023620
H     -1.330405     2.722971     0.417593
H      0.304009     1.775949    -0.267449
6
Family_2 [H]C([H])=C([H])[H] | RMSD: 0.7122 | 1888.00 to state    1 from traj    1 on state    2
C     -1.577100     0.101338    -0.062226
H     -1.580408    -0.438889     0.990513
H     -2.228390     1.008588    -0.390068
C     -0.989338     1.411665     0.062463
H     -1.136014     2.522604     0.062229
H     -0.206049     1.634061    -0.668778
6
Family_2 [H]C([H])=C([H])[H] | RMSD: 0.5412 | 2428.00 to state    1 from traj    1 on state    2
C     -1.602639     0.199702     0.002908
H     -1.401954    -0.240693     1.025194
H     -2.541975    -0.141159    -0.760694
C     -1.019239     1.440643    -0.113317
H     -0.541250     2.099444     0.813563
H     -0.005078     1.491410     0.234249
6
Family_2 [H]C([H])=C([H])[H] | RMSD: 0.8623 | 600.00 to state    1 from traj    1 on state    2
C     -1.544330     0.124625    -0.023425
H     -1.803742     0.070510     1.089569
H     -2.274296     0.029393    -0.800452
C     -1.083624     1.541166     0.014112
H     -0.063791     2.138638     0.343382
H     -0.276031     0.667251    -0.524807
6
Family_2 [H]C([H])=C([H])[H] | RMSD: 0.7011 | 6388.00 to state    1 from traj    1 on state    2
C     -1.676539     0.247075    -0.045080
H     -1.064893     0.374023     0.907960
H     -2.050865    -0.694235    -0.691120
C     -0.965563     1.382355     0.004890
H     -1.124207     2.511371     0.464332
H     -0.009303     1.147897    -0.205570
6
Family_2 [H]C([H])=C([H])[H] | RMSD: 0.4029 | 7480.00 to state    1 from traj    1 on state    2
C     -1.621975     0.214830    -0.101351
H     -1.384637     0.325585     1.160909
H     -2.616871     0.068684    -0.058948
C     -0.934307     1.323764    -0.051949
H     -1.565924     2.037834     0.693348
H      0.295562     1.989336     0.028083
6
Family_2 [H]C([H])=C([H])[H] | RMSD: 0.5946 | 2860.00 to state    1 from traj    1 on state    2
C     -1.564703     0.159206    -0.085106
H     -1.377555     0.307139     1.103304
H     -2.564788     0.614305    -0.433272
C     -0.966295     1.343274     0.054819
H     -1.386921     2.415820     0.476135
H     -0.243893     1.514494    -0.788553
6
Family_2 [H]C([H])=C([H])[H] | RMSD: 0.5457 | 3032.00 to state    1 from traj    1 on state    2
C     -1.557295     0.109613    -0.091969
H     -1.619910     0.319613     0.996904
H     -2.523221     0.463836    -0.283264
C     -1.000948     1.426094     0.059722
H     -0.886706     2.397690     0.280215
H     -0.218678     1.274696    -0.612890
6
Family_2 [H]C([H])=C([H])[H] | RMSD: 0.5496 | 1864.00 to state    1 from traj    1 on state    2
C     -1.588369     0.071043    -0.067819
H     -1.520461     0.607334     0.997759
H     -2.642648     0.132680    -0.573097
C     -1.010441     1.476291     0.002394
H     -0.580358     2.326151     0.731736
H     -0.021659     1.251116    -0.380097
6
Family_2 [H]C([H])=C([H])[H] | RMSD: 0.7321 | 5028.00 to state    1 from traj    1 on state    2
C     -1.772585     0.229882    -0.056798
H     -1.050437     0.158503     0.945458
H     -1.635661    -0.689204    -0.352485
C     -0.880572     1.413152    -0.045054
H     -1.584762     2.007442     0.386242
H      0.153319     1.700211     0.231132
6
Family_2 [H]C([H])=C([H])[H] | RMSD: 0.5233 | 5660.00 to state    1 from traj    1 on state    2
C     -1.554422     0.100472    -0.055690
H     -1.851099    -0.033646     0.994686
H     -2.542169     0.920220    -0.198976
C     -0.980026     1.403482    -0.066414
H     -1.218215     2.090100     0.913036
H      0.079436     1.857515    -0.257080
6
Family_2 [H]C([H])=C([H])[H] | RMSD: 0.3049 | 584.00 to state    1 from traj    1 on state    2
C     -1.697259     0.039492    -0.105026
H     -1.319882     0.398602     1.011445
H     -2.662005     0.079065     0.049778
C     -0.846968     1.503261    -0.059974
H     -1.565319     2.104789     0.710903
H      0.131683     1.789420     0.190686
6
Family_2 [H]C([H])=C([H])[H] | RMSD: 0.5149 | 2060.00 to state    1 from traj    1 on state    2
C     -1.612932     0.149874    -0.115917
H     -1.418414     0.432381     1.040102
H     -2.943632    -0.059440    -0.108857
C     -0.893950     1.400830     0.072995
H     -1.508092     2.312860     0.202389
H      0.009624     1.591329    -0.625471
6
Family_2 [H]C([H])=C([H])[H] | RMSD: 0.4685 | 2812.00 to state    1 from traj    1 on state    2
C     -1.595561     0.145497    -0.085420
H     -1.309690     0.381557     1.131626
H     -2.996399     0.183494    -0.387499
C     -0.923848     1.398264     0.022492
H     -1.298065     2.119551     0.504259
H     -0.107092     1.675270    -0.501847
6
Family_2 [H]C([H])=C([H])[H] | RMSD: 0.4023 | 2964.00 to state    1 from traj    1 on state    2
C     -1.609150     0.174488    -0.106714
H     -1.576246     0.317570     1.068979
H     -2.660726     0.003395     0.043990
C     -0.926077     1.394089    -0.009924
H     -1.650543     2.237817     0.495860
H      0.364759     1.505374    -0.222291
6
Family_2 [H]C([H])=C([H])[H] | RMSD: 0.6611 | 856.00 to state    1 from traj    1 on state    2
C     -1.589041     0.070516    -0.068235
H     -1.517182    -0.235500     0.952356
H     -2.116596     1.035492    -0.329750
C     -1.006347     1.454937     0.050319
H     -1.276336     2.469183     0.085038
H      0.104212     1.308848    -0.497447
6
Family_2 [H]C([H])=C([H])[H] | RMSD: 0.6712 | 2348.00 to state    1 from traj    1 on state    2
C     -1.574922     0.092441    -0.064633
H     -1.323907    -0.308239     1.155456
H     -2.528032     1.193163    -0.454126
C     -0.965705     1.411567     0.033173
H     -1.443529     2.308073     0.255876
H     -0.162954     1.640546    -0.585625
6
Family_2 [H]C([H])=C([H])[H] | RMSD: 0.2804 | 584.00 to state    1 from traj    1 on state    2
C     -1.737042    -0.078570    -0.112801
H     -1.472618     0.058089     1.064265
H     -2.656165     0.296895     0.176618
C     -0.809606     1.619818    -0.056746
H     -1.568078     2.154333     0.532965
H      0.310185     1.880480     0.243145
6
Family_2 [H]C([H])=C([H])[H] | RMSD: 0.3402 | 820.00 to state    1 from traj    1 on state    2
C     -1.718733    -0.117663    -0.073773
H     -1.459044     0.170373     0.877441
H     -2.708663     0.547824    -0.193312
C     -0.835442     1.607367    -0.062669
H     -1.204147     2.221906     0.875582
H      0.074865     2.063897     0.062804
6
Family_2 [H]C([H])=C([H])[H] | RMSD: 0.5093 | 2680.00 to state    1 from traj    1 on state    2
C     -1.646598    -0.011298    -0.068765
H     -1.466378     0.586536     0.873576
H     -2.572450     0.479552    -0.487060
C     -0.936927     1.500038    -0.000366
H     -0.877405     2.130343     0.799509
H     -0.031037     1.819045    -0.365571
6
Family_2 [H]C([H])=C([H])[H] | RMSD: 0.5201 | 2840.00 to state    1 from traj    1 on state    2
C     -1.610474     0.059638    -0.044336
H     -1.506414     0.660902     0.776249
H     -2.696811     0.268333    -0.538927
C     -0.971883     1.474280    -0.032169
H     -1.071852     2.095207     0.971679
H      0.313905     1.452705    -0.300683
6
Family_2 [H]C([H])=C([H])[H] | RMSD: 0.7052 | 592.00 to state    1 from traj    1 on state    2
C     -1.559673     0.156536    -0.002863
H     -1.755124    -0.571389     0.905489
H     -2.178425     0.900635    -0.593795
C     -0.999852     1.399838    -0.023368
H     -1.322379     2.353850     0.596121
H      0.022698     1.526466    -0.598525
6
Family_2 [H]C([H])=C([H])[H] | RMSD: 0.6503 | 1036.00 to state    1 from traj    1 on state    2
C     -1.618554     0.084750    -0.126951
H     -1.679012    -0.485128     0.943230
H     -2.053346     0.780653     0.696368
C     -0.938599     1.485632    -0.057592
H     -1.567874     2.422736    -0.005516
H      0.038737     1.324390     0.561597
6
Family_2 [H]C([H])=C([H])[H] | RMSD: 0.3246 | 1124.00 to state    1 from traj    1 on state    2
C     -1.622081     0.159939    -0.130730
H     -1.491847     0.351387     1.174404
H     -2.668578    -0.003403     0.254345
C     -0.907888     1.406857    -0.041310
H     -1.583680     2.178764     0.513068
H      0.158686     1.558634     0.104872
6
Family_2 [H]C([H])=C([H])[H] | RMSD: 0.4642 | 1528.00 to state    1 from traj    1 on state    2
C     -1.594088     0.152099    -0.076568
H     -1.285229     0.455275     1.264610
H     -2.605279     0.308438    -0.513034
C     -0.975136     1.395701    -0.023574
H     -1.276359     2.134628     0.781724
H      0.049200     1.413401    -0.343322
6
Family_2 [H]C([H])=C([H])[H] | RMSD: 0.7679 | 1564.00 to state    1 from traj    1 on state    2
C     -1.535108     0.118982     0.005718
H     -1.907648    -0.210417     0.807302
H     -2.426595     0.058003    -0.663440
C     -1.066851     1.561815    -0.034516
H     -0.328271     2.350910     0.497182
H     -0.065087     0.528497    -0.301183
6
Family_2 [H]C([H])=C([H])[H] | RMSD: 0.5818 | 5132.00 to state    1 from traj    1 on state    2
C     -1.527657     0.190167    -0.096701
H     -1.641518     0.177934     1.022744
H     -2.710134     0.503303    -0.240978
C     -0.994351     1.319970     0.080403
H     -1.154957     2.476530     0.229249
H     -0.173673     1.602748    -0.820102
6
Family_2 [H]C([H])=C([H])[H] | RMSD: 0.6252 | 2016.00 to state    1 from traj    1 on state    2
C     -1.585417     0.140443    -0.098522
H     -1.506750     0.207581     1.171760
H     -2.360928     0.780190    -0.208798
C     -0.928217     1.356331     0.038548
H     -1.639254     2.249473     0.488406
H     -0.273125     1.682501    -0.740018
6
Family_2 [H]C([H])=C([H])[H] | RMSD: 0.7031 | 3216.00 to state    1 from traj    1 on state    2
C     -1.573524     0.109646    -0.079017
H     -1.612037    -0.110956     1.021546
H     -2.375232     1.063324    -0.179653
C     -0.929439     1.394819     0.048296
H     -1.548958     2.134431     0.267815
H     -0.370988     1.741304    -0.746932
6
Family_2 [H]C([H])=C([H])[H] | RMSD: 0.7142 | 5984.00 to state    1 from traj    1 on state    2
C     -1.734080     0.173762    -0.043961
H     -0.870044     0.224189     0.989774
H     -1.748179    -0.404015    -0.823674
C     -0.970731     1.429302     0.000822
H     -1.130765     2.502016     0.379150
H      0.246934     1.331047    -0.034502
6
Family_2 [H]C([H])=C([H])[H] | RMSD: 0.2482 | 2412.00 to state    1 from traj    1 on state    2
C     -1.690748    -0.037810    -0.109960
H     -1.519463     0.290485     1.202315
H     -2.725088     0.005957    -0.147921
C     -0.871072     1.590837    -0.019796
H     -1.117088     2.433306     0.616815
H      0.155749     1.519715    -0.128352
6
Family_2 [H]C([H])=C([H])[H] | RMSD: 0.2515 | 2464.00 to state    1 from traj    1 on state    2
C     -1.696578    -0.032956    -0.119278
H     -1.530902     0.281803     1.123176
H     -2.757397    -0.090884    -0.019527
C     -0.853888     1.587862    -0.005103
H     -1.173389     2.503242     0.492171
H      0.120508     1.532908    -0.117020
6
Family_2 [H]C([H])=C([H])[H] | RMSD: 0.5750 | 6068.00 to state    1 from traj    1 on state    2
C     -1.667343     0.195876    -0.115487
H     -1.425682     0.416239     1.073347
H     -2.344320    -0.723262    -0.161914
C     -0.958698     1.410587     0.040062
H     -0.943199     2.424540     0.116613
H      0.272551     1.495219    -0.132586
6
Family_2 [H]C([H])=C([H])[H] | RMSD: 0.5561 | 1980.00 to state    1 from traj    1 on state    2
C     -1.551874     0.116332    -0.079372
H     -2.158395    -0.140645     1.180602
H     -2.591716     0.626786    -0.013600
C     -0.947283     1.408627    -0.054055
H     -1.175394     2.161189     0.862466
H     -0.027061     1.936580    -0.442874
6
Family_2 [H]C([H])=C([H])[H] | RMSD: 0.5373 | 2820.00 to state    1 from traj    1 on state    2
C     -1.616240     0.210977    -0.078051
H     -1.231678     0.426984     1.124420
H     -2.443705    -0.250249    -0.581681
C     -1.004042     1.369083     0.029294
H     -0.876141     2.326986     0.369018
H      0.042251     1.423622    -0.334056
6
Family_2 [H]C([H])=C([H])[H] | RMSD: 0.4439 | 3720.00 to state    1 from traj    1 on state    2
C     -1.592371     0.154719    -0.105367
H     -1.594382     0.276539     1.162476
H     -2.627998     0.424381    -0.044338
C     -0.926020     1.367591    -0.004402
H     -1.466834     2.031913     0.559766
H     -0.034162     1.882635    -0.373208
6
Family_2 [H]C([H])=C([H])[H] | RMSD: 0.5556 | 5020.00 to state    1 from traj    1 on state    2
C     -1.567748     0.160025    -0.096461
H     -1.525096     0.445775     1.233029
H     -2.687733    -0.152942    -0.235418
C     -0.970982     1.467019     0.004697
H     -1.083998     2.347906     0.475099
H     -0.184202     0.726759    -0.382556
6
Family_2 [H]C([H])=C([H])[H] | RMSD: 0.5223 | 1148.00 to state    1 from traj    1 on state    2
C     -1.611233     0.033958    -0.090860
H     -1.587430    -0.440436     0.972361
H     -2.185473     0.871197     0.308753
C     -0.954314     1.531781    -0.093520
H     -1.186309     2.433272     0.361270
H     -0.202271     1.233957     0.551351
6
Family_2 [H]C([H])=C([H])[H] | RMSD: 0.7145 | 1768.00 to state    1 from traj    1 on state    2
C     -1.544040     0.207673     0.020866
H     -1.536981    -0.470145     0.940655
H     -2.307739     0.192356    -0.824873
C     -1.058806     1.474681    -0.049966
H     -0.666103     2.272421     0.450676
H     -0.206216     0.713803    -0.222993
6
Family_2 [H]C([H])=C([H])[H] | RMSD: 0.7469 | 984.00 to state    1 from traj    1 on state    2
C     -1.553155     0.086140    -0.038472
H     -2.264573    -0.248419     0.809077
H     -2.596954     0.786354    -0.145720
C     -0.905406     1.425403    -0.023209
H     -1.213791     2.136345     0.859720
H     -0.360969     2.069488    -0.791386
6
Family_2 [H]C([H])=C([H])[H] | RMSD: 0.2504 | 1040.00 to state    1 from traj    1 on state    2
C     -1.669653     0.021160    -0.125464
H     -1.517713     0.304968     1.027764
H     -2.802668     0.058419     0.169725
C     -0.864881     1.522555    -0.011514
H     -1.431169     2.367682     0.441863
H      0.220535     1.629342    -0.010442
6
Family_2 [H]C([H])=C([H])[H] | RMSD: 0.5459 | 1796.00 to state    1 from traj    1 on state    2
C     -1.518086     0.204270    -0.066419
H     -1.742239    -0.037345     1.178518
H     -2.613704     0.664248    -0.328337
C     -1.001394     1.334630    -0.002425
H     -1.350138     2.261693     0.619788
H     -0.004313     1.529187    -0.652928
6
Family_2 [H]C([H])=C([H])[H] | RMSD: 0.5880 | 2256.00 to state    1 from traj    1 on state    2
C     -1.570568     0.057203    -0.063204
H     -1.982242    -0.229938     1.197797
H     -2.513725     0.976303    -0.174731
C     -0.949391     1.466799    -0.057277
H     -1.331220     2.048041     0.825346
H      0.122495     1.800899    -0.416079
6
Family_2 [H]C([H])=C([H])[H] | RMSD: 0.6618 | 2384.00 to state    1 from traj    1 on state    2
C     -1.578034     0.072829    -0.046951
H     -2.037321    -0.224163     0.956342
H     -2.546588     0.870031    -0.272619
C     -0.931595     1.422722    -0.024472
H     -1.378617     2.223999     0.842423
H      0.134745     2.064458    -0.678384
6
Family_2 [H]C([H])=C([H])[H] | RMSD: 0.5623 | 3064.00 to state    1 from traj    1 on state    2
C     -1.589848     0.044423    -0.108130
H     -1.863870     0.070414     1.314328
H     -2.667587     0.484196    -0.198984
C     -0.925075     1.488381     0.050108
H     -1.235553     2.450198     0.422935
H      0.002300     1.485617    -0.850188
6
Family_2 [H]C([H])=C([H])[H] | RMSD: 0.4177 | 2000.00 to state    1 from traj    1 on state    2
C     -1.595781     0.074458    -0.098702
H     -1.690111     0.222703     1.112360
H     -2.809662     0.416205    -0.160779
C     -0.928577     1.445939     0.018238
H     -1.244619     2.264527     0.521809
H      0.092116     1.734834    -0.517884
6
Family_2 [H]C([H])=C([H])[H] | RMSD: 0.5525 | 2896.00 to state    1 from traj    1 on state    2
C     -1.587312     0.071047    -0.086918
H     -2.172423    -0.063150     0.968905
H     -2.910343     0.248793     0.094596
C     -0.873831     1.477076     0.002096
H     -1.258556     2.210960     0.571568
H     -0.064202     1.911287    -0.627640
6
Family_2 [H]C([H])=C([H])[H] | RMSD: 0.4964 | 3604.00 to state    1 from traj    1 on state    2
C     -1.550139     0.163943    -0.066795
H     -1.613988     0.157568     0.997015
H     -2.571887     0.720693    -0.230802
C     -0.965862     1.354029    -0.021544
H     -1.465040     2.166927     0.737100
H     -0.100941     1.621968    -0.453973
6
Family_2 [H]C([H])=C([H])[H] | RMSD: 0.6562 | 5704.00 to state    1 from traj    1 on state    2
C     -1.617220     0.187092    -0.011343
H     -1.491679     0.188768     1.148317
H     -2.308607    -0.414003    -0.673094
C     -1.000092     1.503416    -0.129966
H     -0.616560     1.833624     0.990645
H     -0.127818     1.002882     0.214642
6
Family_2 [H]C([H])=C([H])[H] | RMSD: 0.6282 | 10440.00 to state    1 from traj    1 on state    2
C     -1.625607    -0.026002    -0.057473
H     -1.857786    -0.482298     0.919455
H     -2.236506     1.002217    -0.252069
C     -0.955051     1.541819     0.011058
H     -1.077761     2.437990     0.299121
H      0.190624     1.734922    -0.416724
6
Family_2 [H]C([H])=C([H])[H] | RMSD: 0.5378 | 14480.00 to state    1 from traj    1 on state    2
C     -1.588617     0.215825    -0.117748
H     -1.554395     0.362624     1.081124
H     -2.691328    -0.070706     0.062016
C     -0.929102     1.377851     0.053097
H     -1.675571     2.131591     0.120158
H      0.189914     1.341588    -0.496225
6
Family_2 [H]C([H])=C([H])[H] | RMSD: 0.5009 | 5512.00 to state    1 from traj    1 on state    2
C     -1.574800     0.039395    -0.064048
H     -1.609622     0.323486     0.903261
H     -2.734783     0.698531    -0.295388
C     -0.946676     1.496128    -0.003877
H     -1.375174     2.239229     0.704368
H      0.032964     1.196776    -0.506154
6
Family_2 [H]C([H])=C([H])[H] | RMSD: 0.5651 | 2672.00 to state    1 from traj    1 on state    2
C     -1.666587     0.195044    -0.064704
H     -0.973001     0.437048     1.053421
H     -2.243216    -0.092368    -0.672510
C     -0.960049     1.365798     0.018366
H     -1.281353     2.238585     0.459242
H      0.064017     1.573067    -0.291280
6
Family_2 [H]C([H])=C([H])[H] | RMSD: 0.3852 | 2860.00 to state    1 from traj    1 on state    2
C     -1.536722     0.169715    -0.086996
H     -1.873218     0.061641     1.020459
H     -2.887487     0.320895     0.072268
C     -0.942750     1.376914    -0.043072
H     -1.298553     2.345072     0.743783
H     -0.127863     1.598073    -0.289944
6
Family_2 [H]C([H])=C([H])[H] | RMSD: 0.3338 | 7160.00 to state    1 from traj    1 on state    2
C     -1.609216     0.188156    -0.107963
H     -1.225730     0.456630     1.307850
H     -2.671513     0.057886    -0.181598
C     -0.958972     1.350638    -0.067546
H     -1.162180     2.179252     0.806879
H     -0.070588     1.725279     0.154894
6
Family_2 [H]C([H])=C([H])[H] | RMSD: 0.7028 | 8316.00 to state    1 from traj    1 on state    2
C     -1.530024     0.250033     0.012735
H     -1.601959    -0.414983     0.887099
H     -2.471860    -0.074154    -0.703003
C     -1.031124     1.424660    -0.056686
H     -0.940456     2.696201     0.659497
H     -0.199619     0.592646    -0.323176
6
Family_2 [H]C([H])=C([H])[H] | RMSD: 0.4278 | 1704.00 to state    1 from traj    1 on state    2
C     -1.595295     0.206036    -0.106635
H     -1.527847     0.293671     1.113265
H     -2.698532     0.127911     0.015913
C     -0.918961     1.347674    -0.000747
H     -1.643021     2.080747     0.464958
H      0.096746     1.738993    -0.317878
6
Family_2 [H]C([H])=C([H])[H] | RMSD: 0.6649 | 1440.00 to state    1 from traj    1 on state    2
C     -1.610360     0.161683    -0.017979
H     -1.608392    -0.018096     0.991754
H     -2.371379    -0.534036    -0.473424
C     -0.973592     1.550692    -0.100957
H     -0.684203     2.301373     0.768343
H     -0.278195     0.601468     0.127244
6
Family_2 [H]C([H])=C([H])[H] | RMSD: 0.7563 | 2184.00 to state    1 from traj    1 on state    2
C     -1.762853     0.219119    -0.052130
H     -1.059704     0.072177     0.978392
H     -1.447611    -0.676019    -0.522695
C     -0.935049     1.388399    -0.060936
H     -1.277630     2.640583     0.620068
H      0.200563     1.563409     0.268211
6
Family_2 [H]C([H])=C([H])[H] | RMSD: 0.4382 | 1376.00 to state    1 from traj    1 on state    2
C     -1.655830     0.142980    -0.096237
H     -1.270987     0.501876     1.057204
H     -2.749451    -0.153752    -0.138406
C     -0.884968     1.443517    -0.009542
H     -1.603840     1.956120     0.481704
H      0.167895     1.546382    -0.143349
6
Family_2 [H]C([H])=C([H])[H] | RMSD: 0.3397 | 3716.00 to state    1 from traj    1 on state    2
C     -1.635128     0.103122    -0.087636
H     -1.423221     0.408409     0.993460
H     -2.663694     0.031878    -0.241924
C     -0.931797     1.444662    -0.011517
H     -1.313156     2.362824     0.631742
H      0.255013     1.508818    -0.205081
6
Family_2 [H]C([H])=C([H])[H] | RMSD: 0.6738 | 4992.00 to state    1 from traj    1 on state    2
C     -1.619857     0.189887     0.018973
H     -1.493444    -0.284629     0.984069
H     -1.990384    -0.185494    -0.747786
C     -1.014488     1.494079    -0.139652
H     -0.814322     2.342339     0.982113
H     -0.043552     0.817007     0.216295
6
Family_2 [H]C([H])=C([H])[H] | RMSD: 0.6868 | 904.00 to state    1 from traj    1 on state    2
C     -1.555151     0.133433    -0.065732
H     -1.637377    -0.157126     0.888649
H     -2.203372     0.944931    -0.292034
C     -1.000389     1.391986     0.066108
H     -1.281537     2.376914     0.108555
H     -0.158432     1.413709    -0.712927
6
Family_2 [H]C([H])=C([H])[H] | RMSD: 0.4845 | 1836.00 to state    1 from traj    1 on state    2
C     -1.539751     0.183815    -0.079970
H     -1.944582     0.046474     0.951027
H     -2.876624     0.280326    -0.009980
C     -0.944284     1.368129     0.001646
H     -1.354955     2.217077     0.541518
H      0.043406     1.718480    -0.552560
6
Family_2 [H]C([H])=C([H])[H] | RMSD: 0.5545 | 2552.00 to state    1 from traj    1 on state    2
C     -1.547194     0.157304    -0.078808
H     -1.474340     0.216247     1.246356
H     -2.468831     0.689432    -0.404510
C     -0.995846     1.384193     0.009330
H     -1.310758     2.240535     0.569738
H     -0.175731     1.240617    -0.586988
6
Family_2 [H]C([H])=C([H])[H] | RMSD: 0.5013 | 3820.00 to state    1 from traj    1 on state    2
C     -1.568623     0.142160    -0.060060
H     -1.585784     0.124290     0.916314
H     -2.418106     0.842938    -0.257815
C     -0.977740     1.344063    -0.044536
H     -1.402894     2.254166     0.868385
H      0.016711     1.824070    -0.283835
6
Family_2 [H]C([H])=C([H])[H] | RMSD: 0.3844 | 3984.00 to state    1 from traj    1 on state    2
C     -1.594456     0.056649    -0.098838
H     -1.750872     0.158552     1.130707
H     -2.811585     0.551754     0.019919
C     -0.915963     1.483189    -0.024676
H     -1.351245     2.010500     0.583176
H      0.095341     1.685803    -0.265330
6
Family_2 [H]C([H])=C([H])[H] | RMSD: 0.3530 | 608.00 to state    1 from traj    1 on state    2
C     -1.679462     0.081148    -0.108622
H     -1.234807     0.462167     0.956428
H     -2.858366    -0.059767     0.147628
C     -0.848198     1.484095    -0.062813
H     -1.577560     1.992057     0.609856
H      0.057805     1.709433     0.325570
6
Family_2 [H]C([H])=C([H])[H] | RMSD: 0.4429 | 2644.00 to state    1 from traj    1 on state    2
C     -1.575497     0.144764    -0.089455
H     -1.749626     0.122590     0.946692
H     -2.685638     0.360299    -0.110441
C     -0.948194     1.359311     0.012758
H     -1.339166     2.549103     0.591833
H      0.114213     1.800758    -0.517471
6
Family_2 [H]C([H])=C([H])[H] | RMSD: 0.6804 | 1160.00 to state    1 from traj    1 on state    2
C     -1.608220     0.059952    -0.120823
H     -1.352900    -0.401736     0.888125
H     -2.201393     0.799898     0.590848
C     -0.939095     1.513623    -0.069157
H     -1.240508     2.607486     0.021745
H     -0.583937     0.998960     0.759743
6
Family_2 [H]C([H])=C([H])[H] | RMSD: 0.3881 | 2552.00 to state    1 from traj    1 on state    2
C     -1.656350     0.122549    -0.080028
H     -1.282708     0.433177     0.872651
H     -2.694709     0.053793    -0.215072
C     -0.888593     1.409267    -0.019291
H     -1.461521     2.149883     0.659656
H      0.031945     1.865343    -0.137067
6
Family_2 [H]C([H])=C([H])[H] | RMSD: 0.4973 | 6032.00 to state    1 from traj    1 on state    2
C     -1.593830     0.053160    -0.089799
H     -1.562353     0.002204     1.287434
H     -2.310576     0.884084    -0.333570
C     -0.999860     1.458023    -0.005245
H     -1.153579     2.382377     0.524622
H      0.200362     1.479389    -0.349258
6
Family_2 [H]C([H])=C([H])[H] | RMSD: 0.4782 | 980.00 to state    1 from traj    1 on state    2
C     -1.544690     0.148649    -0.053888
H     -1.589677     0.203858     0.974128
H     -2.525653     0.657082    -0.442984
C     -1.028875     1.366619    -0.030370
H     -1.202625     2.420552     0.842823
H      0.252013     1.417887    -0.373255
6
Family_2 [H]C([H])=C([H])[H] | RMSD: 0.7090 | 2624.00 to state    1 from traj    1 on state    2
C     -1.557828     0.121267    -0.064389
H     -2.337623    -0.231656     0.962475
H     -2.690626     0.417847    -0.068055
C     -0.901367     1.393293    -0.007503
H     -1.383399     2.518381     0.862258
H     -0.017084     2.003241    -0.903323
6
Family_2 [H]C([H])=C([H])[H] | RMSD: 0.4123 | 1196.00 to state    1 from traj    1 on state    2
C     -1.673172     0.128917    -0.144640
H     -1.301222     0.390149     1.199557
H     -2.566014     0.000205     0.373652
C     -0.870936     1.438992    -0.054232
H     -1.652897     1.927505     0.399123
H      0.103193     1.754265     0.394083
6
Family_2 [H]C([H])=C([H])[H] | RMSD: 0.4383 | 1536.00 to state    1 from traj    1 on state    2
C     -1.600633     0.185537    -0.073739
H     -1.379680     0.370050     0.979984
H     -2.570259    -0.025534    -0.365416
C     -0.964750     1.385992     0.009019
H     -1.306161     2.367981     0.523906
H      0.092668     1.316494    -0.370571
6
Family_2 [H]C([H])=C([H])[H] | RMSD: 0.6543 | 5804.00 to state    1 from traj    1 on state    2
C     -1.672217     0.188212    -0.033542
H     -0.831033     0.244235     0.970063
H     -2.272635    -0.022605    -1.006596
C     -0.984618     1.351811     0.024605
H     -1.174687     2.532448     0.511902
H      0.204634     1.650322    -0.372155
6
Family_2 [H]C([H])=C([H])[H] | RMSD: 0.3935 | 6688.00 to state    1 from traj    1 on state    2
C     -1.605756     0.125147    -0.084324
H     -1.359246     0.299661     1.172835
H     -2.740571     0.385084    -0.399162
C     -0.956571     1.384591    -0.014107
H     -1.242498     2.252288     0.705359
H      0.142471     1.828247    -0.309434
6
Family_2 [H]C([H])=C([H])[H] | RMSD: 0.5211 | 1556.00 to state    1 from traj    1 on state    2
C     -1.544548     0.139378    -0.086765
H     -2.059406    -0.127282     1.120050
H     -2.695466     0.358518    -0.015632
C     -0.944087     1.422486     0.003205
H     -1.263027     2.429905     0.527710
H     -0.060037     1.483024    -0.639741
6
Family_2 [H]C([H])=C([H])[H] | RMSD: 0.7663 | 1148.00 to state    1 from traj    1 on state    2
C     -1.531507     0.110753    -0.136117
H     -1.649670    -0.067271     1.025661
H     -2.517098     0.924262     0.237740
C     -0.994004     1.446138     0.128340
H     -1.298631     2.247278    -0.577230
H     -0.173139     1.099136    -0.596783
6
Family_2 [H]C([H])=C([H])[H] | RMSD: 0.7625 | 1340.00 to state    2 from traj    2 on state    1
C     -1.571630     0.061797    -0.119136
H     -1.524693    -0.151354     0.971656
H     -2.490567     1.178751     0.054266
C     -0.959206     1.442953     0.124472
H     -1.465757     2.263609    -0.414988
H     -0.094068     1.533699    -0.677806
6
Family_2 [H]C([H])=C([H])[H] | RMSD: 0.6897 | 2444.00 to state    1 from traj    1 on state    2
C     -1.551076     0.053662    -0.063768
H     -1.879868    -0.269174     0.914204
H     -2.526185     0.852808    -0.251564
C     -0.957463     1.483301     0.058694
H     -1.144102     2.577656     0.246042
H     -0.290608     1.279568    -0.851506
6
Family_2 [H]C([H])=C([H])[H] | RMSD: 0.5146 | 2684.00 to state    1 from traj    3 on state    2
C     -1.692732     0.072428    -0.090961
H     -1.221062     0.572861     1.081271
H     -2.705552    -0.091344    -0.495062
C     -0.875949     1.433955     0.021227
H     -1.265083     2.300641     0.693659
H      0.067563     2.023100    -0.452228
6
Family_2 [H]C([H])=C([H])[H] | RMSD: 0.6261 | 1084.00 to state    1 from traj    1 on state    2
C     -1.671197     0.147633    -0.150882
H     -1.016554     0.172793     0.963896
H     -2.526550     0.362779     0.667031
C     -0.844748     1.403448    -0.051925
H     -1.877342     1.893254     0.061852
H     -0.332068     1.843821     0.720514
6
Family_2 [H]C([H])=C([H])[H] | RMSD: 0.3847 | 5244.00 to state    1 from traj    1 on state    2
C     -1.572748     0.245700    -0.100806
H     -1.560238     0.183237     1.045114
H     -2.854209    -0.155911     0.038430
C     -0.925885     1.326538    -0.010909
H     -1.479233     2.422059     0.501090
H     -0.065125     1.571159    -0.256749
6
Family_2 [H]C([H])=C([H])[H] | RMSD: 0.6814 | 1928.00 to state    1 from traj    1 on state    2
C     -1.731898     0.079560    -0.122509
H     -0.896113     0.005588     0.641725
H     -2.590658     0.209220     0.596322
C     -0.796357     1.487921    -0.046001
H     -1.824384     1.909980    -0.103136
H     -0.294694     1.952438     0.869726
6
Family_2 [H]C([H])=C([H])[H] | RMSD: 0.6901 | 2072.00 to state    1 from traj    1 on state    2
C     -1.733743     0.090404    -0.121924
H     -0.926170     0.094268     0.585847
H     -2.523248     0.117501     0.527589
C     -0.809008     1.485237    -0.005169
H     -1.776375     1.838575    -0.283829
H     -0.207310     1.929651     0.681503
6
Family_2 [H]C([H])=C([H])[H] | RMSD: 0.7731 | 4300.00 to state    1 from traj    1 on state    2
C     -1.534021     0.164586    -0.036415
H     -1.970357    -0.372265     0.830644
H     -2.303586     0.910408    -0.215227
C     -0.946271     1.379290     0.016167
H     -1.306588     2.117827     0.429466
H     -0.596822     1.702513    -0.806904
6
Family_2 [H]C([H])=C([H])[H] | RMSD: 0.6116 | 4712.00 to state    1 from traj    1 on state    2
C     -1.562044     0.056674    -0.054502
H     -2.074643    -0.116127     0.793876
H     -2.704554     0.632810    -0.119057
C     -0.903494     1.469166    -0.000217
H     -1.224165     2.419031     0.709870
H     -0.349792     1.637692    -0.735953
6
Family_2 [H]C([H])=C([H])[H] | RMSD: 0.5373 | 5016.00 to state    1 from traj    1 on state    2
C     -1.546401     0.118077    -0.053483
H     -1.873084    -0.236352     1.089854
H     -2.562718     0.811702    -0.347881
C     -1.005006     1.384131    -0.045698
H     -1.122955     2.480329     0.852485
H      0.228786     1.799321    -0.415935
6
Family_2 [H]C([H])=C([H])[H] | RMSD: 0.6391 | 528.00 to state    1 from traj    1 on state    2
C     -1.595161     0.038658    -0.101615
H     -1.592024    -0.497640     0.736233
H     -2.251076     0.905791     0.559489
C     -0.957783     1.526634    -0.069466
H     -1.194655     2.570158     0.071130
H     -0.273896     1.125006     0.668419
6
Family_2 [H]C([H])=C([H])[H] | RMSD: 0.4240 | 1456.00 to state    1 from traj    1 on state    2
C     -1.641857     0.201987    -0.064400
H     -1.134377     0.331791     0.941901
H     -2.586600    -0.057890    -0.449624
C     -0.939309     1.329127    -0.031483
H     -1.283185     2.314734     0.724391
H      0.028796     1.921923    -0.077430
6
Family_2 [H]C([H])=C([H])[H] | RMSD: 0.7243 | 1180.00 to state    1 from traj    1 on state    2
C     -1.739696     0.195252    -0.075659
H     -1.219110     0.484354     0.889265
H     -1.769859    -0.949706    -0.244765
C     -0.908495     1.453243    -0.043934
H     -1.232378     2.396827     0.543920
H      0.044631     1.180416     0.233332
6
Family_2 [H]C([H])=C([H])[H] | RMSD: 0.6006 | 1444.00 to state    1 from traj    1 on state    2
C     -1.678060     0.237295    -0.042268
H     -0.940564     0.315839     1.023411
H     -2.230996    -0.294476    -0.720946
C     -0.948789     1.365894    -0.012828
H     -1.464657     2.125230     0.524491
H      0.205186     1.505148    -0.173728
6
Family_2 [H]C([H])=C([H])[H] | RMSD: 0.6380 | 2080.00 to state    1 from traj    1 on state    2
C     -1.526582     0.098240    -0.045290
H     -2.338192    -0.367828     0.951011
H     -2.803307     0.428473    -0.104704
C     -0.936134     1.482959    -0.029428
H     -1.060359     2.404127     0.733628
H     -0.184934     1.449000    -0.692901
6
Family_2 [H]C([H])=C([H])[H] | RMSD: 0.4906 | 1584.00 to state    1 from traj    1 on state    2
C     -1.547755     0.089132    -0.073346
H     -2.029107    -0.015960     1.097637
H     -2.745703     0.672188    -0.058210
C     -0.947631     1.445037    -0.051582
H     -1.218319     2.125780     0.848944
H     -0.004365     1.692155    -0.403045
6
Family_2 [H]C([H])=C([H])[H] | RMSD: 0.5947 | 1764.00 to state    1 from traj    1 on state    2
C     -1.541479     0.070877    -0.063492
H     -1.749715     0.079446     1.036320
H     -2.818907     0.714666    -0.377484
C     -0.963393     1.469154     0.027598
H     -1.304484     2.423586     0.576984
H     -0.011353     1.186616    -0.811408
6
Family_2 [H]C([H])=C([H])[H] | RMSD: 0.7030 | 560.00 to state    1 from traj    1 on state    2
C     -1.701003    -0.066469    -0.116708
H     -1.316024    -0.704487     0.738059
H     -2.299342     0.717284     0.615904
C     -0.852974     1.622261    -0.057993
H     -1.230722     2.770668    -0.139939
H     -0.453259     1.433045     0.864371
6
Family_2 [H]C([H])=C([H])[H] | RMSD: 0.5395 | 6640.00 to state    1 from traj    1 on state    2
C     -1.583818     0.237862    -0.099026
H     -1.441535     0.354083     1.080461
H     -2.555637     0.130592    -0.073299
C     -0.933142     1.346111     0.033828
H     -1.683629     1.944581     0.250086
H     -0.059633     1.451456    -0.483656
6
Family_2 [H]C([H])=C([H])[H] | RMSD: 0.6878 | 6808.00 to state    1 from traj    1 on state    2
C     -1.595314     0.188487    -0.088377
H     -1.355682     0.517979     0.995944
H     -2.829622    -0.047985    -0.303764
C     -0.889181     1.389590     0.076016
H     -1.842032     2.329110     0.361755
H     -0.099934     1.151860    -0.909919
6
Family_2 [H]C([H])=C([H])[H] | RMSD: 0.4739 | 4692.00 to state    1 from traj    1 on state    2
C     -1.632738     0.034739    -0.084941
H     -1.442844     0.444722     1.131879
H     -2.631537     0.292481    -0.540742
C     -0.955513     1.475210     0.024258
H     -0.934037     2.401940     0.647477
H      0.117473     1.623617    -0.518821
6
Family_2 [H]C([H])=C([H])[H] | RMSD: 0.6765 | 7056.00 to state    1 from traj    1 on state    2
C     -1.591757     0.174419     0.015840
H     -1.582054    -0.313345     0.938693
H     -2.271102    -0.205103    -0.730189
C     -1.020104     1.532039    -0.091800
H     -0.753910     2.341078     0.698128
H     -0.002546     0.598591    -0.004801
6
Family_2 [H]C([H])=C([H])[H] | RMSD: 0.4975 | 2600.00 to state    1 from traj    1 on state    2
C     -1.591237     0.034303    -0.099603
H     -1.958945     0.060202     1.042927
H     -2.605635     0.326591    -0.109762
C     -0.955002     1.502644     0.039189
H     -0.981516     2.644102     0.391995
H      0.154554     1.410160    -0.608569
6
Family_2 [H]C([H])=C([H])[H] | RMSD: 0.4701 | 4232.00 to state    1 from traj    1 on state    2
C     -1.598956     0.233569    -0.095364
H     -1.385424     0.273808     1.028851
H     -2.700254    -0.169984    -0.216106
C     -0.932959     1.327019     0.039341
H     -1.403601     2.460158     0.336732
H     -0.072953     1.595377    -0.485211
6
Family_2 [H]C([H])=C([H])[H] | RMSD: 0.3332 | 4572.00 to state    1 from traj    1 on state    2
C     -1.629541     0.039845    -0.104233
H     -1.509709     0.352933     1.286255
H     -2.675682     0.235707    -0.181683
C     -0.920812     1.526654    -0.023587
H     -1.259443     2.227171     0.638255
H      0.102308     1.273108    -0.223055
6
Family_2 [H]C([H])=C([H])[H] | RMSD: 0.6811 | 2260.00 to state    1 from traj    1 on state    2
C     -1.623874     0.193646     0.004248
H     -1.208346    -0.195035     1.017351
H     -2.198805    -0.197651    -0.670566
C     -0.970282     1.523482    -0.100922
H     -1.163537     2.205107     0.663734
H     -0.249895     0.481654     0.138141
6
Family_2 [H]C([H])=C([H])[H] | RMSD: 0.4577 | 4880.00 to state    1 from traj    1 on state    2
C     -1.554780     0.211230    -0.092413
H     -1.539335     0.319188     1.140984
H     -2.654011    -0.037220    -0.223566
C     -0.994765     1.386475     0.015442
H     -1.089083     2.318888     0.376223
H     -0.069730     1.116230    -0.379763
6
Family_2 [H]C([H])=C([H])[H] | RMSD: 0.5224 | 3824.00 to state    1 from traj    1 on state    2
C     -1.560510     0.100304    -0.081736
H     -2.028454    -0.085267     1.121742
H     -2.604153     0.734189     0.046723
C     -0.941238     1.417607    -0.065709
H     -1.153765     2.024440     0.831326
H     -0.135308     1.994530    -0.246161
6
Family_2 [H]C([H])=C([H])[H] | RMSD: 0.6005 | 1488.00 to state    1 from traj    1 on state    2
C     -1.527732     0.194839    -0.026707
H     -1.737988     0.055877     1.099239
H     -2.649146    -0.085640    -0.374232
C     -1.022086     1.504323    -0.101325
H     -0.815201     1.985294     0.779907
H     -0.146571     0.552617     0.017387
6
Family_2 [H]C([H])=C([H])[H] | RMSD: 0.4794 | 4484.00 to state    1 from traj    1 on state    2
C     -1.615099     0.202922    -0.108430
H     -1.366856     0.331611     1.218760
H     -2.624357    -0.114417    -0.181167
C     -0.918533     1.371725     0.029805
H     -1.607751     2.368432     0.377311
H      0.057190     1.406216    -0.481326
6
Family_2 [H]C([H])=C([H])[H] | RMSD: 0.2302 | 1036.00 to state    1 from traj    1 on state    2
C     -1.647686     0.035203    -0.136102
H     -1.604719     0.120415     1.284284
H     -2.739650     0.307999     0.298436
C     -0.874364     1.496613    -0.069471
H     -1.427151     2.312209     0.662634
H      0.091745     1.761573     0.200905
6
Family_2 [H]C([H])=C([H])[H] | RMSD: 0.6483 | 2032.00 to state    1 from traj    1 on state    2
C     -1.568568     0.069347    -0.070463
H     -2.324302    -0.240861     0.929592
H     -2.625816     0.384478    -0.058499
C     -0.924880     1.473733     0.019993
H     -1.007649     2.436895     0.523673
H     -0.062826     1.787470    -0.796667
6
Family_2 [H]C([H])=C([H])[H] | RMSD: 0.7858 | 1616.00 to state    1 from traj    1 on state    2
C     -1.665543     0.269545     0.010789
H     -1.245012    -0.502789     0.533832
H     -2.640752    -0.245138    -0.527900
C     -0.833373     1.302995    -0.047195
H     -1.268814     2.199874     0.593877
H     -0.800853     2.564996    -0.169296
6
Family_2 [H]C([H])=C([H])[H] | RMSD: 0.5728 | 2804.00 to state    1 from traj    1 on state    2
C     -1.546776     0.089141    -0.068678
H     -1.692850     0.273341     0.862158
H     -2.881839     0.647398    -0.161731
C     -0.925827     1.463046     0.022368
H     -1.495814     2.123953     0.527180
H     -0.198472     1.214768    -0.679075
6
Family_2 [H]C([H])=C([H])[H] | RMSD: 0.7146 | 8700.00 to state    1 from traj    1 on state    2
C     -1.690739     0.277443    -0.145571
H     -1.423000     0.471371     1.262395
H     -1.608098    -0.753578     0.321243
C     -0.940172     1.341608    -0.072027
H     -1.265824     2.299023     0.487903
H     -0.085696     1.445914     0.518009
6
Family_2 [H]C([H])=C([H])[H] | RMSD: 0.4800 | 3664.00 to state    1 from traj    1 on state    2
C     -1.550739     0.187339    -0.110329
H     -1.782500     0.203071     1.361448
H     -2.476040     0.474319    -0.016468
C     -0.991658     1.371068    -0.017784
H     -1.469049     2.046140     0.550824
H      0.290261     1.461818    -0.372533
6
Family_2 [H]C([H])=C([H])[H] | RMSD: 0.4491 | 4644.00 to state    1 from traj    1 on state    2
C     -1.588423     0.155209    -0.076963
H     -1.515504     0.515716     0.869264
H     -2.625283     0.168111    -0.044473
C     -0.947415     1.433001    -0.042506
H     -1.595419     2.006053     0.685125
H      0.220722     1.140342    -0.089635
6
Family_2 [H]C([H])=C([H])[H] | RMSD: 0.3021 | 808.00 to state    1 from traj    1 on state    2
C     -1.688853     0.015714    -0.087044
H     -1.343900     0.420660     0.750398
H     -2.900808    -0.028368     0.033330
C     -0.856291     1.539869    -0.058098
H     -1.420645     2.156519     0.668023
H      0.260750     1.670192     0.274436
6
Family_2 [H]C([H])=C([H])[H] | RMSD: 0.6937 | 1312.00 to state    1 from traj    1 on state    2
C     -1.570254     0.179488    -0.042945
H     -1.670280     0.016357     1.109754
H     -2.342585    -0.374235    -0.468686
C     -1.026957     1.506825    -0.047620
H     -0.529893     2.485882     0.543969
H     -0.241421     0.533268    -0.109170
6
Family_2 [H]C([H])=C([H])[H] | RMSD: 0.5394 | 3372.00 to state    1 from traj    1 on state    2
C     -1.557180     0.121175    -0.092080
H     -1.866925     0.162331     0.975616
H     -2.749864     0.233184    -0.013242
C     -0.933607     1.450196     0.027890
H     -1.494684     2.563948     0.467849
H      0.059170     1.071416    -0.668632
6
Family_2 [H]C([H])=C([H])[H] | RMSD: 0.7096 | 804.00 to state    1 from traj    1 on state    2
C     -1.553633     0.137614    -0.047210
H     -1.678922    -0.510998     0.999367
H     -2.086158     1.003388    -0.347842
C     -1.014443     1.417433     0.022983
H     -1.229290     2.433036     0.172797
H     -0.136981     1.299951    -0.538925
6
Family_2 [H]C([H])=C([H])[H] | RMSD: 0.4000 | 4564.00 to state    1 from traj    1 on state    2
C     -1.606176     0.124545    -0.085770
H     -1.524035     0.423243     0.877238
H     -2.841274     0.078597    -0.105136
C     -0.920004     1.442055     0.006082
H     -1.446137     2.127006     0.482726
H      0.180876     1.458871    -0.308580
6
Family_2 [H]C([H])=C([H])[H] | RMSD: 0.5207 | 4872.00 to state    1 from traj    1 on state    2
C     -1.635113     0.162402    -0.073249
H     -1.255171     0.702678     1.170915
H     -2.466135    -0.143360    -0.478339
C     -0.960806     1.418124    -0.055624
H     -1.307957     2.070295     0.945903
H      0.229688     1.292175    -0.106147
6
Family_2 [H]C([H])=C([H])[H] | RMSD: 0.4695 | 5792.00 to state    1 from traj    1 on state    2
C     -1.592674     0.117534    -0.087683
H     -1.510489     0.359236     1.027131
H     -2.753279     0.024686    -0.330486
C     -0.953166     1.440485     0.033293
H     -1.162304     2.601475     0.493238
H      0.029764     1.204571    -0.545061
6
Family_2 [H]C([H])=C([H])[H] | RMSD: 0.3501 | 2124.00 to state    1 from traj    1 on state    2
C     -1.643471     0.069554    -0.098688
H     -1.525784     0.370023     1.011303
H     -2.829970     0.150322    -0.100043
C     -0.905117     1.455739    -0.019399
H     -1.451442     2.259417     0.667736
H      0.443635     1.800159    -0.175191
6
Family_2 [H]C([H])=C([H])[H] | RMSD: 0.7229 | 4120.00 to state    1 from traj    1 on state    2
C     -1.566406     0.033521    -0.051212
H     -2.409942    -0.277028     0.840308
H     -2.508179     0.561235    -0.104434
C     -0.914528     1.514581     0.009435
H     -0.993875     2.357009     0.625975
H     -0.257708     1.666927    -0.867332
6
Family_2 [H]C([H])=C([H])[H] | RMSD: 0.6321 | 1192.00 to state    1 from traj    1 on state    2
C     -1.616411     0.248381    -0.089371
H     -1.116415     0.401805     1.190524
H     -2.475109     0.270370    -0.416607
C     -0.922160     1.276713     0.037985
H     -1.786388     2.030176     0.451152
H     -0.105004     1.879943    -0.616044
6
Family_2 [H]C([H])=C([H])[H] | RMSD: 0.5222 | 1324.00 to state    1 from traj    1 on state    2
C     -1.599139     0.246248    -0.104615
H     -1.296100     0.354890     1.342871
H     -2.758285    -0.043937    -0.268677
C     -0.937272     1.334651     0.023570
H     -1.603947     1.969919     0.346386
H      0.149667     1.636463    -0.458164
6
Family_2 [H]C([H])=C([H])[H] | RMSD: 0.4572 | 1088.00 to state    1 from traj    1 on state    2
C     -1.665732     0.046028    -0.124840
H     -1.596408     0.137076     1.022763
H     -2.571917     0.519512     0.453465
C     -0.836122     1.470864    -0.072140
H     -1.788783     1.987218     0.625915
H      0.036693     2.036222     0.241724
6
Family_2 [H]C([H])=C([H])[H] | RMSD: 0.3633 | 4488.00 to state    1 from traj    1 on state    2
C     -1.605661     0.060189    -0.071368
H     -1.551986     0.479727     0.886517
H     -2.747930     0.350197    -0.204975
C     -0.971810     1.470937    -0.071459
H     -1.197284     2.195157     0.947181
H      0.477804     1.485332     0.069873
6
Family_2 [H]C([H])=C([H])[H] | RMSD: 0.5767 | 8444.00 to state    1 from traj    1 on state    2
C     -1.692524     0.256648    -0.047612
H     -1.031210     0.309069     0.871762
H     -2.207125    -0.562912    -0.522909
C     -0.935086     1.346473    -0.034727
H     -1.373558     2.223244     0.565320
H      0.189933     1.683148     0.063663
6
Family_2 [H]C([H])=C([H])[H] | RMSD: 0.5657 | 8460.00 to state    1 from traj    1 on state    2
C     -1.691632     0.253222    -0.054023
H     -1.059636     0.311217     0.892263
H     -2.195481    -0.527984    -0.481949
C     -0.930716     1.344771    -0.027037
H     -1.382688     2.210320     0.528599
H      0.153141     1.720103     0.023695
6
Family_2 [H]C([H])=C([H])[H] | RMSD: 0.4119 | 9112.00 to state    1 from traj    1 on state    2
C     -1.553168     0.097915    -0.075270
H     -1.733858     0.311084     0.965024
H     -2.625609     0.540606    -0.143020
C     -0.983078     1.447275    -0.035845
H     -1.183923     2.258081     0.769675
H      0.032769     1.233070    -0.270951
6
Family_2 [H]C([H])=C([H])[H] | RMSD: 0.5344 | 4492.00 to state    1 from traj    1 on state    2
C     -1.526572     0.156831    -0.057932
H     -1.792778    -0.267491     1.108278
H     -2.690170     0.764512    -0.323919
C     -0.992306     1.354005    -0.026788
H     -1.099833     2.482411     0.722351
H     -0.134791     1.772759    -0.500500
6
Family_2 [H]C([H])=C([H])[H] | RMSD: 0.6963 | 1232.00 to state    1 from traj    1 on state    2
C     -1.556304     0.116564    -0.027484
H     -1.929632    -0.465259     0.897439
H     -2.332515     0.847811    -0.494163
C     -1.003583     1.412193     0.016112
H     -1.123599     2.466781     0.474269
H      0.156817     1.689313    -0.745322
6
Family_2 [H]C([H])=C([H])[H] | RMSD: 0.3390 | 2848.00 to state    1 from traj    1 on state    2
C     -1.592659     0.128958    -0.107202
H     -1.574946     0.218455     1.274335
H     -2.603686     0.271878    -0.140390
C     -0.957081     1.419043    -0.008277
H     -1.192329     2.300836     0.530034
H      0.021132     1.518169    -0.291249
6
Family_2 [H]C([H])=C([H])[H] | RMSD: 0.7274 | 2876.00 to state    1 from traj    1 on state    2
C     -1.790489     0.110957     0.000402
H     -0.483581     0.222817     0.494786
H     -2.194874    -0.326665    -0.918588
C     -0.884581     1.465449    -0.029495
H     -1.310494     2.242400     0.483011
H      0.132511     1.832325     0.284179
6
Family_2 [H]C([H])=C([H])[H] | RMSD: 0.2800 | 3860.00 to state    1 from traj    1 on state    2
C     -1.637329     0.020804    -0.111554
H     -1.638994     0.270738     1.014842
H     -2.701190     0.274324     0.162363
C     -0.884052     1.538809    -0.024086
H     -1.399562     2.227507     0.504401
H      0.052001     1.398409    -0.068642
6
Family_2 [H]C([H])=C([H])[H] | RMSD: 0.4654 | 2940.00 to state    1 from traj    1 on state    2
C     -1.594327     0.218618    -0.143448
H     -1.530397     0.385466     1.179472
H     -2.456152     0.014702     0.486332
C     -0.930187     1.377142    -0.051252
H     -1.758974     2.113941     0.417563
H      0.095107     1.226159     0.233339
6
Family_2 [H]C([H])=C([H])[H] | RMSD: 0.7764 | 1116.00 to state    1 from traj    1 on state    2
C     -1.605065     0.006160    -0.065171
H     -1.860331    -0.219577     0.965065
H     -2.538092     0.995404    -0.237662
C     -0.852269     1.478951     0.040038
H     -1.427885     2.343394     0.556430
H     -0.624598     1.939499    -0.987640
6
Family_2 [H]C([H])=C([H])[H] | RMSD: 0.6402 | 3780.00 to state    1 from traj    1 on state    2
C     -1.499363     0.182113    -0.017918
H     -1.335462    -0.239431     1.010172
H     -2.513445     1.100490    -0.612972
C     -1.076152     1.385384    -0.044044
H     -1.292864     2.287594     0.576685
H      0.099067     0.928378    -0.238848
6
Family_2 [H]C([H])=C([H])[H] | RMSD: 0.4721 | 2016.00 to state    1 from traj    1 on state    2
C     -1.592381     0.124152    -0.101544
H     -1.531194     0.394634     1.035047
H     -2.695543     0.127907    -0.225970
C     -0.942262     1.416807     0.051740
H     -1.203826     2.484945     0.387653
H     -0.099160     1.385762    -0.606566
6
Family_2 [H]C([H])=C([H])[H] | RMSD: 0.7744 | 6964.00 to state    1 from traj    1 on state    2
C     -1.600815     0.286771    -0.071455
H     -1.541282    -0.049080     0.950189
H     -2.697387    -0.043811    -0.035828
C     -0.827206     1.328609     0.050871
H     -1.955162     1.751032     0.108140
H     -0.606371     1.848329    -0.780504
6
Family_2 [H]C([H])=C([H])[H] | RMSD: 0.4431 | 8668.00 to state    1 from traj    1 on state    2
C     -1.710811     0.128210    -0.108103
H     -1.139138     0.433625     1.157371
H     -2.721200    -0.530272    -0.215113
C     -0.854419     1.440273    -0.016020
H     -1.299353     2.287617     0.535559
H     -0.005572     1.874315    -0.002096
6
Family_2 [H]C([H])=C([H])[H] | RMSD: 0.3903 | 1436.00 to state    1 from traj    1 on state    2
C     -1.603701     0.146672    -0.091250
H     -1.476820     0.365337     0.863570
H     -2.760387     0.152528    -0.103799
C     -0.920037     1.386153     0.017440
H     -1.414980     2.307340     0.475544
H     -0.007476     1.664975    -0.359110
6
Family_2 [H]C([H])=C([H])[H] | RMSD: 0.6844 | 808.00 to state    1 from traj    1 on state    2
C     -1.574871     0.104508    -0.081934
H     -1.708023    -0.209206     1.093311
H     -2.258111     0.857367    -0.261182
C     -0.951691     1.404795     0.057203
H     -1.324911     2.573501     0.289713
H     -0.334963     1.548793    -0.830435
6
Family_2 [H]C([H])=C([H])[H] | RMSD: 0.4750 | 1900.00 to state    1 from traj    1 on state    2
C     -1.569773     0.138146    -0.085147
H     -1.675693     0.248404     1.040338
H     -2.572867     0.456828    -0.207020
C     -0.963512     1.401013     0.022186
H     -1.322767     2.208470     0.486462
H      0.025417     1.501000    -0.572849
6
Family_2 [H]C([H])=C([H])[H] | RMSD: 0.5635 | 4460.00 to state    1 from traj    1 on state    2
C     -1.732446     0.040231    -0.131365
H     -1.263285     0.572371     0.809106
H     -2.583064    -0.493063     0.086263
C     -0.846169     1.545711     0.073917
H     -1.526848     2.405984    -0.053496
H      0.367430     1.371958    -0.160623
6
Family_2 [H]C([H])=C([H])[H] | RMSD: 0.5553 | 10424.00 to state    2 from traj    6 on state    1
C     -1.713031     0.220910    -0.083951
H     -1.143424     0.353139     0.975481
H     -2.445339    -0.774241    -0.223613
C     -0.880328     1.394906    -0.022349
H     -1.449231     2.152195     0.411173
H      0.207915     1.770193     0.100313
6
Family_2 [H]C([H])=C([H])[H] | RMSD: 0.6310 | 860.00 to state    1 from traj    1 on state    2
C     -1.584408     0.057002    -0.088567
H     -1.577803     0.086321     0.969233
H     -2.388813     0.882703    -0.349685
C     -0.989005     1.431842     0.088362
H     -1.165479     2.502976     0.153414
H      0.064347     1.542235    -0.773801
6
Family_2 [H]C([H])=C([H])[H] | RMSD: 0.6388 | 7236.00 to state    1 from traj    1 on state    2
C     -1.540426     0.180447    -0.107784
H     -1.791012     0.305069     1.110067
H     -2.621317     0.240640    -0.003472
C     -0.951630     1.409509     0.063562
H     -1.584475     2.294378     0.234851
H     -0.040373     0.969335    -0.817786
6
Family_2 [H]C([H])=C([H])[H] | RMSD: 0.4355 | 1184.00 to state    1 from traj    1 on state    2
C     -1.681352     0.114669    -0.118432
H     -1.271708     0.367821     1.020204
H     -2.601157     0.154875     0.221471
C     -0.859462     1.425067    -0.054663
H     -1.709387     1.864934     0.517873
H      0.126056     2.020196     0.299712
6
Family_2 [H]C([H])=C([H])[H] | RMSD: 0.4527 | 1544.00 to state    1 from traj    1 on state    2
C     -1.600244     0.191355    -0.077626
H     -1.366072     0.346741     1.129136
H     -2.563454    -0.028805    -0.432862
C     -0.974406     1.375374    -0.000505
H     -1.341824     2.458602     0.622825
H      0.218338     1.309645    -0.391406
6
Family_2 [H]C([H])=C([H])[H] | RMSD: 0.5603 | 2244.00 to state    1 from traj    1 on state    2
C     -1.626754     0.184992    -0.080221
H     -1.273988     0.414813     0.987174
H     -2.705518    -0.219973    -0.515387
C     -0.939152     1.364286     0.061879
H     -1.334504     2.546868     0.396119
H      0.156803     1.552415    -0.652634
6
Family_2 [H]C([H])=C([H])[H] | RMSD: 0.4381 | 952.00 to state    1 from traj    1 on state    2
C     -1.673167     0.087597    -0.148881
H     -1.365238     0.224007     1.236192
H     -2.640245     0.258137     0.459586
C     -0.840315     1.467561    -0.047996
H     -1.828646     1.924759     0.350919
H      0.052260     1.817163     0.295938
6
Family_2 [H]C([H])=C([H])[H] | RMSD: 0.5159 | 1608.00 to state    1 from traj    1 on state    2
C     -1.706120     0.098024    -0.096426
H     -1.237391     0.548546     0.805200
H     -2.561096    -0.062202    -0.182101
C     -0.850517     1.403001     0.020932
H     -1.465561     2.156118     0.516837
H     -0.003594     2.226633    -0.243656
6
Family_2 [H]C([H])=C([H])[H] | RMSD: 0.7147 | 888.00 to state    1 from traj    1 on state    2
C     -1.658552    -0.055678    -0.062411
H     -1.864306    -0.298826     1.020767
H     -2.316368     0.869069    -0.273911
C     -0.834014     1.574117     0.033709
H     -1.467762     2.343694     0.492496
H     -0.382665     1.747646    -0.900623
6
Family_2 [H]C([H])=C([H])[H] | RMSD: 0.5164 | 1720.00 to state    1 from traj    1 on state    2
C     -1.649353    -0.019653    -0.112509
H     -1.781378     0.075258     1.267830
H     -2.663588     0.537907    -0.161848
C     -0.866760     1.498536     0.021940
H     -1.354835     2.541748     0.663447
H      0.049281     1.978019    -0.693527
6
Family_2 [H]C([H])=C([H])[H] | RMSD: 0.5189 | 1836.00 to state    1 from traj    1 on state    2
C     -1.681180    -0.086815    -0.090563
H     -1.695859     0.163595     1.118276
H     -2.563852     0.681697    -0.276440
C     -0.858040     1.580286     0.019056
H     -1.455113     2.288049     0.651134
H      0.239638     1.825761    -0.644190
6
Family_2 [H]C([H])=C([H])[H] | RMSD: 0.3940 | 1364.00 to state    1 from traj    1 on state    2
C     -1.649496     0.126161    -0.071524
H     -1.244230     0.513796     0.891849
H     -2.698163    -0.007888    -0.299885
C     -0.907741     1.428310    -0.031113
H     -1.399480     2.080830     0.713139
H      0.081379     1.645512    -0.085393
6
Family_2 [H]C([H])=C([H])[H] | RMSD: 0.5125 | 2128.00 to state    1 from traj    1 on state    2
C     -1.579560     0.039687    -0.085707
H     -2.135610    -0.145208     1.083736
H     -2.903088     0.365665    -0.016179
C     -0.898717     1.497633    -0.012387
H     -1.207974     2.535935     0.708748
H      0.045307     1.680214    -0.610727
6
Family_2 [H]C([H])=C([H])[H] | RMSD: 0.6411 | 1248.00 to state    1 from traj    1 on state    2
C     -1.725054     0.052921    -0.141104
H     -1.054187     0.084864     0.614005
H     -2.519746     0.215358     0.713811
C     -0.809032     1.497813    -0.022169
H     -1.713808     2.093148    -0.166454
H     -0.248615     1.883409     0.780859
6
Family_2 [H]C([H])=C([H])[H] | RMSD: 0.6231 | 1504.00 to state    1 from traj    1 on state    2
C     -1.722839     0.252833    -0.097721
H     -1.144385     0.290437     1.223506
H     -2.124937    -0.906315    -0.222263
C     -0.902350     1.384421    -0.036972
H     -1.430061     2.269955     0.423208
H      0.248583     1.591753     0.177231
6
Family_2 [H]C([H])=C([H])[H] | RMSD: 0.6928 | 1780.00 to state    1 from traj    1 on state    2
C     -1.764495     0.089703    -0.113475
H     -1.249073     0.538048     0.943983
H     -1.930745    -0.811315    -0.179978
C     -0.873131     1.526770     0.054942
H     -1.204733     2.515690     0.092780
H      0.081945     1.251023    -0.162606
6
Family_2 [H]C([H])=C([H])[H] | RMSD: 0.4642 | 2624.00 to state    1 from traj    1 on state    2
C     -1.618797     0.126603    -0.071935
H     -1.344888     0.489275     0.992411
H     -2.745384    -0.064990    -0.482727
C     -0.947640     1.439447     0.017954
H     -1.123295     2.275031     0.555821
H      0.062698     1.394968    -0.425567
6
Family_2 [H]C([H])=C([H])[H] | RMSD: 0.3990 | 3044.00 to state    1 from traj    1 on state    2
C     -1.606076     0.177704    -0.132627
H     -1.511024     0.420940     0.933840
H     -2.574847    -0.257290     0.423233
C     -0.941389     1.413895    -0.050893
H     -1.226424     2.416406     0.415737
H     -0.064647     1.209790     0.410683
6
Family_2 [H]C([H])=C([H])[H] | RMSD: 0.7463 | 2152.00 to state    1 from traj    1 on state    2
C     -1.737422     0.180073    -0.134016
H     -1.476162     0.470219     1.255959
H     -1.416181    -0.755854     0.151358
C     -0.929223     1.439070    -0.070293
H     -1.111316     2.388037     0.566148
H      0.046828     1.359236     0.457730
6
Family_2 [H]C([H])=C([H])[H] | RMSD: 0.6730 | 4636.00 to state    1 from traj    1 on state    2
C     -1.693406     0.274578    -0.004081
H     -0.810036     0.087722     0.830988
H     -2.161335    -0.278550    -0.925703
C     -0.956741     1.302456    -0.046248
H     -1.424270     2.256828     0.706637
H      0.242233     1.897388    -0.015497
6
Family_2 [H]C([H])=C([H])[H] | RMSD: 0.3378 | 1440.00 to state    1 from traj    1 on state    2
C     -1.597165     0.088841    -0.083512
H     -1.603388     0.390624     0.897283
H     -2.685270     0.061403    -0.126728
C     -0.962851     1.477818    -0.030622
H     -1.047200     2.451376     0.670752
H      0.108469     1.183609    -0.084601
6
Family_2 [H]C([H])=C([H])[H] | RMSD: 0.5041 | 2240.00 to state    1 from traj    1 on state    2
C     -1.541637     0.111438    -0.052634
H     -1.816478    -0.062470     1.023319
H     -2.450858     0.817921    -0.308773
C     -1.007406     1.413417    -0.046683
H     -1.107181     2.360721     0.828118
H      0.016377     1.468964    -0.362516
6
Family_2 [H]C([H])=C([H])[H] | RMSD: 0.3513 | 4488.00 to state    1 from traj    1 on state    2
C     -1.570658     0.198392    -0.095487
H     -1.482216     0.391820     1.154346
H     -2.707895     0.007532    -0.144809
C     -0.980832     1.386333    -0.025896
H     -1.198277     2.178703     0.563934
H      0.059407     1.293688    -0.130398
6
Family_2 [H]C([H])=C([H])[H] | RMSD: 0.4662 | 4768.00 to state    1 from traj    1 on state    2
C     -1.619682     0.185800    -0.094708
H     -1.361188     0.398359     1.107026
H     -2.426322    -0.108969    -0.277796
C     -0.947822     1.393728     0.025185
H     -1.242482     2.278620     0.368444
H     -0.108169     1.365666    -0.372542
6
Family_2 [H]C([H])=C([H])[H] | RMSD: 0.5920 | 1120.00 to state    1 from traj    1 on state    2
C     -1.729365    -0.056388    -0.135518
H     -1.533407    -0.487356     0.793296
H     -2.256878     0.441245     0.725323
C     -0.830929     1.604109    -0.051150
H     -1.341114     2.557738    -0.058742
H     -0.092679     1.801056     0.761111
6
Family_2 [H]C([H])=C([H])[H] | RMSD: 0.7830 | 1836.00 to state    1 from traj    1 on state    2
C     -1.764328     0.158789     0.014221
H     -0.703216     0.262834     0.646218
H     -1.973096    -0.585064    -1.082661
C     -0.936734     1.468058    -0.042809
H     -1.136500     2.252310     0.634274
H      0.266086     1.439757     0.139543
6
Family_2 [H]C([H])=C([H])[H] | RMSD: 0.5516 | 2132.00 to state    1 from traj    1 on state    2
C     -1.628229     0.106127    -0.164028
H     -1.512726     0.329932     1.043328
H     -2.708220    -0.012731     0.417711
C     -0.901463     1.475887     0.088712
H     -1.527841     2.316994    -0.318043
H      0.160070     1.269859    -0.248847
6
Family_2 [H]C([H])=C([H])[H] | RMSD: 0.3163 | 3108.00 to state    1 from traj    1 on state    2
C     -1.687159    -0.087041    -0.095940
H     -1.695289     0.209271     0.957261
H     -2.733966     0.248065    -0.096444
C     -0.851619     1.617363    -0.000141
H     -1.252456     2.491977     0.602964
H      0.201259     1.570684    -0.322196
6
Family_2 [H]C([H])=C([H])[H] | RMSD: 0.5369 | 3828.00 to state    1 from traj    1 on state    2
C     -1.641033     0.276241    -0.092688
H     -1.221092     0.295356     1.253943
H     -2.355094    -0.507125    -0.317936
C     -0.945598     1.345929     0.001820
H     -1.454873     2.267821     0.358535
H      0.120805     1.369514    -0.215073
6
Family_2 [H]C([H])=C([H])[H] | RMSD: 0.4963 | 4628.00 to state    1 from traj    1 on state    2
C     -1.528011     0.163292    -0.049862
H     -1.976820     0.057733     0.779716
H     -2.665066     0.540921    -0.120381
C     -0.982748     1.380010    -0.034137
H     -1.173921     2.108078     0.740094
H      0.001494     1.658608    -0.401809
6
Family_2 [H]C([H])=C([H])[H] | RMSD: 0.7306 | 5016.00 to state    1 from traj    1 on state    2
C     -1.738438     0.224669    -0.089990
H     -1.174478     0.409462     1.091249
H     -1.738409    -0.894165    -0.197867
C     -0.906571     1.443157    -0.029471
H     -1.433646     2.191806     0.347514
H      0.131890     1.174445     0.179280
6
Family_2 [H]C([H])=C([H])[H] | RMSD: 0.7381 | 4844.00 to state    1 from traj    1 on state    2
C     -1.730439     0.210703    -0.023298
H     -0.913470     0.289440     0.835942
H     -1.901333    -0.707423    -0.869235
C     -0.960285     1.413571    -0.018745
H     -1.026296     2.405358     0.514720
H      0.171177     1.413121     0.016265
6
Family_2 [H]C([H])=C([H])[H] | RMSD: 0.6871 | 908.00 to state    1 from traj    1 on state    2
C     -1.617659     0.057566    -0.093287
H     -1.539463    -0.147356     1.086971
H     -2.145115     0.968013    -0.240222
C     -0.939102     1.443752     0.076400
H     -1.487504     2.449097     0.094985
H     -0.094082     1.595845    -0.743804
6
Family_2 [H]C([H])=C([H])[H] | RMSD: 0.4644 | 1756.00 to state    1 from traj    1 on state    2
C     -1.554466     0.198308    -0.074560
H     -2.120124    -0.304527     1.040419
H     -2.763809    -0.181902     0.181079
C     -0.950913     1.449842    -0.062158
H     -1.166995     2.284036     0.482375
H      0.172504     1.318387    -0.078070
6
Family_2 [H]C([H])=C([H])[H] | RMSD: 0.5359 | 2116.00 to state    1 from traj    1 on state    2
C     -1.603032     0.135859    -0.115142
H     -1.495182     0.404646     1.181652
H     -2.514372     0.145406    -0.231121
C     -0.943206     1.411379     0.074317
H     -1.199779     2.349158     0.221672
H     -0.182232     1.419231    -0.689031
6
Family_2 [H]C([H])=C([H])[H] | RMSD: 0.6017 | 2200.00 to state    1 from traj    1 on state    2
C     -1.609408     0.136713    -0.093803
H     -1.353112     0.530475     1.039536
H     -2.642517     0.189854    -0.424525
C     -0.924646     1.388321     0.081889
H     -1.295018     2.275456     0.352087
H     -0.246096     1.587217    -0.828416
6
Family_2 [H]C([H])=C([H])[H] | RMSD: 0.4131 | 2328.00 to state    1 from traj    1 on state    2
C     -1.610719     0.092848    -0.066083
H     -1.462246     0.571908     0.872479
H     -2.626032    -0.002601    -0.336029
C     -0.985232     1.478582    -0.048702
H     -0.817570     2.179213     0.781421
H      0.106654     1.281648     0.046586
6
Family_2 [H]C([H])=C([H])[H] | RMSD: 0.5596 | 2908.00 to state    1 from traj    1 on state    2
C     -1.584316     0.203935    -0.121716
H     -1.821514     0.126160     0.948068
H     -2.807933     0.040275     0.352907
C     -0.883045     1.366930     0.041460
H     -1.723503     2.093214     0.119201
H      0.021525     1.777244    -0.467145
6
Family_2 [H]C([H])=C([H])[H] | RMSD: 0.5033 | 1284.00 to state    1 from traj    1 on state    2
C     -1.583617     0.065432    -0.072398
H     -1.585161    -0.353928     0.951650
H     -2.257724     0.810207     0.182312
C     -0.976719     1.521655    -0.108676
H     -1.206913     2.410847     0.520098
H     -0.173772     0.976474     0.500280
6
Family_2 [H]C([H])=C([H])[H] | RMSD: 0.4100 | 952.00 to state    1 from traj    1 on state    2
C     -1.642719     0.142875    -0.137079
H     -1.399333     0.356018     1.029529
H     -2.624335     0.154789     0.474382
C     -0.870356     1.404605    -0.061286
H     -1.679424     1.996783     0.484660
H     -0.083628     1.807950     0.371799
6
Family_2 [H]C([H])=C([H])[H] | RMSD: 0.4955 | 5760.00 to state    1 from traj    1 on state    2
C     -1.636437     0.121563    -0.076571
H     -1.342266     0.492151     1.104026
H     -2.545247    -0.072489    -0.602686
C     -1.000473     1.424964     0.009068
H     -0.846904     2.281677     0.573405
H      0.423273     1.625576    -0.273687
6
Family_2 [H]C([H])=C([H])[H] | RMSD: 0.4241 | 5960.00 to state    1 from traj    1 on state    2
C     -1.637027     0.157366    -0.080092
H     -1.270197     0.473795     1.010584
H     -2.707822    -0.095847    -0.288523
C     -0.894658     1.403404    -0.019146
H     -1.499365     2.241107     0.720385
H     -0.087580     1.538130    -0.263241
6
Family_2 [H]C([H])=C([H])[H] | RMSD: 0.4635 | 6416.00 to state    1 from traj    1 on state    2
C     -1.594285     0.186820    -0.140094
H     -1.622751     0.217056     1.180495
H     -2.638067     0.114015     0.255658
C     -0.900309     1.362902     0.034686
H     -1.627434     2.342085     0.222656
H     -0.118686     1.615679    -0.406080
6
Family_2 [H]C([H])=C([H])[H] | RMSD: 0.7102 | 7780.00 to state    1 from traj    1 on state    2
C     -1.757193     0.177946    -0.051946
H     -1.012136     0.332402     0.987638
H     -1.809854    -0.788934    -0.639388
C     -0.923151     1.447923    -0.035313
H     -1.228769     2.477835     0.594577
H      0.257165     1.360188     0.093633
6
Family_2 [H]C([H])=C([H])[H] | RMSD: 0.7185 | 2328.00 to state    1 from traj    1 on state    2
C     -1.583261     0.236737     0.007284
H     -1.648444    -0.287436     1.069893
H     -1.982313    -0.245833    -0.697378
C     -1.073359     1.479100    -0.106766
H     -0.644929     2.135673     0.666640
H      0.199397     0.707049     0.142958
6
Family_2 [H]C([H])=C([H])[H] | RMSD: 0.5541 | 1288.00 to state    1 from traj    1 on state    2
C     -1.603039     0.045573    -0.091077
H     -2.035591     0.099349     1.021936
H     -2.827553     0.492212     0.081165
C     -0.863873     1.483291    -0.010151
H     -1.441273     1.956489     0.664122
H     -0.032373     1.989323    -0.564300
6
Family_2 [H]C([H])=C([H])[H] | RMSD: 0.6152 | 8368.00 to state    1 from traj    1 on state    2
C     -1.609971     0.117142    -0.096080
H     -1.504965     0.351842     1.391317
H     -2.476918     0.733652    -0.268288
C     -0.907734     1.376072    -0.035518
H     -1.701262     1.933071     0.951922
H     -0.048411     1.943605    -0.510153
6
Family_2 [H]C([H])=C([H])[H] | RMSD: 0.4644 | 8524.00 to state    1 from traj    1 on state    2
C     -1.568687     0.186680    -0.087726
H     -1.464297     0.245188     1.151379
H     -2.556395     0.655316    -0.150413
C     -0.964091     1.320156    -0.044529
H     -1.353225     1.955228     0.739932
H     -0.178021     1.944115    -0.168278
6
Family_2 [H]C([H])=C([H])[H] | RMSD: 0.6446 | 6828.00 to state    1 from traj    1 on state    2
C     -1.561694     0.072139    -0.067067
H     -2.076385    -0.501782     1.190670
H     -2.655217     0.765656    -0.250222
C     -0.951199     1.434897    -0.009421
H     -1.059447     2.579177     0.642225
H      0.002163     1.954421    -0.674553
6
Family_2 [H]C([H])=C([H])[H] | RMSD: 0.3328 | 2192.00 to state    1 from traj    1 on state    2
C     -1.584104     0.088144    -0.076556
H     -1.531366     0.446278     0.922333
H     -2.688897     0.469816    -0.117293
C     -0.973240     1.431523    -0.090018
H     -1.187920     2.253261     1.034005
H      0.148966     1.477612     0.142522
6
Family_2 [H]C([H])=C([H])[H] | RMSD: 0.4321 | 2264.00 to state    1 from traj    1 on state    2
C     -1.574799     0.107255    -0.080957
H     -1.547452     0.389691     0.983510
H     -2.493198     0.380542    -0.346343
C     -1.017771     1.415987    -0.002953
H     -0.743745     2.391499     0.610344
H     -0.055096     1.442627    -0.250952
6
Family_2 [H]C([H])=C([H])[H] | RMSD: 0.4433 | 3056.00 to state    1 from traj    1 on state    2
C     -1.551888     0.199318    -0.091044
H     -1.636956     0.031099     1.212574
H     -2.715725     0.454537    -0.156953
C     -0.951968     1.314302    -0.019610
H     -1.425698     2.445631     0.723820
H     -0.118188     1.787742    -0.464204
6
Family_2 [H]C([H])=C([H])[H] | RMSD: 0.6080 | 2968.00 to state    1 from traj    1 on state    2
C     -1.674581     0.234481    -0.073911
H     -1.087074     0.310670     1.083321
H     -2.229911    -0.538251    -0.532938
C     -0.935304     1.376157     0.028729
H     -1.335824     2.439128     0.310768
H      0.019654     1.351433    -0.326052
6
Family_2 [H]C([H])=C([H])[H] | RMSD: 0.6698 | 892.00 to state    1 from traj    1 on state    2
C     -1.620935     0.084461    -0.095305
H     -1.295031     0.106646     1.230971
H     -2.218036     0.966632    -0.409663
C     -0.940813     1.396587     0.059192
H     -1.483501     2.272102     0.310451
H     -0.210183     1.761754    -0.704737
6
Family_2 [H]C([H])=C([H])[H] | RMSD: 0.5176 | 1464.00 to state    1 from traj    1 on state    2
C     -1.628914    -0.044345    -0.083959
H     -1.637922    -0.360210     0.951203
H     -2.290240     0.925230    -0.018542
C     -0.948084     1.589103    -0.002623
H     -1.154739     2.558108     0.168461
H      0.057871     1.224851    -0.072725
6
Family_2 [H]C([H])=C([H])[H] | RMSD: 0.5447 | 1556.00 to state    1 from traj    1 on state    2
C     -1.629707    -0.049309    -0.077156
H     -1.702316    -0.478443     1.027372
H     -2.299382     0.928305    -0.114107
C     -0.959812     1.596535    -0.005406
H     -1.124995     2.596950     0.196812
H      0.250860     1.271754    -0.129579
6
Family_2 [H]C([H])=C([H])[H] | RMSD: 0.4910 | 640.00 to state    1 from traj    1 on state    2
C     -1.674878     0.144107    -0.087674
H     -1.275461     0.528945     0.883455
H     -2.691531    -0.267675    -0.174887
C     -0.863524     1.428503     0.009194
H     -1.680043     2.104095     0.492075
H      0.162101     1.650747    -0.268784
6
Family_2 [H]C([H])=C([H])[H] | RMSD: 0.3839 | 2184.00 to state    1 from traj    1 on state    2
C     -1.626022     0.090627    -0.101296
H     -1.492914     0.382408     1.057740
H     -2.847725     0.044356    -0.209328
C     -0.909652     1.445055     0.023704
H     -1.274653     2.399086     0.510885
H      0.097849     1.630278    -0.438018
6
Family_2 [H]C([H])=C([H])[H] | RMSD: 0.4773 | 3100.00 to state    1 from traj    1 on state    2
C     -1.551708     0.140769    -0.095410
H     -2.005375    -0.110412     1.125030
H     -2.729143     0.252467     0.003551
C     -0.953888     1.423778     0.012447
H     -1.103222     2.430128     0.397209
H     -0.038098     1.540006    -0.540520
6
Family_2 [H]C([H])=C([H])[H] | RMSD: 0.5661 | 5128.00 to state    1 from traj    1 on state    2
C     -1.562088     0.143366    -0.068641
H     -1.890427     0.042185     1.040035
H     -2.371231     0.699364    -0.172226
C     -0.962101     1.384844    -0.013502
H     -1.411120     2.091330     0.684195
H      0.018489     1.712285    -0.576493
6
Family_2 [H]C([H])=C([H])[H] | RMSD: 0.6966 | 2668.00 to state    1 from traj    1 on state    2
C     -1.699469     0.269871    -0.064183
H     -1.258637     0.343933     0.809073
H     -1.960286    -0.920025    -0.334817
C     -0.939556     1.377823     0.002441
H     -1.203476     2.276838     0.267487
H      0.136465     1.420683    -0.009333
6
Family_2 [H]C([H])=C([H])[H] | RMSD: 0.7016 | 620.00 to state    1 from traj    1 on state    2
C     -1.594407     0.127356    -0.024440
H     -1.597638     0.039849     1.106472
H     -2.383833    -0.275910    -0.652948
C     -1.000725     1.565416    -0.044991
H     -0.546875     2.253319     0.581712
H     -0.280611     0.567034    -0.211199
6
Family_2 [H]C([H])=C([H])[H] | RMSD: 0.6597 | 1260.00 to state    1 from traj    1 on state    2
C     -1.576954     0.128360    -0.107004
H     -1.502481     0.504469     1.067963
H     -2.726099     0.249473    -0.222279
C     -0.903957     1.406609     0.081617
H     -1.320776     2.395537     0.367434
H     -0.620618     1.315150    -0.913900
6
Family_2 [H]C([H])=C([H])[H] | RMSD: 0.7515 | 536.00 to state    1 from traj    1 on state    2
C     -1.631038     0.099751    -0.011552
H     -1.572172     0.139201     1.137942
H     -2.249649    -0.369675    -0.784861
C     -0.984036     1.599117    -0.072585
H     -0.414761     2.020711     0.770076
H     -0.334752     0.721414    -0.123892
6
Family_2 [H]C([H])=C([H])[H] | RMSD: 0.7234 | 1084.00 to state    1 from traj    1 on state    2
C     -1.577599     0.103150    -0.079658
H     -1.442380    -0.263102     0.988324
H     -2.248358     1.155075    -0.238441
C     -0.961961     1.397793     0.067961
H     -1.522513     2.454986     0.054707
H     -0.257884     1.523106    -0.668493
6
Family_2 [H]C([H])=C([H])[H] | RMSD: 0.7451 | 1216.00 to state    1 from traj    1 on state    2
C     -1.563550     0.086705    -0.135547
H     -1.794914    -0.391494     0.860979
H     -2.209547     0.828215     0.610358
C     -1.010387     1.496825     0.043379
H     -1.059665     2.309251    -0.580674
H      0.002615     1.140018     0.204301
6
Family_2 [H]C([H])=C([H])[H] | RMSD: 0.7886 | 1372.00 to state    1 from traj    1 on state    2
C     -1.584629     0.132149     0.001546
H     -1.868445    -0.136179     1.059109
H     -2.309117    -0.321879    -0.748997
C     -1.040238     1.587953    -0.059998
H     -0.211785     1.988714     0.563130
H     -0.065291     0.727989    -0.180020
6
Family_2 [H]C([H])=C([H])[H] | RMSD: 0.7137 | 1532.00 to state    1 from traj    1 on state    2
C     -1.552932     0.077282    -0.017271
H     -2.093728    -0.529395     0.849550
H     -2.461029     0.907143    -0.372808
C     -0.948937     1.460098    -0.020736
H     -1.214721     2.401398     0.717590
H     -0.150768     1.656751    -0.744734
6
Family_2 [H]C([H])=C([H])[H] | RMSD: 0.7954 | 1164.00 to state    1 from traj    1 on state    2
C     -1.632387    -0.019272    -0.057755
H     -1.982315    -0.363010     0.996401
H     -2.401849     0.950529    -0.237157
C     -0.836250     1.522567     0.029027
H     -1.390358     2.200458     0.537009
H     -0.541717     2.054066    -0.957228
6
Family_2 [H]C([H])=C([H])[H] | RMSD: 0.4373 | 1060.00 to state    1 from traj    1 on state    2
C     -1.593030     0.173234    -0.115803
H     -1.642413     0.240346     1.118622
H     -2.725423    -0.072768    -0.022316
C     -0.933712     1.388121     0.038354
H     -1.381417     2.502422     0.315789
H      0.125383     1.480218    -0.492525
6
Family_2 [H]C([H])=C([H])[H] | RMSD: 0.4052 | 600.00 to state    1 from traj    1 on state    2
C     -1.734076    -0.047658    -0.145121
H     -1.358738     0.077387     1.026757
H     -2.770643     0.089229     0.442257
C     -0.782860     1.619238     0.000809
H     -1.818310     2.309736     0.065373
H      0.206974     1.552033     0.181904
6
Family_2 [H]C([H])=C([H])[H] | RMSD: 0.6949 | 2112.00 to state    1 from traj    1 on state    2
C     -1.613881     0.060018    -0.108244
H     -1.636330     0.401375     1.291062
H     -2.651162     0.342959    -0.270969
C     -0.855471     1.462157     0.054420
H     -1.243760     2.232448     0.589936
H     -0.776455     1.640290    -0.971962
6
Family_2 [H]C([H])=C([H])[H] | RMSD: 0.3501 | 2884.00 to state    1 from traj    1 on state    2
C     -1.687690    -0.050933    -0.073512
H     -1.346756     0.423050     1.098646
H     -2.915602    -0.115807    -0.331974
C     -0.870528     1.641902    -0.083472
H     -1.043070     2.318976     0.961270
H      0.056614     1.171127     0.139354
6
Family_2 [H]C([H])=C([H])[H] | RMSD: 0.3647 | 3112.00 to state    1 from traj    1 on state    2
C     -1.705337    -0.012101    -0.108254
H     -1.334749     0.397817     0.765808
H     -2.680971    -0.169043     0.170130
C     -0.850109     1.605191    -0.016773
H     -1.435970     2.392403     0.322278
H      0.169848     1.150895     0.228276
6
Family_2 [H]C([H])=C([H])[H] | RMSD: 0.7526 | 3388.00 to state    1 from traj    1 on state    2
C     -1.776541     0.196615    -0.031819
H     -0.767988     0.092172     1.058285
H     -1.895494    -0.531715    -0.802397
C     -0.877756     1.443631    -0.013881
H     -1.705210     2.087336     0.376404
H      0.264739     1.562394    -0.091030
6
Family_2 [H]C([H])=C([H])[H] | RMSD: 0.3339 | 844.00 to state    1 from traj    1 on state    2
C     -1.689248    -0.034242    -0.089197
H     -1.531151     0.353232     0.956718
H     -2.601059     0.344817    -0.174248
C     -0.882116     1.542758    -0.029655
H     -1.246753     2.181923     0.735030
H      0.286795     1.899867    -0.104576
6
Family_2 [H]C([H])=C([H])[H] | RMSD: 0.6688 | 1688.00 to state    1 from traj    1 on state    2
C     -1.719390     0.195933    -0.130736
H     -1.351275     0.397301     1.301135
H     -2.122122    -0.996783    -0.121544
C     -0.921530     1.440346     0.021083
H     -1.108247     2.420091     0.142884
H      0.318289     1.436844    -0.019171
6
Family_2 [H]C([H])=C([H])[H] | RMSD: 0.6443 | 1388.00 to state    1 from traj    1 on state    2
C     -1.686414     0.220029    -0.018052
H     -0.820924     0.493539     0.716550
H     -2.269769    -0.315406    -0.779218
C     -0.956656     1.380669    -0.035485
H     -1.401233     2.052688     0.651393
H      0.254183     1.450604     0.045926
6
Family_2 [H]C([H])=C([H])[H] | RMSD: 0.4254 | 1060.00 to state    1 from traj    1 on state    2
C     -1.660084     0.114687    -0.132038
H     -1.419865     0.286695     1.049076
H     -2.711702     0.206955     0.371840
C     -0.851018     1.418744    -0.042434
H     -1.785150     1.985405     0.464630
H      0.106491     2.003904     0.190124
6
Family_2 [H]C([H])=C([H])[H] | RMSD: 0.4426 | 1288.00 to state    1 from traj    1 on state    2
C     -1.649248     0.169447    -0.094184
H     -1.253163     0.447909     0.910322
H     -2.724364     0.032898     0.004938
C     -0.876320     1.376591    -0.036530
H     -1.586045     1.870507     0.577050
H     -0.074288     1.981422     0.061958
6
Family_2 [H]C([H])=C([H])[H] | RMSD: 0.5861 | 2508.00 to state    1 from traj    1 on state    2
C     -1.555514     0.160394    -0.090798
H     -1.502832     0.460641     1.199633
H     -2.628913     0.028252    -0.454496
C     -1.021012     1.426754     0.046475
H     -0.760660     2.346327     0.342411
H     -0.138254     1.007653    -0.562702
6
Family_2 [H]C([H])=C([H])[H] | RMSD: 0.4403 | 1108.00 to state    1 from traj    1 on state    2
C     -1.671117     0.174538    -0.113744
H     -1.251577     0.533814     0.973034
H     -2.548743    -0.366498     0.150004
C     -0.887669     1.422467    -0.043417
H     -1.544638     2.022018     0.457513
H      0.102916     1.536094     0.288845
6
Family_2 [H]C([H])=C([H])[H] | RMSD: 0.5538 | 1304.00 to state    1 from traj    1 on state    2
C     -1.672007     0.223278    -0.054553
H     -1.142330     0.486780     0.892435
H     -2.378505    -0.612984    -0.456539
C     -0.939757     1.393457    -0.046007
H     -1.352540     2.270206     0.703748
H      0.262608     1.346326     0.055320
6
Family_2 [H]C([H])=C([H])[H] | RMSD: 0.6004 | 1092.00 to state    1 from traj    1 on state    2
C     -1.539998     0.120296    -0.072573
H     -1.528146     0.174085     0.870304
H     -2.461959     0.781955    -0.366731
C     -1.016382     1.390984     0.058806
H     -1.068784     2.543337     0.312892
H     -0.211816     1.247517    -0.655715
6
Family_2 [H]C([H])=C([H])[H] | RMSD: 0.6706 | 612.00 to state    1 from traj    1 on state    2
C     -1.619276    -0.054101    -0.023059
H     -1.802218    -0.684380     0.823584
H     -2.310878     0.939457    -0.286089
C     -0.918389     1.643127    -0.028402
H     -1.266949     2.589440     0.410401
H     -0.113672     0.975988    -0.337985
6
Family_2 [H]C([H])=C([H])[H] | RMSD: 0.6198 | 2980.00 to state    1 from traj    1 on state    2
C     -1.589922     0.194092    -0.032358
H     -1.356262     0.109832     1.166018
H     -2.463761    -0.224571    -0.444974
C     -0.959830     1.504617    -0.101034
H     -1.096152     2.089355     0.787350
H     -0.433520     0.538935     0.077782
6
Family_2 [H]C([H])=C([H])[H] | RMSD: 0.6123 | 3032.00 to state    1 from traj    1 on state    2
C     -1.589499     0.189491    -0.036919
H     -1.451384    -0.066686     1.290212
H     -2.460809    -0.237059    -0.401110
C     -0.953125     1.514007    -0.115311
H     -1.003550     2.151915     0.810146
H     -0.518891     0.608320     0.111392
6
Family_2 [H]C([H])=C([H])[H] | RMSD: 0.6488 | 3252.00 to state    1 from traj    1 on state    2
C     -1.560813     0.041298    -0.023962
H     -2.035569    -0.457320     0.803310
H     -2.599998     0.952196    -0.354173
C     -0.965238     1.453840    -0.048124
H     -0.971621     2.515541     0.873143
H     -0.024920     1.928822    -0.466609
6
Family_2 [H]C([H])=C([H])[H] | RMSD: 0.6857 | 1116.00 to state    1 from traj    1 on state    2
C     -1.567241     0.125509    -0.047369
H     -1.776394    -0.417033     0.961812
H     -2.111087     0.893769    -0.382167
C     -1.007993     1.416647     0.032563
H     -1.184561     2.400890     0.229801
H      0.025997     1.501361    -0.636310
6
Family_2 [H]C([H])=C([H])[H] | RMSD: 0.3756 | 2168.00 to state    1 from traj    1 on state    2
C     -1.576396     0.169391    -0.119574
H     -1.533194     0.222229     1.359156
H     -2.686422     0.438313     0.010373
C     -0.949202     1.363905    -0.028118
H     -1.343637     2.032991     0.553525
H     -0.074244     1.791036    -0.166490
6
Family_2 [H]C([H])=C([H])[H] | RMSD: 0.4469 | 2848.00 to state    1 from traj    1 on state    2
C     -1.586680     0.215936    -0.119160
H     -1.616693     0.267553     1.215094
H     -2.600972    -0.403211    -0.023428
C     -0.989403     1.386922     0.002351
H     -1.057868     2.587720     0.341268
H      0.239598     1.203621    -0.144357
6
Family_2 [H]C([H])=C([H])[H] | RMSD: 0.7895 | 668.00 to state    1 from traj    1 on state    2
C     -1.656647     0.124084    -0.014017
H     -1.495014     0.093855     1.174676
H     -2.147205    -0.647749    -0.800400
C     -0.974428     1.594900    -0.073503
H     -0.485495     2.187011     0.731859
H     -0.252959     0.638847    -0.066556
6
Family_2 [H]C([H])=C([H])[H] | RMSD: 0.4858 | 692.00 to state    1 from traj    1 on state    2
C     -1.604305     0.009251    -0.088159
H     -1.534729    -0.377993     0.933297
H     -2.373647     0.869712     0.246380
C     -0.951939     1.556272    -0.081393
H     -1.192173     2.535065     0.362012
H     -0.171784     1.073780     0.475357
6
Family_2 [H]C([H])=C([H])[H] | RMSD: 0.4731 | 772.00 to state    1 from traj    1 on state    2
C     -1.612359    -0.002817    -0.096366
H     -1.477292    -0.279787     0.896177
H     -2.435754     0.925789     0.337351
C     -0.942796     1.558633    -0.085960
H     -1.260450     2.390625     0.341872
H     -0.111801     1.179592     0.593853
6
Family_2 [H]C([H])=C([H])[H] | RMSD: 0.7284 | 1300.00 to state    1 from traj    1 on state    2
C     -1.569876     0.045638    -0.026499
H     -1.988563    -0.437799     0.861133
H     -2.513762     0.915997    -0.391089
C     -0.918630     1.488278     0.011080
H     -1.285836     2.393342     0.595985
H     -0.291319     1.605631    -0.885584
6
Family_2 [H]C([H])=C([H])[H] | RMSD: 0.4208 | 1748.00 to state    1 from traj    1 on state    2
C     -1.591205     0.053688    -0.084814
H     -1.673655     0.328759     0.808255
H     -2.793071     0.071352    -0.121716
C     -0.953514     1.515829     0.012580
H     -0.903803     2.549550     0.446586
H     -0.039136     1.103308    -0.275694
6
Family_2 [H]C([H])=C([H])[H] | RMSD: 0.3527 | 1936.00 to state    1 from traj    1 on state    2
C     -1.651253     0.059839    -0.106501
H     -1.413468     0.525816     1.245832
H     -2.635859    -0.176216    -0.192156
C     -0.938281     1.525500    -0.050280
H     -0.991700     2.286862     0.719494
H      0.165369     1.227975     0.091707
6
Family_2 [H]C([H])=C([H])[H] | RMSD: 0.6235 | 2468.00 to state    1 from traj    1 on state    2
C     -1.637923     0.275949    -0.102073
H     -1.203342     0.351623     1.082789
H     -2.538168    -0.333083    -0.273398
C     -0.916359     1.304505     0.077845
H     -1.624897     2.150464     0.045281
H      0.070698     1.753638    -0.569259
6
Family_2 [H]C([H])=C([H])[H] | RMSD: 0.7158 | 1204.00 to state    1 from traj    1 on state    2
C     -1.561562     0.084573    -0.087580
H     -1.704991    -0.169929     0.907335
H     -2.272427     0.900015    -0.127379
C     -0.977733     1.450560     0.093178
H     -1.182028     2.467629    -0.104866
H     -0.314848     1.264959    -0.745077
6
Family_2 [H]C([H])=C([H])[H] | RMSD: 0.5141 | 2172.00 to state    1 from traj    1 on state    2
C     -1.528380     0.170619    -0.067357
H     -1.792177     0.019911     1.113273
H     -2.604098     0.641873    -0.240656
C     -0.985614     1.376154    -0.013877
H     -1.374248     2.245164     0.667816
H     -0.005237     1.417037    -0.575753
6
Family_2 [H]C([H])=C([H])[H] | RMSD: 0.8084 | 2464.00 to state    1 from traj    1 on state    2
C     -1.605444     0.081996    -0.063390
H     -1.722844    -0.379417     1.079236
H     -2.356111     1.143815    -0.240742
C     -0.876789     1.406764     0.025806
H     -1.747360     2.131240     0.460612
H     -0.327903     2.119596    -0.854552
6
Family_2 [H]C([H])=C([H])[H] | RMSD: 0.7865 | 1308.00 to state    1 from traj    1 on state    2
C     -1.576488     0.083750    -0.075890
H     -2.117741    -0.255698     1.040641
H     -2.482923     0.848268    -0.045634
C     -0.877253     1.401442     0.005746
H     -1.256449     2.200582     0.674992
H     -0.636616     2.264604    -0.837463
6
Family_2 [H]C([H])=C([H])[H] | RMSD: 0.5016 | 1044.00 to state    1 from traj    1 on state    2
C     -1.616570     0.153050    -0.063243
H     -1.276964     0.439721     0.981018
H     -2.657262     0.334454    -0.495147
C     -0.939003     1.357709    -0.008919
H     -1.504326     2.159413     0.795903
H      0.158231     1.819510    -0.425187
6
Family_2 [H]C([H])=C([H])[H] | RMSD: 0.4052 | 2056.00 to state    1 from traj    1 on state    2
C     -1.563101     0.149557    -0.098859
H     -1.857279     0.122277     1.005480
H     -2.913593     0.025146     0.066710
C     -0.937345     1.418361    -0.003236
H     -1.340929     2.535594     0.526917
H      0.174601     1.389002    -0.385866
6
Family_2 [H]C([H])=C([H])[H] | RMSD: 0.6790 | 2636.00 to state    1 from traj    1 on state    2
C     -1.592025     0.091327    -0.033022
H     -1.620657    -0.347790     0.879490
H     -2.339533     1.151488    -0.316192
C     -0.920386     1.408626    -0.036673
H     -1.701005     2.238517     0.739028
H     -0.133436     1.839648    -0.475142
6
Family_2 [H]C([H])=C([H])[H] | RMSD: 0.7454 | 2808.00 to state    1 from traj    1 on state    2
C     -1.559285     0.079563    -0.023227
H     -2.118900    -0.581177     0.906391
H     -2.416128     0.895457    -0.383944
C     -0.951319     1.460389     0.000933
H     -1.216889     2.370555     0.575431
H     -0.064238     1.720414    -0.835511
6
Family_2 [H]C([H])=C([H])[H] | RMSD: 0.3946 | 4316.00 to state    1 from traj    1 on state    2
C     -1.572029     0.137334    -0.088739
H     -1.575847     0.323185     1.082016
H     -2.717770     0.298819    -0.229977
C     -0.981408     1.419453     0.009193
H     -1.110550     2.123767     0.448643
H      0.098382     1.458879    -0.356118
6
Family_2 [H]C([H])=C([H])[H] | RMSD: 0.7784 | 3152.00 to state    1 from traj    1 on state    2
C     -1.589569     0.137385    -0.167167
H     -1.746091    -0.167758     0.944951
H     -2.474124     0.394252     0.642105
C     -0.960248     1.444961     0.124893
H     -1.195783     2.089889    -0.925463
H      0.067079     1.583713    -0.161145
6
Family_2 [H]C([H])=C([H])[H] | RMSD: 0.6842 | 5148.00 to state    1 from traj    1 on state    2
C     -1.544252     0.205719     0.041811
H     -1.434510    -0.353779     0.796351
H     -2.407841     0.276752    -0.868592
C     -1.039829     1.470820    -0.085166
H     -0.965356     2.214620     0.733209
H     -0.132930     0.640128    -0.147653
6
Family_2 [H]C([H])=C([H])[H] | RMSD: 0.4546 | 2796.00 to state    1 from traj    1 on state    2
C     -1.629284    -0.006729    -0.072173
H     -1.594532     0.479662     1.070067
H     -2.589516     0.124094    -0.428535
C     -0.961631     1.574882    -0.036556
H     -0.762035     2.367643     0.846772
H      0.086878     1.097812    -0.196011
6
Family_2 [H]C([H])=C([H])[H] | RMSD: 0.3617 | 2524.00 to state    1 from traj    1 on state    2
C     -1.634812     0.089688    -0.111906
H     -1.614520     0.299943     0.983531
H     -2.606425    -0.160399    -0.002122
C     -0.928663     1.461206    -0.000143
H     -1.181223     2.765498     0.516028
H      0.216003     1.369826    -0.165584
6
Family_2 [H]C([H])=C([H])[H] | RMSD: 0.7957 | 576.00 to state    1 from traj    1 on state    2
C     -1.553823     0.085848    -0.100828
H     -1.717405    -0.438388     0.848846
H     -2.321234     0.873263     0.244010
C     -0.991081     1.522684     0.086052
H     -1.167236     2.231288    -0.629196
H     -0.201579     0.921912    -0.290885
6
Family_2 [H]C([H])=C([H])[H] | RMSD: 0.6074 | 4660.00 to state    1 from traj    1 on state    2
C     -1.560276     0.180744    -0.083575
H     -1.810568     0.170659     0.951446
H     -2.471985     0.646962     0.016823
C     -0.922223     1.339791     0.002724
H     -1.586789     1.944014     0.578693
H     -0.281713     1.874982    -0.586847
6
Family_2 [H]C([H])=C([H])[H] | RMSD: 0.7096 | 4764.00 to state    1 from traj    1 on state    2
C     -1.557375     0.195563    -0.084920
H     -2.009235    -0.014590     1.046462
H     -2.481829     0.678142     0.075311
C     -0.912355     1.320840    -0.003558
H     -1.569470     1.794157     0.580144
H     -0.242668     2.228147    -0.650932
6
Family_2 [H]C([H])=C([H])[H] | RMSD: 0.7180 | 5404.00 to state    1 from traj    1 on state    2
C     -1.541947     0.075711    -0.038571
H     -2.052027    -0.569081     0.929195
H     -2.337156     0.869278    -0.342699
C     -1.006475     1.481223     0.020277
H     -0.973386     2.588902     0.327205
H     -0.002968     1.313803    -0.698991
6
Family_2 [H]C([H])=C([H])[H] | RMSD: 0.3907 | 6020.00 to state    1 from traj    1 on state    2
C     -1.592251     0.198735    -0.104808
H     -1.497487     0.462260     1.085738
H     -2.734490    -0.373409     0.048015
C     -0.951215     1.392712    -0.076644
H     -1.213457     2.526365     0.838385
H      0.020837     1.176445     0.186705
6
Family_2 [H]C([H])=C([H])[H] | RMSD: 0.4517 | 1344.00 to state    1 from traj    1 on state    2
C     -1.600249     0.023262    -0.063462
H     -1.572226    -0.289623     0.924209
H     -2.409179     0.654086     0.076531
C     -0.950983     1.572022    -0.110815
H     -1.054360     2.436072     0.613940
H     -0.296289     0.945401     0.458663
6
Family_2 [H]C([H])=C([H])[H] | RMSD: 0.8523 | 1240.00 to state    1 from traj    1 on state    2
C     -1.553736     0.103371    -0.119539
H     -1.882406    -0.598676     0.789638
H     -2.146069     0.881311     0.536470
C     -1.038740     1.493512     0.062296
H     -0.928790     2.220835    -0.789348
H      0.116660     1.223420     0.142054
6
Family_2 [H]C([H])=C([H])[H] | RMSD: 0.6358 | 1416.00 to state    1 from traj    1 on state    2
C     -1.568182     0.229085    -0.016394
H     -1.573123    -0.166777     1.141384
H     -2.276948    -0.233171    -0.550125
C     -1.035986     1.480565    -0.091795
H     -0.877198     2.230968     0.648879
H      0.025975     0.552161     0.045728
6
Family_2 [H]C([H])=C([H])[H] | RMSD: 0.3411 | 4364.00 to state    1 from traj    1 on state    2
C     -1.638095     0.065776    -0.134188
H     -1.685822     0.187796     1.126686
H     -2.913652     0.007655     0.151391
C     -0.885889     1.458645     0.013431
H     -1.173687     2.447812     0.368896
H      0.116430     1.947057    -0.211349
6
Family_2 [H]C([H])=C([H])[H] | RMSD: 0.6113 | 5660.00 to state    1 from traj    1 on state    2
C     -1.557084     0.094879    -0.064665
H     -1.994047    -0.266076     1.309475
H     -2.501452     0.865769    -0.236287
C     -0.947418     1.438441    -0.047848
H     -1.347867     2.180901     0.851570
H     -0.045512     1.703688    -0.587375
6
Family_2 [H]C([H])=C([H])[H] | RMSD: 0.8186 | 2100.00 to state    1 from traj    1 on state    2
C     -1.570506     0.125448     0.028235
H     -1.896024    -0.281797     0.772145
H     -2.078349     0.048360    -0.788482
C     -1.074404     1.562161    -0.064932
H     -0.118321     2.035666     0.563194
H     -0.123123     0.843586    -0.112861
6
Family_2 [H]C([H])=C([H])[H] | RMSD: 0.4921 | 1236.00 to state    1 from traj    1 on state    2
C     -1.608580     0.094887    -0.090525
H     -1.506432     0.387899     0.965697
H     -2.538150     0.434943    -0.321525
C     -0.947934     1.402980     0.047716
H     -1.255249     2.385493     0.483258
H      0.030715     1.698386    -0.620609
6
Family_2 [H]C([H])=C([H])[H] | RMSD: 0.6777 | 3120.00 to state    1 from traj    1 on state    2
C     -1.574934     0.084078    -0.044910
H     -1.649753    -0.105954     0.934202
H     -2.320124     0.953007    -0.356669
C     -0.941446     1.458918     0.009387
H     -1.671219     2.328605     0.566827
H     -0.106237     1.193319    -0.724370
6
Family_2 [H]C([H])=C([H])[H] | RMSD: 0.4663 | 3352.00 to state    1 from traj    1 on state    2
C     -1.667636     0.062112    -0.088761
H     -1.402064     0.553363     0.747949
H     -2.725555    -0.108525    -0.184840
C     -0.864148     1.482532     0.039625
H     -1.437048     2.375554     0.465983
H      0.000883     1.528955    -0.446886
6
Family_2 [H]C([H])=C([H])[H] | RMSD: 0.5610 | 1020.00 to state    1 from traj    1 on state    2
C     -1.620573     0.139385    -0.128442
H     -1.470267     0.413745     1.108780
H     -2.706535     0.042572     0.047524
C     -0.881280     1.432759     0.076878
H     -1.714888     2.200944     0.083762
H     -0.028742     1.364404    -0.628934
6
Family_2 [H]C([H])=C([H])[H] | RMSD: 0.5736 | 632.00 to state    1 from traj    1 on state    2
C     -1.725956    -0.078316    -0.116659
H     -1.043186    -0.322314     0.908965
H     -2.547473     0.767028     0.492357
C     -0.798288     1.634380    -0.083849
H     -1.679619     2.243839     0.147830
H     -0.383351     1.524725     0.836756
6
Family_2 [H]C([H])=C([H])[H] | RMSD: 0.3521 | 896.00 to state    1 from traj    1 on state    2
C     -1.602060     0.173048    -0.143366
H     -1.683854     0.152427     1.147730
H     -2.617830     0.119113     0.494965
C     -0.921912     1.382246    -0.047104
H     -1.526835     2.238027     0.406278
H      0.171643     1.712869     0.217323
6
Family_2 [H]C([H])=C([H])[H] | RMSD: 0.6932 | 16592.00 to state    1 from traj    1 on state    2
C     -1.582717     0.109535    -0.019961
H     -1.595988    -0.532931     0.912549
H     -2.208731     1.041894    -0.518277
C     -0.967846     1.419657    -0.010871
H     -1.426917     2.451944     0.528178
H     -0.108387     1.572557    -0.558354
6
Family_2 [H]C([H])=C([H])[H] | RMSD: 0.5743 | 3120.00 to state    1 from traj    1 on state    2
C     -1.542564     0.107162    -0.078594
H     -1.986629    -0.080693     1.242934
H     -2.832012     0.681319    -0.138465
C     -0.929380     1.432682    -0.017073
H     -1.441674     2.169801     0.737021
H     -0.016498     1.636115    -0.704834
6
Family_2 [H]C([H])=C([H])[H] | RMSD: 0.4648 | 7320.00 to state    1 from traj    1 on state    2
C     -1.562296     0.157293    -0.076024
H     -1.881727     0.059074     0.944087
H     -2.625170     0.413418    -0.133123
C     -0.973980     1.365743    -0.003059
H     -1.208063     2.269440     0.589041
H      0.204694     1.864878    -0.460970
6
Family_2 [H]C([H])=C([H])[H] | RMSD: 0.4280 | 8412.00 to state    1 from traj    1 on state    2
C     -1.579369     0.135667    -0.094042
H     -1.611634     0.353678     0.984700
H     -2.732602     0.123749    -0.081818
C     -0.938840     1.438694     0.016394
H     -1.359466     2.327346     0.448936
H     -0.021852     1.190479    -0.429871
6
Family_2 [H]C([H])=C([H])[H] | RMSD: 0.3741 | 1916.00 to state    1 from traj    1 on state    2
C     -1.628672     0.156786    -0.132315
H     -1.524411     0.310134     1.321103
H     -2.586213     0.168212     0.195496
C     -0.899061     1.381874    -0.053622
H     -1.641692     2.089822     0.670008
H      0.140257     1.852475     0.025670
6
Family_2 [H]C([H])=C([H])[H] | RMSD: 0.7319 | 2700.00 to state    1 from traj    1 on state    2
C     -1.639243     0.197309    -0.041336
H     -1.431938    -0.392184     0.681632
H     -2.656783     0.124757    -0.280716
C     -0.838726     1.335080     0.025408
H     -1.276028     2.334209     0.288696
H     -0.840272     2.428589    -0.503098
6
Family_2 [H]C([H])=C([H])[H] | RMSD: 0.7187 | 1640.00 to state    1 from traj    1 on state    2
C     -1.537129     0.136595    -0.010158
H     -1.747391    -0.488924     0.858515
H     -2.419929     0.949280    -0.565844
C     -0.991131     1.417344     0.009538
H     -1.307122     2.413443     0.479540
H     -0.131330     1.364786    -0.768105
6
Family_2 [H]C([H])=C([H])[H] | RMSD: 0.6732 | 4948.00 to state    1 from traj    1 on state    2
C     -1.749473     0.195086    -0.084047
H     -1.246920     0.402790     0.864052
H     -1.964332    -0.972870    -0.196130
C     -0.883101     1.437175    -0.011100
H     -1.291922     2.329153     0.353382
H      0.140367     1.546253     0.109150
6
Family_2 [H]C([H])=C([H])[H] | RMSD: 0.6938 | 5436.00 to state    1 from traj    1 on state    2
C     -1.569607     0.169549     0.023089
H     -1.661101    -0.489472     1.021059
H     -2.290537     0.167580    -0.845196
C     -1.059830     1.491823    -0.098893
H     -0.294235     2.063127     0.691858
H     -0.154315     1.217212     0.032249
6
Family_2 [H]C([H])=C([H])[H] | RMSD: 0.3716 | 1752.00 to state    1 from traj    1 on state    2
C     -1.539451     0.206283    -0.125898
H     -1.646497     0.319322     1.354245
H     -2.652134     0.108455     0.075646
C     -1.004179     1.380455    -0.025418
H     -1.113852     2.257247     0.469267
H     -0.010151     1.162736    -0.099406
6
Family_2 [H]C([H])=C([H])[H] | RMSD: 0.3501 | 4964.00 to state    1 from traj    1 on state    2
C     -1.601062     0.174488    -0.098133
H     -1.505746     0.338600     1.147697
H     -2.646114     0.028056    -0.145150
C     -0.958294     1.392485    -0.015051
H     -1.345161     2.199284     0.542122
H      0.261770     1.517334    -0.199291
6
Family_2 [H]C([H])=C([H])[H] | RMSD: 0.7221 | 1536.00 to state    1 from traj    1 on state    2
C     -1.729518     0.246095    -0.039653
H     -1.018267     0.176507     0.942477
H     -1.838540    -0.717888    -0.686194
C     -0.941242     1.386452    -0.013564
H     -1.407882     2.418807     0.440436
H      0.356888     1.424493    -0.065888
6
Family_2 [H]C([H])=C([H])[H] | RMSD: 0.5333 | 980.00 to state    1 from traj    1 on state    2
C     -1.599348     0.168699    -0.071170
H     -1.304492     0.456089     0.971062
H     -2.533037     0.099634    -0.505254
C     -0.965894     1.386372     0.042033
H     -1.220417     2.347432     0.458455
H     -0.107167     1.321938    -0.580351
6
Family_2 [H]C([H])=C([H])[H] | RMSD: 0.4375 | 1768.00 to state    1 from traj    1 on state    2
C     -1.555714     0.139886    -0.105763
H     -1.843089     0.093826     1.154011
H     -3.051425    -0.088984     0.019054
C     -0.941132     1.455942     0.008944
H     -1.065076     2.456606     0.382070
H     -0.020507     1.278010    -0.404749
6
Family_2 [H]C([H])=C([H])[H] | RMSD: 0.4860 | 2568.00 to state    1 from traj    1 on state    2
C     -1.605763     0.133934    -0.120800
H     -1.712459     0.210496     0.982764
H     -2.510399     0.279484     0.088608
C     -0.912211     1.371380     0.051030
H     -1.424646     2.506485     0.317427
H     -0.080842     1.821533    -0.560725
6
Family_2 [H]C([H])=C([H])[H] | RMSD: 0.5634 | 1388.00 to state    1 from traj    1 on state    2
C     -1.653038     0.238988     0.010772
H     -1.199517    -0.427879     0.800330
H     -2.390957    -0.166665    -0.675832
C     -0.972631     1.361975    -0.126219
H     -0.888358     2.245158     0.811567
H      0.033742     2.027654     0.436275
6
Family_2 [H]C([H])=C([H])[H] | RMSD: 0.7403 | 564.00 to state    1 from traj    1 on state    2
C     -1.595976     0.043610    -0.020268
H     -1.860191     0.365468     0.973450
H     -2.439937    -0.141308    -0.590845
C     -0.981203     1.629675    -0.061044
H     -0.433090     1.922178     0.864200
H     -0.289667     0.670159    -0.281202
6
Family_2 [H]C([H])=C([H])[H] | RMSD: 0.3209 | 584.00 to state    1 from traj    1 on state    2
C     -1.731648    -0.027131    -0.120009
H     -1.214601     0.276733     0.933156
H     -2.776808     0.009337     0.242706
C     -0.823899     1.597966    -0.047070
H     -1.614551     2.180686     0.359361
H      0.325320     1.570506     0.452353
6
Family_2 [H]C([H])=C([H])[H] | RMSD: 0.5215 | 2896.00 to state    1 from traj    1 on state    2
C     -1.488522     0.233918    -0.068802
H     -1.984853    -0.098684     1.135344
H     -2.601192     0.462261    -0.168653
C     -1.034870     1.340331    -0.015355
H     -1.151252     2.317937     0.569634
H      0.073503     1.315068    -0.536818
6
Family_2 [H]C([H])=C([H])[H] | RMSD: 0.6759 | 4292.00 to state    1 from traj    1 on state    2
C     -1.569406     0.238046     0.004799
H     -1.260544     0.006201     1.025605
H     -2.161307     0.116904    -0.793097
C     -1.045403     1.440411    -0.077733
H     -1.015095     1.993256     0.677319
H     -0.137540     0.638507    -0.044058
6
Family_2 [H]C([H])=C([H])[H] | RMSD: 0.6475 | 3424.00 to state    1 from traj    1 on state    2
C     -1.565121     0.218796     0.013544
H     -1.515525    -0.216573     1.012903
H     -2.265052     0.047917    -0.710543
C     -1.026518     1.476917    -0.096809
H     -0.814856     1.925668     0.705152
H     -0.255138     0.792246    -0.018632
6
Family_2 [H]C([H])=C([H])[H] | RMSD: 0.6018 | 2240.00 to state    1 from traj    1 on state    2
C     -1.486733     0.251437    -0.079645
H     -1.998798     0.032809     0.927918
H     -2.916716     0.131607    -0.021037
C     -0.979629     1.337512     0.042485
H     -1.207201     2.340245     0.301843
H     -0.220615     1.316763    -0.769217
6
Family_2 [H]C([H])=C([H])[H] | RMSD: 0.4131 | 6476.00 to state    1 from traj    1 on state    2
C     -1.692113     0.043235    -0.134515
H     -1.295333     0.257125     0.847193
H     -2.458298     0.236628     0.518981
C     -0.852035     1.509738    -0.049355
H     -1.623090     2.154867     0.266968
H     -0.039744     1.601468     0.554510
6
Family_2 [H]C([H])=C([H])[H] | RMSD: 0.4809 | 6576.00 to state    1 from traj    1 on state    2
C     -1.685741     0.053212    -0.143758
H     -1.183121     0.276671     0.884170
H     -2.638935     0.286105     0.609697
C     -0.844559     1.500980    -0.058292
H     -1.852067     2.119334     0.246597
H      0.092653     1.553467     0.663810
6
Family_2 [H]C([H])=C([H])[H] | RMSD: 0.7318 | 1868.00 to state    1 from traj    1 on state    2
C     -1.608604     0.138787     0.011344
H     -1.412053    -0.136755     1.046289
H     -2.121955    -0.053246    -0.919475
C     -1.028992     1.534758    -0.083956
H     -0.490449     2.277739     0.772724
H     -0.278507     0.725664    -0.037600
6
Family_2 [H]C([H])=C([H])[H] | RMSD: 0.7347 | 2016.00 to state    1 from traj    1 on state    2
C     -1.569678     0.167257    -0.005255
H     -1.491273    -0.399487     1.106225
H     -2.267982     0.033594    -0.815715
C     -1.048140     1.500297    -0.041471
H     -0.611094     2.665607     0.501352
H     -0.168282     0.585077    -0.238370
6
Family_2 [H]C([H])=C([H])[H] | RMSD: 0.6321 | 2136.00 to state    1 from traj    1 on state    2
C     -1.695689     0.240809    -0.078847
H     -1.014619     0.261902     1.131600
H     -2.298178    -0.558943    -0.551377
C     -0.911872     1.360852     0.044510
H     -1.454036     2.326710     0.204749
H      0.105979     1.640278    -0.379098
6
Family_2 [H]C([H])=C([H])[H] | RMSD: 0.6565 | 1412.00 to state    1 from traj    1 on state    2
C     -1.533121     0.171138    -0.040554
H     -1.868164    -0.318843     1.104479
H     -2.276887     0.859903    -0.348656
C     -0.990517     1.390137    -0.021256
H     -1.420424     2.228085     0.630889
H     -0.095375     1.382027    -0.653489
6
Family_2 [H]C([H])=C([H])[H] | RMSD: 0.6968 | 2464.00 to state    1 from traj    1 on state    2
C     -1.601041     0.085421    -0.027623
H     -1.597761    -0.495549     1.001700
H     -2.329518     1.094299    -0.530203
C     -0.947713     1.422395    -0.011651
H     -1.440692     2.253507     0.565174
H      0.006388     1.935924    -0.571979
6
Family_2 [H]C([H])=C([H])[H] | RMSD: 0.7942 | 2596.00 to state    1 from traj    1 on state    2
C     -1.558044     0.115420    -0.033695
H     -1.924966    -0.433984     0.934522
H     -2.488067     1.072647    -0.314891
C     -0.911876     1.393406     0.001116
H     -1.479936     2.107678     0.625995
H     -0.407968     2.029806    -0.860696
6
Family_2 [H]C([H])=C([H])[H] | RMSD: 0.7207 | 2824.00 to state    1 from traj    1 on state    2
C     -1.601517     0.226365    -0.054681
H     -1.016594    -0.456064     0.524103
H     -2.629515     0.341641     0.321928
C     -0.884159     1.362091    -0.118252
H     -1.337602     2.342713     0.330548
H     -1.129483     1.598995     0.880747
6
Family_2 [H]C([H])=C([H])[H] | RMSD: 0.4571 | 3216.00 to state    1 from traj    1 on state    2
C     -1.656417     0.022181    -0.102998
H     -1.512328     0.378637     1.127766
H     -2.664300     0.389277    -0.095238
C     -0.857890     1.525580     0.011486
H     -1.581928     1.931069     0.489087
H     -0.013484     1.613224    -0.434471
6
Family_2 [H]C([H])=C([H])[H] | RMSD: 0.6390 | 5392.00 to state    1 from traj    1 on state    2
C     -1.499021     0.116303    -0.058518
H     -2.223337    -0.348111     1.123314
H     -2.866546     0.451188    -0.211495
C     -1.005613     1.483858     0.002463
H     -0.915647     2.446751     0.455739
H      0.118228     1.137990    -0.702900
6
Family_2 [H]C([H])=C([H])[H] | RMSD: 0.6822 | 3628.00 to state    1 from traj    1 on state    2
C     -1.692151     0.255853    -0.090652
H     -1.049880     0.343540     1.171054
H     -2.392488    -0.722352    -0.416217
C     -0.887790     1.381329     0.055655
H     -1.554339     2.139931     0.073567
H      0.006746     1.485574    -0.414680
6
Family_2 [H]C([H])=C([H])[H] | RMSD: 0.5045 | 824.00 to state    1 from traj    1 on state    2
C     -1.580582     0.123445    -0.062817
H     -1.425049     0.469285     0.814314
H     -2.677531     0.497220    -0.323145
C     -0.944266     1.410600     0.008618
H     -1.381717     2.060887     0.619646
H     -0.162133     1.448252    -0.468282
6
Family_2 [H]C([H])=C([H])[H] | RMSD: 0.6006 | 968.00 to state    1 from traj    1 on state    2
C     -1.566574     0.127177    -0.039274
H     -1.376539    -0.266971     1.015361
H     -2.232278     1.111532    -0.494901
C     -1.023632     1.398723    -0.024902
H     -1.296739     2.286225     0.492056
H      0.037900     1.441915    -0.251094
6
Family_2 [H]C([H])=C([H])[H] | RMSD: 0.5545 | 5052.00 to state    1 from traj    1 on state    2
C     -1.587970     0.087216    -0.069304
H     -1.551111     0.227098     0.916314
H     -2.580292     0.792400    -0.344080
C     -0.943545     1.398645     0.021583
H     -1.487408     2.300411     0.641974
H      0.051809     1.729865    -0.648855
6
Family_2 [H]C([H])=C([H])[H] | RMSD: 0.6797 | 7956.00 to state    1 from traj    1 on state    2
C     -1.705206     0.289661    -0.070439
H     -1.023825     0.180683     0.978859
H     -2.067557    -0.566939    -0.409224
C     -0.891726     1.319020     0.029694
H     -1.716923     2.244774     0.196604
H      0.020796     1.727779    -0.284006
6
Family_2 [H]C([H])=C([H])[H] | RMSD: 0.6409 | 8164.00 to state    1 from traj    1 on state    2
C     -1.713838     0.244487    -0.051029
H     -1.055421     0.390395     0.822500
H     -2.265566    -0.693635    -0.405642
C     -0.891365     1.392561    -0.022013
H     -1.608148     1.940353     0.426834
H      0.240178     1.611179     0.023372
6
Family_2 [H]C([H])=C([H])[H] | RMSD: 0.5248 | 2612.00 to state    1 from traj    1 on state    2
C     -1.599571     0.132361    -0.088523
H     -1.333471     0.377323     1.303952
H     -2.746048     0.319321    -0.540154
C     -0.954734     1.399633     0.034682
H     -1.247952     2.179048     0.526047
H      0.032037     1.624377    -0.651578
6
Family_2 [H]C([H])=C([H])[H] | RMSD: 0.5525 | 2752.00 to state    1 from traj    1 on state    2
C     -1.641688     0.126436    -0.086153
H     -1.278515     0.537403     0.929859
H     -2.633449     0.094002    -0.410710
C     -0.891720     1.373664     0.045002
H     -1.488209     2.505114     0.637664
H     -0.144263     1.743587    -0.669753
6
Family_2 [H]C([H])=C([H])[H] | RMSD: 0.2204 | 740.00 to state    1 from traj    1 on state    2
C     -1.692368    -0.038009    -0.105362
H     -1.380229     0.296467     0.850724
H     -2.874604    -0.061145     0.155688
C     -0.862375     1.609101    -0.063672
H     -1.180066     2.438847     0.562500
H      0.144682     1.360028     0.441950
6
Family_2 [H]C([H])=C([H])[H] | RMSD: 0.3952 | 960.00 to state    1 from traj    1 on state    2
C     -1.715569     0.014529    -0.148830
H     -1.324288     0.102519     1.068134
H     -2.570548     0.221724     0.526967
C     -0.822392     1.532088    -0.048422
H     -1.739225     2.205444     0.256812
H      0.143880     1.796154     0.495201
6
Family_2 [H]C([H])=C([H])[H] | RMSD: 0.4475 | 2616.00 to state    1 from traj    1 on state    2
C     -1.619475     0.129660    -0.123648
H     -1.548162     0.391630     0.877572
H     -2.641608    -0.037079     0.059038
C     -0.925473     1.407106     0.068815
H     -1.244202     2.498047     0.119611
H      0.027040     1.590617    -0.406141
6
Family_2 [H]C([H])=C([H])[H] | RMSD: 0.3330 | 2952.00 to state    1 from traj    1 on state    2
C     -1.682937     0.051434    -0.135713
H     -1.441200     0.367755     1.235286
H     -2.601264    -0.241263     0.115717
C     -0.874298     1.540399    -0.008577
H     -1.334214     2.348193     0.350466
H      0.116160     1.312368     0.014561
6
Family_2 [H]C([H])=C([H])[H] | RMSD: 0.6601 | 2400.00 to state    1 from traj    1 on state    2
C     -1.586460     0.168763     0.009063
H     -1.686279    -0.089815     1.111030
H     -2.362270    -0.220833    -0.764261
C     -1.040854     1.521169    -0.134273
H     -0.484509     1.993479     0.999991
H      0.107578     0.935299     0.141927
6
Family_2 [H]C([H])=C([H])[H] | RMSD: 0.6924 | 2588.00 to state    1 from traj    1 on state    2
C     -1.526015     0.106885    -0.024640
H     -2.145011    -0.276655     0.599472
H     -2.620570     0.652062    -0.259597
C     -0.959515     1.426066     0.006895
H     -1.043683     2.571253     0.659258
H     -0.305667     1.542016    -0.790968
6
Family_2 [H]C([H])=C([H])[H] | RMSD: 0.5926 | 2580.00 to state    1 from traj    1 on state    2
C     -1.652923     0.238695    -0.050775
H     -0.995646     0.271337     1.015732
H     -2.389583    -0.308632    -0.740889
C     -0.952435     1.339323     0.020899
H     -1.318063     2.483366     0.478444
H      0.016176     1.505595    -0.400576
6
Family_2 [H]C([H])=C([H])[H] | RMSD: 0.7517 | 1136.00 to state    1 from traj    1 on state    2
C     -1.730998     0.213202    -0.124890
H     -1.516636     0.269878     1.104880
H     -1.463888    -0.811561     0.197926
C     -0.930849     1.431806    -0.033577
H     -1.187029     2.312179     0.208195
H      0.153544     1.382947     0.373954
6
Family_2 [H]C([H])=C([H])[H] | RMSD: 0.6975 | 4040.00 to state    1 from traj    1 on state    2
C     -1.528192     0.236834     0.039237
H     -1.478545    -0.515048     0.835290
H     -2.441359     0.279268    -0.815425
C     -1.029981     1.437475    -0.081716
H     -0.953483     2.319491     0.695550
H     -0.375959     0.720583    -0.212538
6
Family_2 [H]C([H])=C([H])[H] | RMSD: 0.8008 | 1036.00 to state    1 from traj    1 on state    2
C     -1.590410     0.042356    -0.062044
H     -2.073018    -0.142803     0.869410
H     -2.383101     0.854620    -0.119383
C     -0.863565     1.462009     0.030206
H     -1.307580     2.182879     0.591183
H     -0.727241     1.934596    -0.965123
6
Family_2 [H]C([H])=C([H])[H] | RMSD: 0.7169 | 1288.00 to state    1 from traj    1 on state    2
C     -1.628220     0.012049    -0.109217
H     -1.653543     0.408320     1.071049
H     -2.726352     0.369603    -0.187861
C     -0.828417     1.475780     0.064229
H     -1.126877     2.435587     0.593584
H     -0.952437     1.812832    -0.943992
6
Family_2 [H]C([H])=C([H])[H] | RMSD: 0.5186 | 2288.00 to state    1 from traj    1 on state    2
C     -1.673709     0.143226    -0.166745
H     -1.381470     0.346444     0.968005
H     -2.444008    -0.137939     0.576959
C     -0.877286     1.421193     0.029674
H     -1.645772     2.241788    -0.122169
H      0.136369     1.663416     0.207216
6
Family_2 [H]C([H])=C([H])[H] | RMSD: 0.3789 | 2200.00 to state    1 from traj    1 on state    2
C     -1.529050     0.144657    -0.090953
H     -1.780328     0.266050     1.058595
H     -2.774685     0.282791    -0.042209
C     -1.014566     1.425215    -0.037372
H     -0.762196     2.198675     0.588324
H     -0.105593     1.301224    -0.078918
6
Family_2 [H]C([H])=C([H])[H] | RMSD: 0.5259 | 2716.00 to state    1 from traj    1 on state    2
C     -1.692452     0.172349    -0.080476
H     -1.147658     0.488219     0.883668
H     -2.572581    -0.504760    -0.297788
C     -0.877939     1.424492     0.016760
H     -1.484873     2.131893     0.358863
H      0.101350     1.612030    -0.188799
6
Family_2 [H]C([H])=C([H])[H] | RMSD: 0.6238 | 1132.00 to state    1 from traj    1 on state    2
C     -1.601905     0.043386    -0.116053
H     -1.451940    -0.316740     0.812772
H     -2.300394     0.740149     0.599212
C     -0.947448     1.516539    -0.093969
H     -1.062353     2.658176     0.229679
H     -0.539750     1.085664     0.857603
6
Family_2 [H]C([H])=C([H])[H] | RMSD: 0.3880 | 2628.00 to state    1 from traj    1 on state    2
C     -1.601993     0.052752    -0.074103
H     -1.562138     0.430161     0.958085
H     -2.562337     0.599576    -0.174722
C     -0.950646     1.465024    -0.070717
H     -1.284669     2.148099     0.988576
H      0.093860     1.491649    -0.049583
6
Family_2 [H]C([H])=C([H])[H] | RMSD: 0.7250 | 572.00 to state    1 from traj    1 on state    2
C     -1.652021    -0.032931    -0.097862
H     -1.427995    -0.708852     0.638636
H     -2.301789     0.856159     0.605038
C     -0.896075     1.594053    -0.084088
H     -1.136285     2.724903     0.009104
H     -0.503357     1.280779     0.911994
6
Family_2 [H]C([H])=C([H])[H] | RMSD: 0.5041 | 2080.00 to state    1 from traj    1 on state    2
C     -1.636876    -0.007819    -0.102487
H     -1.646576     0.128261     1.100166
H     -2.753805     0.710888    -0.098768
C     -0.855233     1.476029     0.004237
H     -1.390081     2.353239     0.697391
H     -0.246084     2.067725    -0.531359
6
Family_2 [H]C([H])=C([H])[H] | RMSD: 0.5869 | 2096.00 to state    1 from traj    1 on state    2
C     -1.546359     0.118231    -0.081417
H     -1.612243     0.210646     1.030251
H     -2.785598     0.738963    -0.262167
C     -0.939816     1.390255     0.037802
H     -1.428231     2.307496     0.541759
H     -0.281178     1.523092    -0.793422
