12
Family_1 [H]c1c([H])c([H])c([H])c([H])c1[H] | RMSD: 0.4403 | 20435.00 to state    1 from traj    2 on state    2
C       0.34409487     -1.00832426     -0.44510329
C       1.62438603     -0.89359261      0.38439670
C       2.49745452      0.20096603     -0.04490359
C       1.86437204      1.42066010     -0.26677961
C       0.34011783      1.40022481      0.09669847
C      -0.21538364      0.06317883      0.41184633
H      -0.07318559     -1.96323756     -0.59148733
H       1.88453546     -1.79400487      0.91536706
H       3.47290856      0.11531031     -0.28798770
H       2.24636238      2.23134527     -0.77852467
H      -0.45819803      2.16174779     -0.07512772
H      -0.81593523      0.02912067      1.26083955
