12
Family_1 [H]c1c([H])c([H])c([H])c([H])c1[H] | RMSD: 0.5293 | 14125.00 to state    1 from traj    2 on state    2
C       0.35504057     -1.06730354     -0.24739123
C       1.71708144     -1.08730326      0.31287927
C       2.38286085      0.24387181     -0.10546587
C       1.76681272      1.47414089     -0.24906549
C       0.37687117      1.48043906     -0.00739912
C      -0.23231633      0.09841303      0.30219353
H       0.01115515     -1.74349768     -0.93107806
H       2.00116765     -1.84036149      1.04661763
H       3.25199374      0.20605614      0.38835300
H       2.46552944      2.23935493     -0.47176858
H      -0.22218582      2.16795986      0.50824213
H      -0.19435688      0.23758366      1.45656379
