12
Family_1 [H]c1c([H])c([H])c([H])c([H])c1[H] | RMSD: 0.5580 | 13935.00 to state    1 from traj    2 on state    2
C       0.36157766     -1.07523499     -0.33058431
C       1.69133968     -1.03146871      0.36718689
C       2.37114185      0.20217159     -0.09928659
C       1.72272035      1.46556844     -0.29668302
C       0.40491072      1.38573610      0.07371373
C      -0.20426261      0.18312600      0.28327588
H      -0.12536716     -1.85521813     -0.99536873
H       2.14869962     -1.67632504      1.10387812
H       3.39913975      0.29771475      0.49726930
H       2.34255120      2.31204820     -0.56183103
H      -0.15036907      2.20498857      0.67452875
H      -0.07587344      0.13115979      1.37531006
