12
Family_1 [H]c1c([H])c([H])c([H])c([H])c1[H] | RMSD: 0.5470 | 5540.00 to state    1 from traj    5 on state    2
C       0.20860320     -1.19467034     -0.26125914
C       1.65074567     -0.96657485      0.20035520
C       2.40337873      0.31847617     -0.06676962
C       1.81486337      1.46275387     -0.14570889
C       0.50975240      1.41682890      0.05562053
C      -0.19346800      0.10613015      0.26197557
H      -0.02301261     -2.30861576     -0.24739170
H       1.85037476     -1.32568294      1.20270730
H       3.65295387      0.12784614     -0.15451222
H       2.21598838      2.39007822     -0.44739540
H      -0.23410308      2.39265370     -0.04115296
H      -0.47687636     -0.01735673      1.22636748
