12
Family_1 [H]c1c([H])c([H])c([H])c([H])c1[H] | RMSD: 0.2413 | 7575.00 to state    1 from traj    6 on state    2
C       0.30014605     -1.00736196     -0.21473630
C       1.68355855     -0.95484700      0.16248195
C       2.44750386      0.24446097     -0.00671327
C       1.78439960      1.43077028     -0.17869594
C       0.43420569      1.18512765     -0.11201939
C      -0.18486859      0.17670039      0.52361800
H       0.03402814     -1.42540283     -1.13596479
H       1.86292396     -1.54074056      0.93936094
H       3.50362509      0.34132899     -0.21284600
H       2.18367332      2.33266569     -0.11019621
H      -0.19950445      2.15336052     -0.37884349
H      -1.24626578      0.20909136      0.89139409
