12
Family_1 [H]c1c([H])c([H])c([H])c([H])c1[H] | RMSD: 0.5588 | 3865.00 to state    1 from traj    2 on state    2
C       0.43842760     -0.93139877     -0.23113888
C       1.81611489     -1.10738423      0.41327693
C       2.33865266      0.17239063      0.02482950
C       1.62272408      1.32453098     -0.35413137
C       0.36627025      1.45554684      0.14175660
C      -0.24881455      0.20939802      0.18266998
H       0.26365195     -1.32092350     -1.27211494
H       2.47506168     -1.87738003      0.41717134
H       3.38758043      0.03946004     -0.39320514
H       2.13351386      2.24039012     -0.67371360
H      -0.08449798      2.39203677      0.50207546
H      -0.46908128      0.02198952      1.37303952
