12
Family_1 [H]c1c([H])c([H])c([H])c([H])c1[H] | RMSD: 0.3351 | 3995.00 to state    1 from traj    3 on state    2
C       0.40873328     -0.87854186     -0.20981634
C       1.77001228     -0.93152887      0.11815036
C       2.47295710      0.19466664      0.07900649
C       1.82384654      1.31290065     -0.35956480
C       0.37753319      1.21707599      0.03315277
C      -0.39570981      0.18277662      0.59062402
H       0.10485375     -0.74486303     -1.18596776
H       2.12384553     -1.79657798      0.71062786
H       3.46897615      0.35766232      0.15554929
H       2.27435146      2.23418193     -0.62190018
H      -0.24525726      1.75472422     -0.55325042
H      -1.49805676     -0.00291290      0.56298165
