12
Family_1 [H]c1c([H])c([H])c([H])c([H])c1[H] | RMSD: 0.2621 | 3195.00 to state    1 from traj    2 on state    2
C       0.30248252     -1.04045000     -0.31867239
C       1.60403202     -0.85988918      0.25182333
C       2.46687092      0.18219013     -0.04129116
C       1.89659769      1.42304893     -0.27373617
C       0.35607962      1.36339963     -0.02278446
C      -0.21684073      0.04919150      0.50702141
H       0.13367974     -1.65589371     -1.07118609
H       2.12127849     -1.40261650      1.26048943
H       3.51633128      0.15016399     -0.01664089
H       2.47138470      2.44114053     -0.40456762
H      -0.35331384      2.16044962      0.17326778
H      -1.08690124     -0.13103307      0.90440034
