12
Family_1 [H]c1c([H])c([H])c([H])c([H])c1[H] | RMSD: 0.5562 | 11850.00 to state    1 from traj    2 on state    2
C       0.42920322     -0.76586198      0.01527079
C       1.87582595     -1.00669164     -0.02596132
C       2.58480904      0.13877933     -0.01774209
C       1.71822252      1.35894232     -0.07325326
C       0.32023779      1.11651384     -0.23480193
C      -0.48001191      0.28375719      0.60953702
H      -0.15128503     -1.25049142     -0.87757263
H       2.29807100     -1.96535017      0.03607844
H       3.73134311      0.24409802      0.27034347
H       2.32373595      2.31748362     -0.10975543
H      -0.28084306      1.76419158     -0.89399203
H      -1.58404355      0.35757300      0.38679073
