12
Family_1 [H]c1c([H])c([H])c([H])c([H])c1[H] | RMSD: 0.5278 | 25160.00 to state    1 from traj    2 on state    2
C       0.35340948     -1.06947144     -0.07076234
C       1.81438937     -0.99261791      0.11642698
C       2.48272395      0.16149659      0.05785955
C       1.72903247      1.29779307     -0.28625849
C       0.25567006      1.42994850     -0.08116672
C      -0.21053655      0.21695766      0.44399026
H       0.43160822     -0.54771962     -1.10678986
H       2.15150720     -2.05631578      0.08120418
H       3.53332195      0.18288540      0.32010067
H       2.01526937      2.24774064     -0.02103494
H      -0.40038706      2.23626817     -0.33119276
H      -1.11315722      0.37377848      0.97728598
