12
Family_1 [H]c1c([H])c([H])c([H])c([H])c1[H] | RMSD: 0.3584 | 14145.00 to state    1 from traj    7 on state    2
C       0.44381386     -0.71503093     -0.26496018
C       1.78729908     -0.95336041      0.32994312
C       2.56155606      0.10546797     -0.08854473
C       1.69960802      1.26121292     -0.30962848
C       0.37115377      1.28277572      0.15367735
C      -0.36283058      0.11389043      0.46164048
H       0.40835306     -0.82174901     -1.36410028
H       1.77747406     -1.79425132      1.07987983
H       3.54734716      0.35371646     -0.12901604
H       1.79973536      2.05269749     -1.12902710
H      -0.20718633      2.13725033     -0.19198899
H      -1.61209666     -0.09692957      0.43797049
