12
Family_1 [H]c1c([H])c([H])c([H])c([H])c1[H] | RMSD: 0.4024 | 9820.00 to state    1 from traj    3 on state    2
C       0.40905634     -1.00409443     -0.39206703
C       1.65734115     -0.98674522      0.32626895
C       2.34337568      0.21476664     -0.03047651
C       1.75989698      1.40247940     -0.19395499
C       0.43024287      1.43910407     -0.04504512
C      -0.14336094      0.07620625      0.45870991
H      -0.14448119     -1.99394094     -0.74980413
H       1.92542181     -1.60207419      1.06562606
H       3.31226252      0.26344537     -0.50214523
H       2.44560589      2.32094187     -0.38694776
H      -0.26394960      2.19295280     -0.00302382
H      -1.03636967      0.09222051      1.17093907
