12
Family_1 [H]c1c([H])c([H])c([H])c([H])c1[H] | RMSD: 0.4784 | 6825.00 to state    1 from traj    2 on state    2
C       0.41909402     -1.05134667     -0.38214771
C       1.72521477     -1.11248541      0.39928986
C       2.33727560      0.19580041     -0.09018035
C       1.72250102      1.45862048     -0.19790809
C       0.43083455      1.51355937      0.13086389
C      -0.12521903      0.12839756      0.31815062
H      -0.38405513     -1.96103851     -0.64984425
H       2.05112974     -1.36685380      1.39061212
H       3.08376429      0.23591572     -0.89472404
H       2.43184330      2.32751315     -0.51474940
H      -0.33831826      2.13057756     -0.04660615
H      -1.23917870      0.01670959      0.65896681
