12
Family_1 [H]c1c([H])c([H])c([H])c([H])c1[H] | RMSD: 0.1941 | 7595.00 to state    1 from traj    2 on state    2
C       0.36918404     -0.87955470     -0.29395837
C       1.68605921     -0.92633294      0.30378454
C       2.54017499      0.25684476     -0.14586977
C       1.84777228      1.33953362     -0.27058051
C       0.43251628      1.25011075      0.06580914
C      -0.44741328      0.05709103      0.47953132
H       0.21456129     -1.54242402     -1.34752131
H       2.13796655     -1.43888472      1.27473704
H       3.58530856      0.18626406      0.07394056
H       2.34454279      2.24130294     -0.55058767
H      -0.25911165      2.04554754     -0.03130110
H      -1.44805806      0.30631738      0.99329168
