12
Family_1 [H]c1c([H])c([H])c([H])c([H])c1[H] | RMSD: 0.2388 | 13025.00 to state    1 from traj    2 on state    2
C       0.36169393     -0.99979724     -0.34526662
C       1.63913717     -1.00170132      0.36887602
C       2.44052543      0.21109289     -0.11940867
C       1.81913425      1.46025244     -0.31739017
C       0.40248228      1.39448006      0.11671744
C      -0.23049051      0.04823439      0.45874609
H       0.42272845     -1.54453456     -1.23337835
H       1.89641758     -1.59208393      1.29542229
H       3.41824864      0.00020757      0.01619888
H       2.25966808      2.46928398     -0.72679142
H      -0.25687628      2.28417288     -0.02787165
H      -1.21489206      0.00390668      0.80827296
