12
Family_1 [H]c1c([H])c([H])c([H])c([H])c1[H] | RMSD: 0.3862 | 4820.00 to state    1 from traj    3 on state    2
C       0.40239342     -1.14205078     -0.07757326
C       1.77664712     -0.96974024      0.23999595
C       2.46551308      0.12357038     -0.14209856
C       1.73430427      1.37113548     -0.21320138
C       0.30552312      1.40038019      0.08413594
C      -0.28428963      0.27652034      0.33144631
H       0.46574580     -0.57757524     -1.19117535
H       2.34351359     -1.83423454      0.71343893
H       3.55400114      0.20607979      0.00949766
H       2.34838935      2.22523676     -0.46758310
H      -0.34669001      2.21716284     -0.00013705
H      -1.45370281      0.01278538      0.34773651
