12
Family_1 [H]c1c([H])c([H])c([H])c([H])c1[H] | RMSD: 0.4300 | 5855.00 to state    1 from traj    5 on state    2
C       0.35340630     -1.08847042      0.08208992
C       1.90056080     -1.04082524      0.10211310
C       2.53920977      0.13547323     -0.10773772
C       1.73426985      1.37195069     -0.12545241
C       0.33273436      1.39944261     -0.10735822
C      -0.44941417      0.25877216      0.31074397
H       0.43731588     -0.67495824     -1.00188146
H       2.37494811     -1.83481070      0.62381424
H       3.54095298      0.27509727     -0.19300244
H       2.27726565      2.31969532     -0.07889351
H      -0.26846465      2.26627920      0.25038914
H      -1.57796701      0.17784085      0.62526818
