12
Family_1 [H]c1c([H])c([H])c([H])c([H])c1[H] | RMSD: 0.3552 | 8400.00 to state    1 from traj    5 on state    2
C       0.34232886     -0.95040468     -0.26876270
C       1.68098721     -0.97483447      0.22656343
C       2.52347387      0.26680477     -0.09421879
C       1.85993652      1.36278477     -0.17869797
C       0.35605507      1.35332435     -0.09360651
C      -0.37300710      0.07943199      0.51821241
H      -0.05589228     -1.62548308     -1.07675518
H       2.22759497     -1.60640621      0.91988123
H       3.47871035      0.23263685      0.23818388
H       2.46509233      2.20793268     -0.28250450
H      -0.25445583      2.11554993     -0.39880160
H      -0.82685916      0.00424615      1.36080843
