12
Family_1 [H]c1c([H])c([H])c([H])c([H])c1[H] | RMSD: 0.4466 | 8055.00 to state    1 from traj    6 on state    2
C       0.30978327     -1.13160156     -0.18197454
C       1.74897303     -1.04573350      0.22568064
C       2.55076491      0.18198248      0.07326445
C       1.68782900      1.35200195     -0.41292860
C       0.28726461      1.43139451      0.13875345
C      -0.21322217      0.26366317      0.36425687
H       0.78128405     -0.65768313     -1.19953859
H       2.19204375     -1.99314421      0.62591819
H       3.55662507      0.38551894      0.03044822
H       2.15068270      2.27527305     -0.81135960
H      -0.09864130      2.39177317      0.31718765
H      -1.32877239     -0.05566675      0.63563457
