12
Family_1 [H]c1c([H])c([H])c([H])c([H])c1[H] | RMSD: 0.3496 | 7675.00 to state    1 from traj    7 on state    2
C       0.38615940     -0.96351473     -0.14015443
C       1.74633756     -0.99035162      0.15016909
C       2.51798026      0.21074071     -0.12381578
C       1.91174398      1.43932409     -0.19348794
C       0.36318749      1.29170942      0.05724290
C      -0.47466924      0.07631473      0.33039720
H       0.08387425     -1.74724630     -0.69097561
H       1.74783957     -0.77503850      1.20402046
H       3.59583758     -0.03963886      0.01526937
H       2.33703262      2.33798153     -0.76415298
H      -0.15141667      2.26736835      0.39137303
H      -1.30541618      0.15351358      0.95248696
