12
Family_1 [H]c1c([H])c([H])c([H])c([H])c1[H] | RMSD: 0.4756 | 8455.00 to state    1 from traj    4 on state    2
C       0.43233425     -1.08576202     -0.03325984
C       1.81609395     -1.07422476      0.24988249
C       2.39788301      0.14110063     -0.09800149
C       1.68659749      1.37594473     -0.16392038
C       0.27761900      1.47526298     -0.02940470
C      -0.23395156      0.24576581      0.26942642
H       0.50285211     -0.58512554     -1.10284755
H       2.49825298     -1.97726753      0.46788297
H       3.48873560     -0.04281848     -0.24023989
H       2.23189199      2.16448543     -0.32125061
H      -0.24278046      2.33837748      0.12481568
H      -1.28749531      0.13408027      0.81684736
