12
Family_1 [H]c1c([H])c([H])c([H])c([H])c1[H] | RMSD: 0.1988 | 16770.00 to state    1 from traj    3 on state    2
C       0.32383058     -1.08765431     -0.32837826
C       1.77757317     -1.04511117      0.23129985
C       2.50046754      0.21678453     -0.10566639
C       1.79883438      1.42210486     -0.26290225
C       0.41197561      1.41253657      0.00071077
C      -0.31997359      0.11722304      0.56840078
H      -0.07077251     -1.49594962     -1.14810468
H       1.70110104     -1.29897170      1.26423789
H       3.49686862      0.47295649      0.42667372
H       2.34221440      2.37352913     -0.29654228
H      -0.28574231      2.27506261     -0.25689777
H      -1.37599804      0.20799226      0.84324173
