12
Family_1 [H]c1c([H])c([H])c([H])c([H])c1[H] | RMSD: 0.3267 | 5560.00 to state    1 from traj    9 on state    2
C       0.43613766     -0.69006209     -0.23991446
C       1.86974074     -1.01449373      0.23997801
C       2.49571203      0.09229921      0.03499311
C       1.68489461      1.27784804     -0.33503599
C       0.34515782      1.24797978     -0.03137529
C      -0.38844164      0.15468002      0.53657908
H       0.25953187     -0.78074532     -1.18147208
H       2.02107282     -1.86104999      0.61721563
H       3.66992984      0.31792299      0.02300079
H       1.88397272      2.31515129     -0.46607002
H      -0.12331539      2.10782887     -0.28408264
H      -1.31361754      0.04982812      0.91147842
