12
Family_1 [H]c1c([H])c([H])c([H])c([H])c1[H] | RMSD: 0.4325 | 6950.00 to state    1 from traj    2 on state    2
C       0.50700561     -0.96748843     -0.44452442
C       1.65110735     -0.86314115      0.48206321
C       2.38789866      0.10708042     -0.18859698
C       1.68005618      1.25594561     -0.23472935
C       0.39821735      1.42920840      0.05254842
C      -0.24779027      0.06691290      0.45573657
H       0.46241739     -0.78396087     -1.47480394
H       1.82786399     -1.24343102      1.43978248
H       3.40706187      0.24607324     -0.35954496
H       2.32051102      2.05580085     -0.37604035
H      -0.10844421      2.45874917     -0.02816985
H      -0.71698472     -0.11084414      1.40459497
