12
Family_1 [H]c1c([H])c([H])c([H])c([H])c1[H] | RMSD: 0.4424 | 11075.00 to state    1 from traj    5 on state    2
C       0.25350581     -1.17317332     -0.35803355
C       1.68005997     -0.90680063      0.36010981
C       2.52896828      0.23769024     -0.08342837
C       1.77197914      1.39902331     -0.23673195
C       0.37260294      1.50570723      0.07283833
C      -0.21154368      0.10903907      0.32596567
H      -0.16993866     -2.03056283     -0.89632011
H       2.03656986     -1.66477882      1.10474022
H       3.54283910      0.09523015     -0.20160655
H       2.36959188      2.26120759     -0.36404483
H      -0.15460973      2.37674319      0.17941407
H      -0.65934943     -0.11901392      1.28144265
