12
Family_1 [H]c1c([H])c([H])c([H])c([H])c1[H] | RMSD: 0.5466 | 3965.00 to state    1 from traj    2 on state    2
C       0.45808555     -1.01717258     -0.27165105
C       1.76234227     -1.01494816      0.41224400
C       2.24918790      0.12165994      0.01041492
C       1.65002365      1.39031515     -0.37639299
C       0.43541968      1.53086473      0.16127458
C      -0.19924283      0.14989588      0.19683896
H       0.20235859     -1.61773051     -1.02641202
H       2.31560214     -1.92041251      0.61673672
H       3.26026626     -0.01583259     -0.33427166
H       2.22202645      2.33125613     -0.55006560
H      -0.14346385      2.41078982      0.52277822
H      -0.41796410     -0.13971041      1.25514375
