12
Family_1 [H]c1c([H])c([H])c([H])c([H])c1[H] | RMSD: 0.6058 | 15305.00 to state    1 from traj    9 on state    2
C       0.36306345     -0.81851465      0.00791102
C       1.88032476     -0.94738999     -0.03553318
C       2.64537573      0.17256885      0.04232293
C       1.79677565      1.33373762     -0.10106038
C       0.32787237      1.18655340     -0.26983366
C      -0.53840648      0.20672637      0.64194988
H      -0.12573419     -1.16928043     -0.88314263
H       2.33510380     -1.91993765     -0.12499563
H       3.71852096     -0.05920686      0.03145524
H       2.08893246      2.41614625      0.02687234
H      -0.33421424      1.74088925     -0.93118283
H      -1.66400373      0.36067851      0.54146898
