12
Family_1 [H]c1c([H])c([H])c([H])c([H])c1[H] | RMSD: 0.6069 | 16400.00 to state    1 from traj    2 on state    2
C       0.48346487     -0.91443222     -0.27320830
C       1.74310482     -1.17523414      0.41024914
C       2.34971556      0.14043031     -0.01083502
C       1.73367198      1.39528783     -0.27142704
C       0.20112552      1.48363622     -0.03889087
C      -0.16335431      0.17663758      0.33088842
H       0.26149991     -1.45971691     -1.16050644
H       2.42361156     -1.95057896      0.15685536
H       3.31905816      0.12419951     -0.17029590
H       2.29520789      2.35581160     -0.40057510
H      -0.36693509      2.41037003      0.24749119
H      -0.39724561      0.21516917      1.64355001
