12
Family_1 [H]c1c([H])c([H])c([H])c([H])c1[H] | RMSD: 0.5969 | 3665.00 to state    1 from traj    2 on state    2
C       0.38766379     -0.68481323     -0.16110488
C       1.78624626     -0.96912711      0.05116952
C       2.56517711      0.23014618      0.10220477
C       1.80089077      1.35725296     -0.22279152
C       0.35785523      1.02811291     -0.10333902
C      -0.44674587      0.18991773      0.65309876
H       0.02411178     -1.43376125     -0.73242613
H       2.31777969     -1.73907898     -0.30922754
H       3.62301703      0.07887615      0.43199112
H       2.23162423      2.03150025     -0.92845410
H      -0.30021373      1.73491882     -0.66118328
H      -1.59271259      0.48464176      0.46082624
