12
Family_1 [H]c1c([H])c([H])c([H])c([H])c1[H] | RMSD: 0.5158 | 8355.00 to state    1 from traj    9 on state    2
C       0.29089521     -1.20924629     -0.30719814
C       1.60546158     -0.97716379      0.33534836
C       2.37541185      0.21387446     -0.18693447
C       1.78026271      1.52561032     -0.10317274
C       0.44011516      1.49944572      0.05033019
C      -0.02067095      0.06325073      0.23547305
H      -0.27906432     -2.12044295     -0.14562110
H       1.77450360     -1.50526119      1.30371057
H       3.42255263      0.19667347     -0.10754929
H       2.31124650      2.52907788     -0.38968881
H      -0.38687499      2.32861773      0.07170431
H      -0.78169715      0.15403915      1.04875820
