12
Family_1 [H]c1c([H])c([H])c([H])c([H])c1[H] | RMSD: 0.3484 | 10795.00 to state    1 from traj    4 on state    2
C       0.36082144     -1.02724785     -0.29865338
C       1.69205396     -0.97337243      0.29113124
C       2.55202214      0.22728244     -0.02029906
C       1.74000335      1.40504885     -0.24312302
C       0.39203672      1.35579546      0.04225946
C      -0.26694250      0.15067652      0.43095612
H       0.27325775     -1.18218714     -1.29021128
H       1.64758755     -1.71875900      0.93180376
H       3.50300575     -0.09884728     -0.20516967
H       1.95627928      2.16021599     -0.93091956
H      -0.27069971      2.19087330     -0.17782596
H      -1.03112367     -0.03564390      1.32758124
