12
Family_1 [H]c1c([H])c([H])c([H])c([H])c1[H] | RMSD: 0.3033 | 14625.00 to state    1 from traj    5 on state    2
C       0.31367217     -1.02138468     -0.35083951
C       1.70285347     -0.89252230      0.24744470
C       2.40478655      0.23779474      0.02708480
C       1.76170016      1.37677576     -0.38845652
C       0.46976361      1.32532471      0.17879079
C      -0.18005621      0.06086094      0.37818254
H      -0.05934886     -1.65186369     -1.09614513
H       1.49648820     -1.02330664      1.43726962
H       3.43945977      0.17713737      0.08812844
H       2.28535786      2.08621603     -0.76345914
H      -0.01817038      2.26617826      0.24970382
H      -1.09794555      0.07296786      1.05125402
