12
Family_1 [H]c1c([H])c([H])c([H])c([H])c1[H] | RMSD: 0.5523 | 13185.00 to state    1 from traj    2 on state    2
C       0.43701566     -1.00542533     -0.10012517
C       1.75832087     -1.04051897      0.31724972
C       2.43992995      0.16206551     -0.07961910
C       1.69872017      1.38895208     -0.20367744
C       0.37543902      1.48595071      0.00688223
C      -0.35991070      0.13267789      0.18117501
H       0.01169611     -1.53407585     -1.03197971
H       2.33456573     -1.96129795      0.61347818
H       3.49290429      0.04199318     -0.50226236
H       2.17845668      2.42531841     -0.16217452
H      -0.17051060      2.33335803      0.28695252
H      -0.33320322      0.18290827      1.40909883
