12
Family_1 [H]c1c([H])c([H])c([H])c([H])c1[H] | RMSD: 0.5024 | 2555.00 to state    1 from traj    2 on state    2
C       0.42072207     -1.05566560      0.03925635
C       1.82412289     -1.03093611      0.14005742
C       2.48145474      0.11876192     -0.03387241
C       1.65513698      1.33260031     -0.22249684
C       0.30533471      1.38195101     -0.02276052
C      -0.32186224      0.26994450      0.34420679
H       0.58453567     -0.53232485     -1.35217426
H       2.47975014     -1.92834464      0.16804511
H       3.48534882      0.25504249      0.07505160
H       2.25478657      2.31613557     -0.26945396
H      -0.15270981      2.33678859     -0.09438237
H      -1.32123429      0.31643053      0.62629073
