12
Family_1 [H]c1c([H])c([H])c([H])c([H])c1[H] | RMSD: 0.4712 | 3475.00 to state    1 from traj    8 on state    2
C       0.32689771     -1.12166326     -0.01710977
C       1.76350819     -0.95346925      0.19622061
C       2.52283463      0.17262274     -0.06471455
C       1.73257889      1.35576894     -0.24765421
C       0.35382693      1.40212305      0.03948540
C      -0.38171407      0.18965136      0.29786084
H       0.83011765     -0.90513239     -1.45488637
H       2.35823892     -1.81863574      0.28466593
H       3.56738249      0.18702905      0.13137960
H       2.30317886      2.36346689     -0.50852546
H      -0.07750519      2.26065325      0.14951193
H      -1.09117448      0.33820906      1.03146236
