12
Family_1 [H]c1c([H])c([H])c([H])c([H])c1[H] | RMSD: 0.5585 | 3085.00 to state    1 from traj    8 on state    2
C       0.26535425     -1.15406084     -0.28859846
C       1.65011774     -0.88787718      0.18792797
C       2.55199122      0.25981761     -0.07455797
C       1.81930641      1.36583205     -0.11803593
C       0.42262841      1.45519782      0.02070437
C      -0.30129402      0.07091418      0.28279655
H      -0.21644305     -1.99607860     -0.01783539
H       1.88560172     -1.11749020      1.21071242
H       3.59131165      0.12765075     -0.16211769
H       2.18941017      2.31803933     -0.53551217
H      -0.17309566      2.35200750      0.09894381
H      -0.46100370     -0.03055601      1.34929181
