12
Family_1 [H]c1c([H])c([H])c([H])c([H])c1[H] | RMSD: 0.4685 | 5595.00 to state    1 from traj    3 on state    2
C       0.35950414     -0.93971450     -0.19555794
C       1.70025657     -0.94865914      0.21373051
C       2.50461841      0.21183475      0.04281259
C       1.88026735      1.39163965     -0.26542585
C       0.24433858      1.36530904      0.01533311
C      -0.30704107      0.05429460      0.48195946
H      -0.05632384     -1.09359481     -1.38645885
H       2.17878415     -1.85479536      0.39832895
H       3.64102531     -0.04235812     -0.07011731
H       2.35050258      2.29474405     -0.69285179
H      -0.12720870      1.96273036     -0.91011075
H      -0.85928383      0.09037569      1.23714018
