12
Family_1 [H]c1c([H])c([H])c([H])c([H])c1[H] | RMSD: 0.3905 | 7020.00 to state    1 from traj    3 on state    2
C       0.35610747     -0.99390166     -0.19440229
C       1.75741934     -1.02258791      0.18629636
C       2.51142594      0.21919090     -0.07604584
C       1.80775470      1.41505593     -0.32292704
C       0.42637090      1.28310300      0.21927226
C      -0.30828209      0.16592651      0.33747152
H      -0.27451973     -1.72018279     -0.78064938
H       1.55755251     -0.66142722      1.24332614
H       3.48182345      0.11005376      0.11616783
H       2.19215393      2.33325622     -0.72097137
H      -0.37714414      2.13132805      0.33056558
H      -1.46435919     -0.02664190      0.09366017
