12
Family_1 [H]c1c([H])c([H])c([H])c([H])c1[H] | RMSD: 0.5224 | 8675.00 to state    1 from traj   18 on state    2
C       0.33027758     -1.10477856     -0.02381348
C       1.82796464     -1.00743370      0.10378515
C       2.47781637      0.18939637      0.00535305
C       1.74866123      1.35610658     -0.18027710
C       0.31468105      1.34524387     -0.05185622
C      -0.32828317      0.24481082      0.38950718
H       0.55839298     -0.75613556     -0.93170200
H       2.26859342     -1.95183889     -0.03314223
H       3.61228065      0.31848465      0.03809084
H       2.18795810      2.32085236     -0.32756633
H      -0.17028522      2.19535281     -0.44815123
H      -1.20044179      0.55730423      0.87601185
