12
Family_1 [H]c1c([H])c([H])c([H])c([H])c1[H] | RMSD: 0.4361 | 7995.00 to state    1 from traj   13 on state    2
C       0.32642184     -1.05164517      0.01683055
C       1.83130735     -1.01870184      0.14473499
C       2.51204754      0.19194244     -0.02249548
C       1.72704035      1.28444598     -0.27939092
C       0.29441198      1.49124928     -0.00295841
C      -0.31736181      0.14216917      0.33169951
H       0.43318719     -0.63133741     -1.37655666
H       2.27439039     -1.99981302      0.46643317
H       3.50744717      0.33759749      0.34114791
H       2.24201506      2.25886831     -0.52519639
H       0.04646545      2.51934585      0.16387668
H      -1.27977015      0.00734351      0.75059902
