12
Family_1 [H]c1c([H])c([H])c([H])c([H])c1[H] | RMSD: 0.5447 | 8710.00 to state    1 from traj    2 on state    2
C       0.50976220     -0.98045167     -0.42830205
C       1.57166301     -0.91467895      0.46231451
C       2.27397713      0.15381955     -0.04804763
C       1.65728191      1.29045934     -0.47409460
C       0.42495227      1.41529695      0.19253674
C      -0.13287080      0.11046166      0.37693084
H       0.71473425     -0.72494649     -1.40322052
H       2.00405175     -1.54416945      1.29836100
H       3.35844532      0.31800546      0.19823017
H       2.19913948      2.19782066     -0.88954404
H       0.47189362      2.25071037      0.73076103
H      -0.70113788     -0.42779111      1.16167560
