12
Family_1 [H]c1c([H])c([H])c([H])c([H])c1[H] | RMSD: 0.2468 | 6580.00 to state    1 from traj    2 on state    2
C       0.40587521     -0.78768504     -0.23905307
C       1.83044141     -1.02193004      0.17641681
C       2.54929078      0.20406241      0.02489198
C       1.70907410      1.28144780     -0.38376244
C       0.35861278      1.26645978      0.07575628
C      -0.45065964      0.17245805      0.45452364
H       0.10250859     -1.20238016     -1.25211123
H       2.15873872     -1.52694418      1.05431745
H       3.65608725      0.09363839      0.47193116
H       2.22678255      2.07953796     -0.61781916
H      -0.13847805      2.14763982     -0.05141126
H      -1.12468675      0.00262989      1.16444496
