12
Family_1 [H]c1c([H])c([H])c([H])c([H])c1[H] | RMSD: 0.5541 | 7855.00 to state    1 from traj    5 on state    2
C       0.28542478     -1.13950658     -0.44009219
C       1.60191807     -0.95449012      0.41241804
C       2.45325571      0.31931742     -0.01166512
C       1.75095393      1.42890861     -0.32320537
C       0.44705785      1.48630605      0.13364919
C      -0.12052907      0.02440263      0.31271924
H      -0.17143667     -2.09602555     -0.32774865
H       1.79283044     -1.98038322      0.84805567
H       3.45404888      0.23912018     -0.22859148
H       2.43844170      2.19512142     -0.77406883
H      -0.12559938      2.48526731      0.37135236
H      -0.69138953      0.15374766      1.17764199
