12
Family_1 [H]c1c([H])c([H])c([H])c([H])c1[H] | RMSD: 0.4212 | 8615.00 to state    1 from traj    2 on state    2
C       0.31433197     -1.02817997      0.06162374
C       1.87934152     -1.00434648      0.09754752
C       2.49579517      0.13478671     -0.10225377
C       1.72724044      1.31533236     -0.10714354
C       0.28420172      1.41430780     -0.13049342
C      -0.33859917      0.21251106      0.32445894
H       0.52317487     -0.84912644     -1.10562852
H       2.42480245     -1.74889337      0.52561690
H       3.53539762      0.25166475      0.07220777
H       2.40972025      2.28682945      0.00400912
H      -0.18212962      2.45707335     -0.09697852
H      -1.34953755      0.03545498      0.95347852
