12
Family_1 [H]c1c([H])c([H])c([H])c([H])c1[H] | RMSD: 0.3957 | 26695.00 to state    1 from traj    6 on state    2
C       0.32314527     -0.90962121     -0.33440989
C       1.80524596     -0.91267976      0.27049455
C       2.61202746      0.18276100     -0.08343063
C       1.79763831      1.34311666     -0.14829683
C       0.32169309      1.17331702     -0.14314016
C      -0.38458274      0.20781825      0.63721635
H      -0.29668626     -1.33931091     -1.08182534
H       2.22168386     -1.92223743      0.40979788
H       3.61756997      0.34144672      0.27213912
H       2.13107980      2.38552505     -0.32524021
H      -0.30449077      2.02490891     -0.54852571
H      -1.35248049      0.46246295      0.97464450
