12
Family_1 [H]c1c([H])c([H])c([H])c([H])c1[H] | RMSD: 0.3441 | 6620.00 to state    1 from traj    3 on state    2
C       0.38370998     -0.78677148     -0.28157148
C       1.85042207     -0.98251392      0.19575882
C       2.45820103      0.13868035      0.05594108
C       1.72250262      1.27646883     -0.31561900
C       0.32812813      1.25941631     -0.01888991
C      -0.27594494      0.19163426      0.59839619
H       0.28146295     -0.82734325     -1.19863131
H       2.16208423     -1.97657881      0.70716396
H       3.47209288      0.28104942      0.29096397
H       2.13252797      2.16543960     -0.78896059
H      -0.51653986      1.93500469     -0.32748333
H      -1.41785760      0.22982415      0.59395028
