12
Generated by script
C 0.2979827278 -1.0160544096 0.1779212643
C 1.7436534825 -1.0213626594 -0.1301163229
C 2.4301935323 0.2257003103 0.2684179372
C 1.7276848526 1.4327978011 0.045809742
C 0.3440013775 1.3829005875 -0.1444318242
C -0.3911018221 0.1989064978 -0.041484205
H -0.2350672544 -1.8955233137 0.4916690239
H 1.8389903099 -1.1061224206 -1.2159901294
H 3.4372728836 0.2427404388 0.644375564
H 2.2121879856 2.3887298482 0.1267695823
H -0.1912507532 2.3093580917 -0.2486145434
H -1.4647577731 0.2464235697 -0.0282827637
