12
Generated by script
C 0.3306909833 -1.053033229 0.0846803962
C 1.7339997259 -1.0479660352 -0.0915227634
C 2.3952426841 0.1782188413 -0.2007923513
C 1.740920443 1.4052349007 -0.062783532
C 0.337849673 1.4145088475 0.1142238009
C -0.3855644379 0.1872784873 -0.2808633106
H -0.1742858151 -1.9451750386 0.4088037556
H 2.3113541264 -1.9529138037 -0.0342708804
H 3.4686526929 0.1758921667 -0.2621505325
H 2.3240880754 2.3047722067 0.0144240873
H -0.1623621141 2.3025363759 0.4567021237
H -0.4692084729 0.2008143603 -1.3706249955
