12
Generated by script
C 0.4206179344 -1.0056506657 -0.0973131583
C 1.8325309787 -0.9694257398 -0.1714997652
C 2.4856967708 0.2772567101 0.2802890908
C 1.7594879596 1.4966486063 -0.1327422799
C 0.3480547657 1.4462874812 -0.0604667615
C -0.2803119759 0.1995227796 -0.0009053802
H -0.1263338074 -1.9220598107 -0.2249164994
H 2.3843880056 -1.8386311419 -0.4812681138
H 2.4902468165 0.2604298178 1.3732178363
H 2.2583369773 2.4062633314 -0.4151703168
H -0.2522384271 2.3325910872 -0.1575367393
H -1.3548157132 0.1678835665 -0.0163685289
