12
Generated by script
C 0.3555764922 -1.0509448352 0.0056984978
C 1.7482992158 -0.9932315435 -0.092878575
C 2.4671764511 0.1965406159 0.0495652098
C 1.7566756534 1.4083343422 0.2146856587
C 0.3361900434 1.4012054049 -0.1949313655
C -0.3671980531 0.1536378875 0.1703552786
H -0.1276039817 -2.009359299 0.0624849979
H 2.2952818414 -1.9168887118 -0.151751885
H 3.5378974522 0.1560782098 0.1345869977
H 2.260684743 2.2931118203 0.5597868565
H 0.3163881878 1.4739526418 -1.285452021
H -1.3938570684 0.1334846381 0.4892042365
