12
Generated by script
C 0.3665731833 -1.0505981855 0.1033439048
C 1.7906270148 -1.0299519772 -0.2924613104
C 2.4794821006 0.2222325822 0.0861024851
C 1.7481312193 1.4210699389 -0.0835822534
C 0.357145256 1.3518351752 -0.197414639
C -0.3528984856 0.1558238572 -0.0638520609
H -0.132092449 -1.9393052496 0.4460659433
H 1.8223574614 -1.0971948874 -1.382901535
H 3.5043668794 0.2502733036 0.4098325726
H 2.2224723636 2.3835131806 -0.0203638228
H -0.1971829749 2.2711393176 -0.2558328362
H -1.424582391 0.1873613414 0.0136381508
