12
Generated by script
C 0.3708222107 -0.9541881551 0.0465033964
C 1.7582701097 -0.9857960276 -0.1186703303
C 2.4628979861 0.2377518658 -0.2029775027
C 1.7679089477 1.4358156231 0.3140874883
C 0.3288304008 1.4656766299 -0.0233887197
C -0.3630616346 0.2348166748 0.0543523172
H -0.1655420732 -1.8858856327 0.0449922912
H 2.2441036165 -1.9290566311 -0.2901204412
H 3.4784298135 0.2593510111 -0.5551412089
H 1.8398486345 1.4023591468 1.4043277116
H -0.1983959336 2.3748103062 -0.2499825123
H -1.4364072799 0.1898268478 0.0188581975
