12
Generated by script
C 0.4063687637 -1.0033497574 0.0721403473
C 1.8032920152 -1.0192776573 0.0412260993
C 2.4972950394 0.207193612 -0.0815281948
C 1.7391653244 1.4309513204 0.2540054398
C 0.3423745424 1.3979815647 -0.2284579964
C -0.339587664 0.1648760341 -0.1042370684
H -0.1148299456 -1.9431816126 0.1010686692
H 2.3176208152 -1.9624871093 0.0081610809
H 3.5376629002 0.219713698 -0.3528528341
H 1.7014862751 1.4966879924 1.3444486535
H -0.1674379691 2.2673141149 -0.6031278321
H -1.4028351259 0.0928970559 -0.2441914053
