12
Generated by script
C 0.2760726603 -0.9638690369 0.0741947638
C 1.6602044006 -0.9204667175 0.3314226164
C 2.372394076 0.2242009867 -0.0746467687
C 1.6719457638 1.3948847811 -0.4006440146
C 0.4106640688 1.2740823932 0.2924327712
C -0.4086331253 0.2177069969 -0.2534033798
H -0.2483057042 -1.9022263293 0.1111171064
H 2.1841750783 -1.8088818724 0.6229137775
H 3.4436179468 0.1887536204 -0.1629001791
H 2.0001552207 2.212088797 -1.0079749202
H 0.2629397281 1.6605852645 1.2982796555
H -1.325182136 0.3208793162 -0.7951063814
