12
Generated by script
C 0.3799787368 -0.9393355905 -0.2640038913
C 1.7761840242 -0.9648959244 -0.0792946127
C 2.4694767455 0.2353787657 0.14496386
C 1.6169560946 1.2566274179 -0.4173597345
C 0.395471176 1.412732088 0.3375878477
C -0.3157590332 0.2242276616 0.1168360149
H -0.1534952603 -1.8436957822 -0.4788660935
H 2.3029705157 -1.9027475253 -0.0939216849
H 3.4190742009 0.3709563797 0.618169038
H 1.705186258 1.5812165441 -1.4515994237
H 0.092150889 2.2666302022 0.9064393731
H -1.3810187102 0.1918320833 0.261050251
