12
Generated by script
C 0.2923976092 -0.9692390325 0.0789886874
C 1.7258266824 -0.9934920454 -0.280273953
C 2.4554720026 0.2262679353 0.1252182052
C 1.7701679386 1.4536071881 -0.0254903171
C 0.3793774761 1.4377546077 -0.162498503
C -0.3775823097 0.2660542863 -0.0757973251
H -0.2502908174 -1.850317522 0.3701786315
H 1.7797593554 -1.0492716008 -1.3710179749
H 3.4777566547 0.2109780481 0.4570931886
H 2.2781302991 2.3964473698 0.0660490944
H -0.1398242522 2.3783959184 -0.2041840829
H -1.4484411817 0.336190466 -0.0175627042
