12
Generated by script
C 0.3273819047 -1.0330550611 0.12750548
C 1.7346096767 -1.0185684603 -0.0108306249
C 2.3888025116 0.2114658114 -0.1205949221
C 1.7219999415 1.4349625391 -0.0146570613
C 0.3148198666 1.4358469275 0.1247359649
C -0.3887905792 0.1972436092 -0.270568915
H -0.1797029811 -1.9263517559 0.4451139682
H 2.3174145377 -1.9178034404 0.0719701776
H 3.4632200976 0.2166271839 -0.1588870053
H 2.2956571377 2.3405122461 0.0634085179
H -0.2014674294 2.3263791054 0.4350276833
H -0.4450313124 0.1960505291 -1.3623724593
