12
Generated by script
C 0.3971358255 -0.9994031536 0.166787406
C 1.7848038327 -1.0211379837 0.0038411475
C 2.4663092548 0.1999836116 -0.2091051629
C 1.7462051146 1.4329532741 0.1733844344
C 0.3087884886 1.3962038761 -0.1698046798
C -0.3602758144 0.1683826664 0.0424367124
H -0.1207788322 -1.9368389095 0.2605219167
H 2.2908527883 -1.9669161974 -0.0632822261
H 3.4781789553 0.2031648796 -0.572518216
H 1.814113586 1.5209210545 1.2609501072
H -0.2340868953 2.262601081 -0.5023624288
H -1.4321775521 0.0980720547 0.0074435745
