12
Generated by script
C 0.3760011009 -0.9177152775 -0.2579773685
C 1.7468520427 -0.9506414644 0.0606256122
C 2.4238466214 0.2480986766 0.330078978
C 1.6366955295 1.2693184091 -0.3201544081
C 0.3489682037 1.4483918522 0.3076913026
C -0.3432425838 0.2567122359 0.0369532187
H -0.1428121839 -1.8201867405 -0.5132977894
H 2.2624411902 -1.8922761679 0.1248486527
H 3.3232645757 0.3855572414 0.8928068327
H 1.8317277242 1.5878684457 -1.3415222104
H 0.015951165 2.2900639386 0.8777636313
H -1.4179051296 0.2337828138 0.0745254263
