12
Generated by script
C 0.2896513347 -1.0217392515 -0.0907419925
C 1.6820033929 -1.0667502579 0.1565756474
C 2.4497578605 0.1531881006 -0.1714548082
C 1.7429166571 1.3974532507 0.1996277101
C 0.3503982412 1.4292575672 -0.0479015219
C -0.3302189882 0.2226043541 -0.2305403105
H -0.3149476711 -1.9099962238 -0.0672523502
H 2.143050927 -1.9710826 0.511404093
H 2.5819006475 0.1689978891 -1.2563106838
H 2.2480765956 2.2660188562 0.5821954626
H -0.2094440144 2.3453442316 0.0040287825
H -1.3976759287 0.2510100678 -0.3542345624
