12
Generated by script
C 0.3465909556 -1.0016403051 0.075386488
C 1.7460646579 -1.0244500046 -0.1257713874
C 2.4770170591 0.2249671223 0.1725385804
C 1.7543266615 1.4415332501 -0.2546805699
C 0.3546995582 1.4485293346 -0.0525002885
C -0.3043798984 0.2327794303 0.1489233147
H -0.2381105231 -1.903241752 0.0657716001
H 2.2402910977 -1.933912208 -0.4167962984
H 2.5834782405 0.2818551131 1.2592179184
H 2.2539870319 2.3145777665 -0.633811521
H -0.2229047972 2.3493974066 -0.1523635912
H -1.3762953405 0.2405275772 0.2349409558
