12
Generated by script
C 0.372508372 -0.877089755 -0.3550117932
C 1.6709321299 -1.101755086 0.2363407812
C 2.398894872 0.062809208 -0.0513067604
C 1.7123255028 1.2634948946 -0.316519025
C 0.3525669175 1.3409818447 0.0430106376
C -0.3577827719 0.1646145344 0.3287525151
H 0.1385083402 -1.1771424184 -1.3738149976
H 2.0030411636 -1.9756478798 0.7561862688
H 3.4742687671 0.0476598276 -0.0460167011
H 2.2541417064 2.1508274156 -0.5769411861
H -0.1300293777 2.2992762602 0.1172599332
H -1.2487099239 0.0569512421 0.9108497744
