12
Generated by script
C 0.4005738279 -1.0536253544 0.2049118355
C 1.818666442 -0.9751473617 -0.2037682716
C 2.4530233005 0.2795004339 -0.0494847283
C 1.6612736607 1.4230867751 0.0851599367
C 0.267649527 1.3931462004 -0.013075294
C -0.3796911575 0.1453687232 -0.1686844745
H 0.3833840684 -1.1195232902 1.2958943667
H 2.3750296825 -1.828011737 -0.5491801319
H 3.5186824297 0.3861597579 -0.1400629077
H 2.1494346785 2.3796988595 0.1349700292
H -0.2742531947 2.3195236932 -0.0717887384
H -1.4081948251 0.099435878 -0.4784493947
