12
Generated by script
C 0.3293796083 -1.0190960014 -0.0891933876
C 1.7560650168 -0.9995049909 0.298200131
C 2.4540522845 0.2168396999 -0.1691701668
C 1.7446907062 1.4352501688 -0.048041621
C 0.3563259903 1.3942713682 0.1042814875
C -0.3720931351 0.2040717981 0.0338024098
H -0.1833562604 -1.9127172426 -0.3969268387
H 1.7978894833 -0.9994147762 1.3899239644
H 3.4642268453 0.2094595234 -0.537707273
H 2.2316245206 2.3854338998 -0.1722329067
H -0.1821958923 2.3239590087 0.1394469929
H -1.4439979775 0.2476393372 -0.0331158338
