12
Generated by script
C 0.4220130485 -0.9750408819 0.1304736272
C 1.8183162764 -0.9472213695 0.2677210447
C 2.236190837 0.2099973393 -0.4902544499
C 1.8089372755 1.4365549309 0.1432033116
C 0.4121340877 1.4381665332 0.0103547265
C -0.2697656413 0.2171184057 -0.1615547641
H -0.1226462951 -1.8908856615 0.2756569544
H 2.4466899753 -1.6616025778 0.7561199301
H 2.4863780151 0.1562407615 -1.5474166422
H 2.4318626834 2.2052545914 0.5495019494
H -0.1402187373 2.3595213247 0.0660930842
H -1.3327628301 0.205678806 -0.2968750628
