12
Generated by script
C 0.3190828413 -0.9877873258 -0.0662672129
C 1.7139664588 -0.9584767698 -0.1455257728
C 2.4560411195 0.2107055199 0.0411913996
C 1.7692203594 1.4333743902 0.2260659932
C 0.3563640002 1.4680371705 -0.2078712816
C -0.3794744485 0.2283026905 0.1183316815
H -0.1860386077 -1.936251229 -0.0427316944
H 2.2414126108 -1.8921420715 -0.2213965331
H 3.5243250767 0.1447835364 0.1395154378
H 2.2858753868 2.296780522 0.6048500415
H 0.3568782053 1.5651766166 -1.2965288198
H -1.4103306467 0.223349478 0.4241116161
