12
Generated by script
C 0.3089800051 -1.0246485315 0.1379880581
C 1.7173614409 -1.0248579101 0.0093800425
C 2.386025753 0.1986119485 -0.0851017133
C 1.7318765921 1.4280594926 0.0302033164
C 0.3237346889 1.4429195581 0.1612324725
C -0.3904687583 0.2169117094 -0.2542178379
H -0.2092769573 -1.9128211985 0.4522441942
H 2.2895340743 -1.9312148007 0.0884157581
H 3.4605754676 0.1925800609 -0.1174559127
H 2.3147460742 2.326555541 0.1199444674
H -0.1846730878 2.3348477285 0.4804962862
H -0.4371135778 0.2284103418 -1.3462718576
