12
Generated by script
C 0.396970234 -0.9610863619 -0.2377720448
C 1.7620257715 -0.9964921336 0.0606469303
C 2.4340469856 0.2183451457 0.3278815214
C 1.7668215711 1.4563606066 -0.127149426
C 0.3010808186 1.43858659 0.0622173339
C -0.3564934365 0.2152868779 -0.2016326345
H -0.119265923 -1.893961686 -0.3761795305
H 2.2506716367 -1.946811188 0.1752511148
H 3.4140145838 0.213779529 0.7699941499
H 1.9478369575 1.5370227694 -1.2025342955
H -0.2623450368 2.3172190808 0.3201015746
H -1.4270538186 0.156323778 -0.2760784627
