12
Generated by script
C 0.3058456012 -1.0012054399 0.2766769012
C 1.6943408587 -1.0127735025 0.0717731931
C 2.3699539122 0.1953504653 -0.1895752969
C 1.6998317466 1.4017745737 0.0909657831
C 0.3120867245 1.3904206439 0.2962694214
C -0.1494315213 0.2012311825 -0.3814556265
H -0.2928747957 -1.7321112056 0.7780288121
H 2.2463654356 -1.9332871053 0.1394694711
H 3.4247582881 0.1942024187 -0.3798109695
H 2.2552920195 2.3187595784 0.1755720788
H -0.2851311011 2.1202708815 0.8011115749
H -0.4580988063 0.2108588133 -1.4244908978
