10
-154.78237 frame 0   xyz file generated by terachem
   C      20.0752953119    8.2262279881    1.1053396172
   H      18.9703073696    8.2784685624    1.4326867254
   C      20.5726753893    9.5802388138    0.9728216494
   H      21.6134213406    9.6245003678    0.6976117572
   C      19.9163681741   10.7319166180    1.1475841195
   H      18.8751970745   10.7698635858    1.4145998712
   H      20.4172933459   11.6723589635    1.0168252731
   C      20.5660301343    6.9609132412    0.9836486997
   H      20.8326003720    6.3210488004    1.8467833834
   H      20.7059539109    6.3900341790    0.0480057829
