10
-154.73508 frame 0   xyz file generated by terachem
   C      20.0349453765    8.2914662993    1.2659272365
   H      18.9701041925    8.2629267368    1.4838900626
   C      20.6677885809    9.5532430789    0.9197073848
   H      21.7382374124    9.5135115596    0.7047457358
   C      20.0427354781   10.7984104533    0.9280387409
   H      18.9576553097   10.9040876348    0.8993578741
   H      20.6426133496   11.6228014988    1.2819127146
   C      20.6832456749    7.0629602529    1.0923252749
   H      21.3068608613    6.5411785696    1.8308964996
   H      20.6979579952    6.5085990330    0.1536772654
