10
-154.73442 frame 0   xyz file generated by terachem
   C      19.9775714072    8.4721584351    1.5893505131
   H      19.1065306956    8.6392979435    2.2035249337
   C      20.8604187820    9.5213066040    1.2412420882
   H      21.8599781800    9.2938814843    0.9292375666
   C      20.0048912321   10.3391406385    0.5439340073
   H      18.9716710044   10.4359532190    0.8837086328
   H      20.1697459531   10.7871713764   -0.4264182073
   C      20.2715086495    7.1936270673    0.9619827545
   H      20.8958420221    6.5089758549    1.5049091917
   H      20.3537499631    7.1565384260   -0.1104055716
