10
-154.75764 frame 0   xyz file generated by terachem
   C      20.0404083179    8.2444310289    1.3720631349
   H      19.1213466402    8.2969209538    1.9251736134
   C      20.6452600474    9.4992087201    1.0295511830
   H      21.6011384192    9.3764468541    0.5079900373
   C      20.0018189378   10.7244353002    1.1958634845
   H      20.0776571533   10.6367363824    0.0333630302
   H      20.6200080365   11.6152491240    1.2917294458
   C      20.5850758313    7.0711896933    1.0111511313
   H      21.4908923301    7.0237995025    0.4330573730
   H      20.1432980112    6.1333284416    1.2918383676
