10
-154.75876 frame 0   xyz file generated by terachem
   C      20.1044191655    8.2017469114    0.9767367870
   H      19.0161708786    8.1868573776    0.7803286704
   C      20.6021602397    9.5579393248    1.1274411176
   H      21.6581028942    9.6086273426    1.3319160614
   C      19.9082058974   10.6926668081    1.0355817742
   H      18.8517497813   10.7093030283    0.8328381737
   H      20.3959563599   11.6401834780    1.1664162945
   C      20.6461880307    6.9754795371    1.0812818082
   H      21.0856044385    6.3999743344    0.2594625193
   H      20.6313743533    6.3581670716    1.9870284817
