10
-154.56700 frame 0   xyz file generated by terachem
   C      19.9953554750    8.0673196610    0.9745343570
   H      18.9064816730    8.2697129470    0.6777734150
   C      20.7097862290    9.6048845020    0.8272620660
   H      21.6243043580    9.5707309800    0.6635552290
   C      19.9545461140   11.0152336370    1.1063663660
   H      18.6782422240   11.1321017010    1.0251167080
   H      19.9681620150   10.3822449670    1.9844350020
   C      20.5797353510    6.8839331610    1.2500073490
   H      21.6223204620    7.0855508210    1.4876674090
   H      20.0779938070    5.8427095570    1.0580552340
