10
-154.75221 frame 0   xyz file generated by terachem
   C      19.9882230449    8.2392516810    1.1253857884
   H      18.9511449577    8.2110632358    1.4117971171
   C      20.6079333930    9.5336303848    0.9613886605
   H      21.6284435447    9.4548920277    0.5942286046
   C      20.0510934750   10.8058050272    1.1068148653
   H      19.4106183994   10.3530428227    0.2452192709
   H      19.2401470831   10.9467435550    1.8188884113
   C      20.7127072400    7.1128110527    1.0621512795
   H      21.7524225518    7.1297647655    0.7887307710
   H      20.2924482323    6.1541636577    1.3027749585
