10
-154.74703 frame 0   xyz file generated by terachem
   C      19.9072222650    8.1696157374    1.2039259445
   H      18.8444733262    8.1700149238    1.3765244487
   C      20.4793332199    9.4980633850    1.0592354174
   H      21.5717849530    9.4527442533    0.8971726352
   C      20.0000987018   10.7518146772    1.1713413900
   H      19.6570026939   11.3723867099    0.3365221843
   H      19.9701879769   11.3415619547    2.0949875345
   C      20.5480912965    7.0017505627    1.1368059460
   H      21.6077191715    6.9318271893    0.9639624125
   H      20.0107433353    6.0789955816    1.2506385340
