10
-154.78067 frame 0   xyz file generated by terachem
   C      19.8629259453    8.1827841695    0.8510863070
   H      18.7896067324    8.1983376619    0.9738841827
   C      20.5210749819    9.4564065878    0.8299818824
   H      21.5526774330    9.4523729983    0.5225204198
   C      19.9525749390   10.6701105165    1.1926131221
   H      19.0247733384   10.7224963309    1.7290582709
   H      20.3502439170   11.5819078485    0.7852526909
   C      20.6427738344    7.0254956777    1.0429787068
   H      20.8315549172    6.6133005612    2.0271307772
   H      21.2351074522    6.5841992327    0.2535614892
