10
-154.78288 frame 0   xyz file generated by terachem
   C      20.0287521665    8.1192184203    0.9127236841
   H      18.9830693288    8.0850521831    0.6533410546
   C      20.4552282224    9.4746992949    1.0981427232
   H      21.6628802453    9.3525427825    1.1163125832
   C      19.9202862963   10.8158694724    1.0474036163
   H      19.2787614004   11.3398550780    1.8347148976
   H      20.1306856887   11.5399075670    0.2234175940
   C      20.6822375706    6.9170731408    0.9651105507
   H      21.7133313228    6.8470681038    1.2499173033
   H      20.1607039222    5.9981007353    0.7601571740
