10
-154.75218 frame 0   xyz file generated by terachem
   C      19.9330658545    8.2233693522    0.9110648584
   H      18.8892101424    8.2709966380    0.6518376584
   C      20.6047574647    9.4618949271    1.2296533683
   H      21.6671706766    9.3163925753    1.4129438644
   C      20.1063937121   10.7659568033    1.2295267616
   H      19.0540085024   10.9271692333    1.4566739843
   H      19.9647084063   10.4477377123    0.1173407981
   C      20.5467322418    7.0412679134    1.0656219261
   H      21.5862934456    6.9797125505    1.3342635487
   H      20.0222973725    6.1120051306    0.9453256167
