10
-154.63751 frame 0   xyz file generated by terachem
   C      19.9980816090    8.1034853550    1.2903685510
   H      19.1449045810    8.1623295800    1.9954855960
   C      20.5542713010    9.5873391900    1.0670355060
   H      21.6322656800    9.6100780990    1.3589300630
   C      19.9802973190   10.7293907400    0.9016772280
   H      19.9285861310   11.4889984690   -0.0003116470
   H      19.6648707970   11.3282643020    1.9182372950
   C      20.5789219630    7.0232043790    0.9122984540
   H      21.5912488360    7.1898318410    0.4154960410
   H      20.4501957770    6.0335909620    1.0475821960
