10
-154.75763 frame 0   xyz file generated by terachem
   C      19.9724088488    8.2248172621    1.1769924217
   H      18.9411668012    8.2225702752    1.4765948053
   C      20.5453235970    9.5093151304    0.8912582694
   H      21.5849586631    9.4374178624    0.5518513792
   C      19.9017419992   10.7110136099    1.1799207517
   H      20.1867176308   11.5916824913    0.6076909400
   H      20.8080876752   10.7278755831    1.9161035230
   C      20.6880712441    7.0923097691    1.0855351193
   H      21.7288133039    7.1039436494    0.8139289936
   H      20.2532102637    6.1308088901    1.2851251017
