10
-154.78018 frame 0   xyz file generated by terachem
   C      19.9277797803    8.2401686011    1.4146133840
   H      18.8723293396    8.2986744430    1.6379644426
   C      20.5950919508    9.4808836669    1.1497154313
   H      21.6706445745    9.4454473747    1.1210774599
   C      19.9751610974   10.6988886421    0.9014225705
   H      18.9274057991   10.7659959618    0.6796338947
   H      20.5042212402   11.6113590266    1.1093604890
   C      20.5752455715    7.0394613936    1.0625303545
   H      21.3728150679    6.6117743424    1.6540154355
   H      20.4331189257    6.5691295208    0.0969162482
