10
-154.75768 frame 0   xyz file generated by terachem
   C      20.0670500918    8.1970340492    1.2529121537
   H      19.0359499223    8.1957949635    1.5524112179
   C      20.6791272761    9.4844665044    1.0903326848
   H      21.7433828292    9.4143343139    0.8389522801
   C      19.9550708979   10.6755341359    1.0862026442
   H      20.3404429310   10.6140367886   -0.0139227535
   H      20.4847848001   11.5896098256    1.3494191213
   C      20.7439772090    7.0572056584    1.0384748836
   H      21.7698301211    7.0639882545    0.7157127242
   H      20.2904004285    6.0942728099    1.1819072866
