10
-154.74372 frame 0   xyz file generated by terachem
   C      19.9886495025    8.1700100727    1.4379210699
   H      19.0135516201    8.0256711329    1.8551116014
   C      20.4552628405    9.5618855667    1.5547543900
   H      21.4176228753    9.6258428874    2.0875336497
   C      19.8861561466   10.6281726954    0.8504198804
   H      20.0149689588   11.6108450576    1.2999120502
   H      20.9391429639   10.4863440340    0.3786570287
   C      20.6289456559    7.1726155761    0.8488823125
   H      21.6516455580    7.2981820052    0.4824827876
   H      20.2264353794    6.1889447510    0.7484028305
