10
-154.75223 frame 0   xyz file generated by terachem
   C      19.9344773582    8.2881343962    1.1411100687
   H      18.8496000802    8.3632558535    1.1189842150
   C      20.5700799624    9.5704552198    0.9448602628
   H      21.6434104600    9.5913881559    0.8652402724
   C      19.8630447548   10.7083202115    1.0035902387
   H      18.7915422580   10.6962080141    1.0960830663
   H      20.3365029885   11.6720604884    0.9918899150
   C      20.5125059706    7.0216572554    1.2466627621
   H      21.5130802612    6.9340656895    1.6659875205
   H      20.8353883891    7.3491659537    0.1763062715
