10
-154.75765 frame 0   xyz file generated by terachem
   C      19.9417916128    8.1943437600    0.9671196361
   H      18.8972126513    8.1913869032    0.7182591615
   C      20.5725818127    9.4812790983    1.0354907619
   H      21.6453929920    9.4119036486    1.2479013568
   C      19.8620250231   10.6797292598    1.0008255502
   H      20.2895892402   10.6731550048    2.0877945810
   H      20.3875572497   11.5724811111    0.6667907405
   C      20.6167586179    7.0591785334    1.2099933230
   H      21.6566078564    7.0704520630    1.4846990806
   H      20.1484138169    6.0954587508    1.1365417294
