10
-154.74197 frame 0   xyz file generated by terachem
   C      20.4647801952    8.2449325589    1.6303450958
   H      19.3276110003    8.0056266113    1.3962529580
   C      20.7263358916    9.6044436846    1.2084303654
   H      21.7656944486    9.8881830639    1.2762107153
   C      19.8414940359   10.5293615414    0.8565428901
   H      18.7862314200   10.3232436608    0.8041628973
   H      20.1475501494   11.5372385186    0.6430817619
   C      20.4147175948    7.0502130778    0.9259663537
   H      20.5928590480    6.1047554857    1.4214624066
   H      20.0401205623    6.9530492670   -0.0913531171
