10
-154.75484 frame 0   xyz file generated by terachem
   C      20.0151906533    8.2210900973    0.9979475236
   H      18.9675833939    8.2319970171    1.3073298248
   C      20.5531347501    9.5448007359    0.8402206863
   H      21.5670973267    9.6096441897    0.4901102758
   C      19.8228536304   10.6337443497    1.0828296765
   H      18.8140850436   10.5645263202    1.4513618814
   H      20.2012062987   11.6244203989    0.9093177113
   C      20.8008935790    7.0565425020    0.9312478216
   H      20.4638689495    6.8061374377    2.0168508614
   H      20.1942809869    6.1743543084    0.6392284473
