10
-154.75766 frame 0   xyz file generated by terachem
   C      20.0526954128    8.2190603308    1.3256917372
   H      19.0816021179    8.2291444821    1.7838996252
   C      20.6439509317    9.5006250678    1.0674990053
   H      21.6509484738    9.4204877163    0.6429180391
   C      19.9434437186   10.6995753166    1.1879826488
   H      20.1402178959   10.6385713032    0.0381961872
   H      20.5176625460   11.6074943284    1.3635365392
   C      20.6747838632    7.0725781989    1.0066821364
   H      21.6368588046    7.0686595792    0.5257542797
   H      20.2395579454    6.1144238677    1.2212058508
