10
-154.78021 frame 0   xyz file generated by terachem
   C      19.9845000889    8.2216584247    1.0331177663
   H      18.9142617836    8.2332180830    1.1485254565
   C      20.6026861519    9.4811231638    0.7369929196
   H      21.6405091204    9.4482706724    0.4381318616
   C      19.9601092868   10.6623927118    1.1564659216
   H      19.1092371133   11.0796376292    0.6360882468
   H      20.1626489992   11.1184158509    2.1183394329
   C      20.6476075575    7.0148497793    1.2115622349
   H      21.7108346304    6.9682095826    1.3486964130
   H      20.1235734491    6.0937729523    1.0306452037
