10
-154.61308 frame 0   xyz file generated by terachem
   C      20.0051803450    8.2077814560    1.1296900200
   H      19.0512973690    8.0848175070    1.4809184160
   C      20.6275391230    9.6596328310    0.9210566310
   H      21.7006336320    9.3267595190    0.9791680860
   C      19.9317540120   10.6841982570    1.0579226390
   H      19.4007303500   11.4592480480    0.1409896690
   H      19.9305334640   11.1054714570    2.0455532400
   C      20.6180663620    6.9790511980    1.0850093660
   H      21.6286260560    6.8027224120    0.7373889300
   H      19.8461129240    5.9894689790    1.0871338980
