10
-154.75222 frame 0   xyz file generated by terachem
   C      19.9717076111    8.1597829367    1.1456440742
   H      18.9473999776    8.1235324231    1.4743663001
   C      20.5801076925    9.4591625543    0.9770000571
   H      21.5865456599    9.3887111173    0.5704664267
   C      20.0254774075   10.7269704074    1.1637645384
   H      19.3530975812   10.2864137812    0.3204138050
   H      19.2419589366   10.8526780899    1.9090525738
   C      20.6987753956    7.0381760166    1.0396054656
   H      21.7251468824    7.0634353361    0.7196214590
   H      20.2930542954    6.0752288534    1.2876725591
