10
-154.75222 frame 0   xyz file generated by terachem
   C      19.9575884834    8.2778798429    1.1812000756
   H      18.9823594231    8.3067059638    1.6361915538
   C      20.5884882253    9.5369945968    0.8594859004
   H      21.5298675931    9.4005748273    0.3321331138
   C      20.1108799088   10.8367690945    1.0391843929
   H      19.3185770472   10.3806460678    0.3167415826
   H      19.4358747927   11.0390947808    1.8687166155
   C      20.6185922666    7.1190731295    1.0465317971
   H      21.5977583799    7.0802925559    0.6035272515
   H      20.2083722620    6.1900501539    1.3959721539
