10
-154.74158 frame 0   xyz file generated by terachem
   C      19.8336542069    8.1295775884    0.9851902579
   H      18.7729885196    8.2281815975    0.7607455246
   C      20.6060718368    9.3924865577    0.7769703189
   H      21.6739834879    9.4062041727    0.5474289212
   C      20.1456665212   10.4384658150    1.4610287839
   H      19.0731317460   10.5334445199    1.6125902984
   H      20.7964297970   11.1380198174    2.0097435091
   C      20.3858591876    6.9486022574    1.4847985105
   H      21.1836258150    7.0697943308    2.2282323109
   H      20.8610124140    6.6199467332    0.5459825827
