10
-154.61366 frame 0   xyz file generated by terachem
   C      19.8733198560    8.1162284640    1.0241216650
   H      18.8643461780    7.9904181970    0.8137687960
   C      20.4551964720    9.4525898180    0.9118354210
   H      21.4076604400    9.4058498350    0.1961012220
   C      20.1683095720   10.8704496140    1.0278760860
   H      18.9929558350   11.0484737260    0.9820395290
   H      19.9717258240   10.5639334230    2.2977011370
   C      20.7095550800    7.1245277690    1.1788546620
   H      21.6527634240    7.3960515110    1.4504435290
   H      20.3848248170    5.9667951900    1.3398762790
