10
-154.70639 frame 0   xyz file generated by terachem
   C      19.9721016239    8.2457740379    1.0724826025
   H      18.9078002244    8.2863631437    1.3017287981
   C      20.5349405691    9.4773415889    0.8757534421
   H      21.7046517434    9.3706373773    1.1294041819
   C      19.9140033818   10.7293625120    1.1632549346
   H      19.7113213797   11.5793643095    0.4777423560
   H      19.8099863094   11.0785765152    2.2152090075
   C      20.6762008325    7.0490267745    1.1201548087
   H      21.5708790268    6.8141492661    0.5761296606
   H      20.2944428361    6.2782487218    1.7323690030
