10
-154.75221 frame 0   xyz file generated by terachem
   C      19.9726026709    8.2300990334    1.2456742263
   H      18.9211536787    8.2046755563    1.4740589484
   C      20.5634731126    9.5110979425    0.9339816712
   H      21.6405856715    9.4425574238    0.8000855088
   C      19.9692844780   10.7740356176    0.8957111382
   H      18.9179851995   10.8541945636    0.6258456496
   H      19.8080009290   10.4594734270    2.0055379080
   C      20.6772761809    7.0957835134    1.1258690845
   H      21.7257841528    7.1115861792    0.8870352789
   H      20.2199947421    6.1301498523    1.2350567230
