10
-154.75223 frame 0   xyz file generated by terachem
   C      19.9702343378    8.2491876171    0.7899894520
   H      18.9471229746    8.2446634176    0.4553225753
   C      20.5561925416    9.5190667921    1.1518182431
   H      21.6110030409    9.4263999812    1.4001438247
   C      19.9916951396   10.7956693728    1.1191112652
   H      18.9197461534   10.8990847951    1.2783758676
   H      19.9395216550   10.4758304994    0.0000679941
   C      20.6278093288    7.0999607263    1.0007490005
   H      21.6470779136    7.0931518835    1.3437002931
   H      20.1593904377    6.1444388359    0.8561145544
