10
-154.74879 frame 0   xyz file generated by terachem
   C      20.1629105531    8.2801831648    1.4156513097
   H      19.5765915564    8.4874192497    2.3045195549
   C      20.5395038063    9.4979765845    0.7306858459
   H      21.1147869119    9.4118405339   -0.1759889779
   C      20.1341932050   10.6876958880    1.1679280273
   H      19.5631481853   10.7881094150    2.0740895506
   H      20.3438654469   11.5939977951    0.6298208428
   C      20.5396673216    6.9448345099    1.1589074520
   H      20.7030456615    6.7993770500    0.0647593027
   H      21.6554200819    7.2708985612    1.1253052921
