10
-154.75484 frame 0   xyz file generated by terachem
   C      19.9754783561    8.2251834443    1.2094844561
   H      18.9225409045    8.2118050427    1.4233226954
   C      20.5531939676    9.5143115639    0.9418429460
   H      21.6169138770    9.4525485805    0.7003173806
   C      19.8646726657   10.7233926987    1.1464266778
   H      20.2686085374   11.5323275613    0.5031163381
   H      20.7001509846   11.0361422114    1.8954176624
   C      20.7031364872    7.1082523989    1.1769733245
   H      21.7625336783    7.1312936788    0.9911874495
   H      20.2637061146    6.1381387624    1.3208959015
