10
-154.73232 frame 0   xyz file generated by terachem
   C      19.9633378544    8.1987213417    0.9167956639
   H      18.8823141674    8.3380384469    1.0358056145
   C      20.6673046688    9.4970137521    1.0906680717
   H      21.7283981515    9.5393107275    1.0046447273
   C      19.9805775830   10.6410136502    1.3003472386
   H      18.9962019662   10.5701832432    1.7869643924
   H      20.5125435399   11.5333514967    1.3442127687
   C      20.7143171537    7.0171391823    0.8551048605
   H      20.5019060576    6.2125197841    0.2401157714
   H      20.1638013075    7.1061450532    1.9055505169
