10
-154.75221 frame 0   xyz file generated by terachem
   C      20.0351149557    8.2703383198    0.9319367235
   H      19.0181782111    8.3449198730    0.5523940454
   C      20.6684963389    9.5643019233    1.0418952058
   H      21.7030982815    9.5929904553    1.3386970318
   C      19.9612490268   10.6954546031    0.9095389191
   H      18.9237295826   10.6768471040    0.6263639711
   H      20.3927570873   11.6590551117    1.1042585031
   C      20.5753443710    6.9998464670    1.1380161193
   H      21.2298818847    7.4073318747    0.2646952670
   H      21.3775394736    6.8819027203    1.8642755490
