10
-154.75223 frame 0   xyz file generated by terachem
   C      20.0057842161    8.2502915309    1.0484003625
   H      18.9286898326    8.3279273853    1.1792767776
   C      20.6568313646    9.5374607615    1.1264365352
   H      21.7321206867    9.5598208556    1.0806921940
   C      19.9456441406   10.6739719566    1.1133720035
   H      18.8709544445   10.6633255814    1.1481214687
   H      20.4179984545   11.6363449553    1.0485410409
   C      20.5706019686    6.9782666022    0.9353625713
   H      21.0045099604    7.3508299853    1.9504588480
   H      21.5208385375    6.8706077618    0.4152110484
