10
-154.74812 frame 0   xyz file generated by terachem
   C      20.0162115062    8.1952706319    0.8743133547
   H      18.9984363410    8.1628619686    0.5240118729
   C      20.5054744602    9.5401637001    1.1194573678
   H      21.5576350045    9.5319618160    1.4582442106
   C      20.0019130827   10.7785076305    0.9557223693
   H      19.5026459147   11.3651625725    1.7345060603
   H      20.1014882105   11.3877147869    0.0499459983
   C      20.6799635757    7.0506642709    1.0402064487
   H      21.6973888137    7.0178409521    1.3883313200
   H      20.2050596418    6.1114129806    0.8278880013
