10
-154.60695 frame 0   xyz file generated by terachem
   C      19.9658820070    8.1817844640    0.8800325330
   H      18.8253753420    8.4254732800    1.0334320590
   C      20.6312525100    9.5250462370    1.1601412920
   H      21.3710803960    9.4930357570    2.0077000110
   C      19.8668925870   10.7976402150    1.0349200920
   H      19.3387720690   11.1477691300    0.1695496450
   H      20.3272226160   11.6745440110    1.6482891830
   C      20.6745099860    6.9608400650    1.0466609690
   H      21.2646849120    6.1769303560    0.3550640260
   H      20.9610724310    6.6343964880    2.1190367370
