10
-154.89020 frame 0   xyz file generated by terachem
   C      20.0073444797    8.2110359458    1.2362719752
   H      18.9287317084    8.1996782746    1.4060576004
   C      20.5878081454    9.4803633088    1.2740713246
   H      21.6577875165    9.4834795220    1.4925321342
   C      19.9475684566   10.6590523415    1.0032107749
   H      19.0471152942   10.6700578387    0.4169829845
   H      20.3910034396   11.6077424215    1.2367466223
   C      20.6607934260    7.0435065432    0.9514966849
   H      21.5899132050    7.0542650757    0.4118630466
   H      20.2087287115    6.0868604992    1.1291991314
