10
-154.75225 frame 0   xyz file generated by terachem
   C      19.9837340841    8.2317029106    0.8801905949
   H      18.9177158702    8.2256449988    0.7312788178
   C      20.6214962125    9.5023629288    1.1345394593
   H      21.7045493077    9.4148635876    1.1833313782
   C      20.0538976700   10.7757389042    1.2171498784
   H      19.0294603575   10.8706078610    1.5728471080
   H      19.7964814059   10.4625147963    0.1244172038
   C      20.6725475576    7.0841108030    0.9598978034
   H      21.7366149795    7.0778083431    1.1149319572
   H      20.1869451599    6.1279982116    0.8977529140
