10
-154.89007 frame 0   xyz file generated by terachem
   C      19.9640140085    8.2234873194    1.1971777068
   H      19.0079416391    8.2620481127    1.7237587513
   C      20.3830811360    9.4446189547    0.6654165887
   H      21.0925668753    9.3599423730   -0.1605246091
   C      20.0288745633   10.6812100015    1.1332756662
   H      20.2215625811   11.5731621353    0.5689428168
   H      19.6826500481   10.8061088826    2.1428872170
   C      20.6666568275    7.0511542471    1.1564433876
   H      21.7311057365    7.0570842611    1.0098678687
   H      20.2118299967    6.1118967015    1.4055862260
