10
-154.75766 frame 0   xyz file generated by terachem
   C      19.9568092831    8.2730622456    1.0395462740
   H      18.8834010212    8.3021730918    1.0460424116
   C      20.6252465668    9.5387742820    1.1382099813
   H      21.7155932039    9.4363425145    1.1763123828
   C      19.9620616063   10.7597973710    1.0285963931
   H      20.4244228055   11.6313635930    1.4884816029
   H      20.6273627679   10.7490331013    0.0685658677
   C      20.6345477605    7.1182866452    0.9373079095
   H      21.7094542009    7.0973616887    0.9065543230
   H      20.1323625179    6.1702956128    0.8866926570
