10
-154.61151 frame 0   xyz file generated by terachem
   C      20.0964339210    8.0932571610    0.6089250780
   H      19.1499587250    8.1535375510    0.1826091550
   C      20.6137064080    9.4961531350    1.1905696560
   H      21.6348988490    9.6225700320    1.6817873780
   C      19.8295167650   10.7706939690    0.9736619170
   H      20.3349533420   11.6718547490    0.7374173610
   H      19.8300041750   10.3780786180    2.0973054020
   C      20.5450089580    7.1660080720    1.3439311490
   H      20.1801858830    6.0809994650    1.1798802970
   H      21.6022765370    6.9171486550    1.5075830850
