10
-154.70839 frame 0   xyz file generated by terachem
   C      20.0807667146    8.2897024590    1.1515874263
   H      18.9932637539    8.3610703730    1.4337462969
   C      20.5896308781    9.6217232281    0.8772027051
   H      21.6238701793    9.6208091921    0.5779761552
   C      19.9368083786   10.7825793090    0.9636248112
   H      18.9019747912   10.8448450310    1.2506039371
   H      20.4408878297   11.7059682701    0.7489718110
   C      20.5596666428    7.0155222105    1.1111885623
   H      20.8250113550    6.4365095296    2.0091233123
   H      20.6697838338    6.3850190106    0.2183720605
