10
-154.75220 frame 0   xyz file generated by terachem
   C      19.9081125191    8.1890533268    1.0602034119
   H      18.8245417726    8.2822074021    1.0711566922
   C      20.5666001080    9.4706967952    1.1565226770
   H      21.6407878578    9.4797931178    1.2251236097
   C      19.8784356850   10.6136605017    1.0217246530
   H      20.3704046620   11.5662260890    0.9587227998
   H      18.8062987767   10.6155650823    0.9376950451
   C      20.4625240845    6.9074431017    1.0536058899
   H      20.7915723112    7.3122261101    2.0958806729
   H      21.4614363360    6.7687151194    0.6440315667
