10
-154.75222 frame 0   xyz file generated by terachem
   C      20.0236430525    8.2522956835    1.1393429384
   H      18.9823348747    8.3680827730    1.4314452926
   C      20.7093732705    9.5214005411    1.0568621204
   H      21.7653792815    9.5091753733    0.8485514903
   C      20.0313131916   10.6774043496    1.0980442351
   H      18.9741793783   10.7006422784    1.2940808461
   H      20.5102285499   11.6211674526    0.9157725731
   C      20.5343067407    6.9601739054    1.0009584427
   H      21.1275990497    7.3625897148    1.9198419109
   H      21.3896754137    6.7998220853    0.3471603272
