10
-154.75224 frame 0   xyz file generated by terachem
   C      20.0265919263    8.1950916774    1.0447488262
   H      18.9954578319    8.2455407089    0.7022431453
   C      20.6120476647    9.5068029618    1.1988672381
   H      21.6547102760    9.5641174463    1.4589238709
   C      19.8539711175   10.6116246454    1.1500059033
   H      18.8093836664   10.5620225583    0.8991995135
   H      20.2516852196   11.5818660193    1.3817540537
   C      20.6239765501    6.9392276561    1.1738316300
   H      21.2325583880    7.4130907006    0.3005245585
   H      21.4539603526    6.8232733219    1.8683189036
