10
-154.63849 frame 0   xyz file generated by terachem
   C      20.0071485650    8.2145608320    1.0773596670
   H      18.9032336180    8.0136804730    1.0951267750
   C      20.6146987960    9.5367129800    1.2661290590
   H      21.7204860660    9.5913957360    1.3513934390
   C      19.9712518370   10.6841948820    0.9253457130
   H      19.4810512980   11.2933168820    1.7512165190
   H      19.6313024700   11.3446391980    0.0646890290
   C      20.5776535920    7.0560614220    0.9750077290
   H      21.6218413760    6.8281552670    1.2912913110
   H      20.3435221320    6.1628736670    0.3168874660
