10
-154.75766 frame 0   xyz file generated by terachem
   C      19.9068310690    8.2229439420    0.9263501918
   H      18.8506073120    8.2431703226    0.7339184700
   C      20.5314832521    9.4931218475    1.1613597227
   H      21.5974837586    9.3997408688    1.3972810735
   C      19.8853800380   10.7093531359    0.9476105139
   H      20.2452525018   11.5781225424    1.4961092442
   H      20.7155393251   10.7192647734    0.1258793950
   C      20.6044738999    7.0756708637    0.9394562854
   H      21.6666366279    7.0644746399    1.1082943492
   H      20.1312632216    6.1237628847    0.7863066693
