10
-154.78012 frame 0   xyz file generated by terachem
   C      19.9840314482    8.2883406892    1.0603403546
   H      18.9191652205    8.2949544181    1.2186239770
   C      20.5806066362    9.5458420879    0.7169544447
   H      21.6023353531    9.5142189590    0.3670680619
   C      19.9506934241   10.7307367563    1.1470259342
   H      19.0723813403   11.1329628889    0.6617145170
   H      20.1949712773   11.2024955224    2.0913664465
   C      20.6622531620    7.0885084431    1.2296691138
   H      21.7299121924    7.0509439974    1.3298441686
   H      20.1373678570    6.1610762337    1.0879601396
