10
-154.89024 frame 0   xyz file generated by terachem
   C      19.9871082596    8.2648044828    1.1998656649
   H      18.9059286839    8.2702313075    1.3552112102
   C      20.5829265483    9.5272480304    1.2320856792
   H      21.6495539689    9.5203671661    1.4654522868
   C      19.9592542287   10.7106423343    0.9456962801
   H      19.0624322982   10.7267208372    0.3540633264
   H      20.4100741850   11.6561974547    1.1776264814
   C      20.6276647475    7.0856341914    0.9323557526
   H      21.5607597137    7.0786186919    0.3995362308
   H      20.1600361593    6.1371201036    1.1133846246
