10
-154.72712 frame 0   xyz file generated by terachem
   C      20.0402687527    8.2098881656    1.2136919203
   H      18.8542315075    8.0895237882    1.1253477732
   C      20.5342620592    9.5136913670    0.9579326072
   H      21.6089529615    9.4458011147    0.7823975311
   C      19.9584987010   10.8127521640    1.0593732137
   H      18.9459562997   10.6936330086    1.1556573173
   H      20.8256224969   11.6266246443    0.8833479224
   C      20.6357443439    6.9586164968    1.0327298633
   H      21.2341825950    6.4531502715    1.7062673573
   H      20.6618409976    6.3782584552    0.0218639232
