10
-154.72197 frame 0   xyz file generated by terachem
   C      19.8416224402    8.0383130598    1.5658975696
   H      18.8224450708    8.3023672587    1.3293625936
   C      20.6394123764    9.4013875939    1.3106843671
   H      21.6135904417    9.4896627710    1.7535347902
   C      20.0771082974   10.5025627403    0.8038990477
   H      19.1279062733   10.5038143435    0.2983723529
   H      20.5176333071   11.4680350929    0.9921078858
   C      20.6711553411    7.4831349534    0.6076154925
   H      21.3920409453    6.6974406739    0.8429024696
   H      20.8967746457    7.8175075074   -0.4117057190
