10
-154.60026 frame 0   xyz file generated by terachem
   C      19.9916787150    8.1600157240    1.2700058290
   H      18.9210004370    8.3184267360    1.2215223200
   C      20.6074672160    9.4903374830    1.1947468010
   H      21.7118314200    9.5758831760    1.2304492270
   C      19.8982764140   10.7645456000    0.9878487980
   H      18.9798247670   11.2793038190    0.5895029550
   H      20.4900845380   11.5229561910    0.6204189470
   C      20.6326156250    7.0315978650    0.8517609450
   H      20.8983713900    6.7533322840   -0.1962253040
   H      21.1868098790    6.3273987180    1.6767597950
