10
-154.78030 frame 0   xyz file generated by terachem
   C      20.0135004990    8.2481464630    0.9863298887
   H      18.8929687471    8.3195831061    1.1123013614
   C      20.5907536537    9.5802514162    0.9899794077
   H      21.6634427886    9.5820444808    0.8946908388
   C      19.9552027871   10.7498680764    1.0979727884
   H      18.8862254049   10.8185542361    1.1936551399
   H      20.5084111830   11.6700505156    1.0963670674
   C      20.4745569628    6.9716735956    0.9082347833
   H      20.5713130448    6.3025518549    1.7792369841
   H      20.7299320989    6.4218783333   -0.0103638076
