10
-154.70915 frame 0   xyz file generated by terachem
   C      19.9691049970    8.1749537400    0.7576437460
   H      18.9175299410    8.3108916180    0.6984640910
   C      20.6067785110    9.5195503400    1.0288809680
   H      21.6826252470    9.3540638790    0.9180615900
   C      19.9585545140   10.6790591410    1.2088960790
   H      18.9648931480   10.8196269330    0.9266731570
   H      20.3699757630   11.6253955350    1.4534997890
   C      20.6217543710    7.1071223540    1.1740454140
   H      21.1880535040    6.3451029000    0.6070513350
   H      20.7539244540    6.9124990740    2.1597001570
