10
-154.57824 frame 0   xyz file generated by terachem
   C      20.1489849760    8.2316129280    1.5011149740
   H      19.2338584260    8.4501749450    2.1433111630
   C      20.6848018790    9.3608229840    0.8931101120
   H      20.9643122930   11.3161266520    0.7620953910
   C      19.9614286800   10.7423268980    0.9964582330
   H      19.3823098210   11.1561441170    0.2961629300
   H      19.8517979170   11.1604684690    1.9247769370
   C      20.4252988550    6.9780906380    0.8162347870
   H      21.1009460840    7.2449531430   -0.0685095820
   H      20.5694137230    6.0536086100    1.2488960020
