10
-154.62515 frame 0   xyz file generated by terachem
   C      20.0046423700    8.0662822970    1.2748244670
   H      19.2025114840    8.1020277400    1.9863356160
   C      20.4730175170    9.5371702070    1.1185074550
   H      21.6478089400    9.4660321900    1.3406153990
   C      20.0454911420   10.7884872620    0.8780259230
   H      19.8509260770   11.3993344370   -0.0083348520
   H      19.5761759300   11.3877979560    1.5881979960
   C      20.6203918040    7.0796055970    0.9359827610
   H      21.3540888770    7.1290206990    0.2140538610
   H      20.3947856520    5.9929598990    1.1807925750
