10
-154.74097 frame 0   xyz file generated by terachem
   C      19.8725989710    8.1981449618    1.5750832495
   H      18.8044132437    8.2589833268    1.6535251215
   C      20.6366959337    9.2961820821    1.2226454192
   H      21.7112469036    9.2399331017    1.3277132142
   C      20.0117525631   10.4779361745    0.6759358457
   H      19.2037102959   10.3548885459   -0.0193258948
   H      19.9895342562   11.3576431545    1.2990504447
   C      20.5206665184    7.2361705360    0.7149295836
   H      21.5647520484    7.0111850861    0.8386823406
   H      20.0565227230    6.8680427486   -0.1833304103
