10
-154.78015 frame 0   xyz file generated by terachem
   C      19.9380633495    8.2307476129    0.7176828177
   H      18.8876883562    8.2678542349    0.4669555423
   C      20.5736881796    9.4874330677    0.9874790373
   H      21.6484095820    9.4724426383    1.0488221428
   C      19.9231380583   10.6948383794    1.2033592280
   H      18.8702446840   10.7423931324    1.4047710133
   H      20.4393436326   11.6163072385    1.0031509384
   C      20.5957096562    7.0459408788    1.1030336457
   H      21.4180998004    6.6256856956    0.5411150520
   H      20.4346225422    6.5868943776    2.0711278745
