10
-154.78001 frame 0   xyz file generated by terachem
   C      19.9709654044    8.2330871757    1.0159981693
   H      18.8994985675    8.2641893758    1.1157905410
   C      20.6104483364    9.4690816264    0.6706819594
   H      21.6490292964    9.4088745925    0.3791092158
   C      19.9795424732   10.6763763006    1.0296587931
   H      19.1402304276   11.0809455106    0.4812377660
   H      20.1806510398   11.1745723161    1.9705715250
   C      20.6155044367    7.0270291097    1.2570981973
   H      21.6755578595    6.9734815634    1.4145950659
   H      20.0816763864    6.1053939242    1.1108250412
