10
-154.73126 frame 0   xyz file generated by terachem
   C      19.8927706562    8.1651558755    1.0487018146
   H      18.8619072873    7.9814612153    0.7799698005
   C      20.4348820999    9.4087699698    0.7308612936
   H      21.4849743190    9.1323075550    0.4182326679
   C      20.1351640771   10.6964550751    1.2096227054
   H      19.9129711383   11.4973940241    0.5157783247
   H      20.4870956405   11.0141211554    2.1787182401
   C      20.7084719496    7.0477431619    1.2091039792
   H      21.6510257629    7.1072605223    1.7194734613
   H      20.3179775581    6.0645334816    1.0456608827
