10
-154.73671 frame 0   xyz file generated by terachem
   C      19.9414930386    8.2055796802    0.9525113679
   H      18.9677897699    8.2716451139    1.4379876894
   C      20.4780333540    9.5295776721    0.8356695926
   H      21.5096555140    9.5027728991    0.4870123154
   C      20.0017257039   10.7872317922    1.1548768159
   H      19.0333740461   11.1836416881    0.9329124895
   H      20.7593731000   11.4506305918    1.5012100275
   C      20.6130239323    6.9969718006    1.0809379287
   H      21.2776760501    6.7500117042    1.9510762250
   H      20.5755785551    6.2180962297    0.3182457821
