10
-154.76158 frame 0   xyz file generated by terachem
   C      19.9827079647    8.1530899477    1.1412853109
   H      18.9231996396    8.1280690359    1.3310121571
   C      20.5159386700    9.4964507110    0.9911902638
   H      21.6110674279    9.4902670454    0.8272823695
   C      19.9894106267   10.7363909729    1.0772408379
   H      19.5635598885   11.3137133281    0.2479857790
   H      19.9952200551   11.3577598839    1.9825354218
   C      20.6472341329    6.9987427999    1.0648301004
   H      21.7050930332    6.9529940171    0.8748358441
   H      20.1321943103    6.0652131663    1.1923916385
