10
-154.89020 frame 0   xyz file generated by terachem
   C      19.9845263508    8.2206666958    0.8035711106
   H      18.9153021706    8.2188377782    0.5809916545
   C      20.5640417051    9.4899054275    0.8550620659
   H      21.6435783861    9.5034165681    0.6918079856
   C      19.9073863269   10.6541356745    1.1472748384
   H      18.9756295964   10.6367977673    1.6822055534
   H      20.3587711056   11.6132241391    0.9813329313
   C      20.6233797776    7.0399392952    1.0681958183
   H      21.5216000534    7.0250953491    1.6577908625
   H      20.1808596075    6.0929315381    0.8264363296
