10
-154.73238 frame 0   xyz file generated by terachem
   C      19.8325477343    8.5458684105    0.9947381699
   H      19.1934691246    8.3997937784    0.1324567617
   C      20.7605594364    9.7711654333    0.1823106874
   H      21.7538077233    9.3842458384    0.0884724066
   C      20.0037080015    9.9407210231    1.4260958016
   H      19.1709511325   10.6302671305    1.4350265866
   H      20.6272258162   10.0187730477    2.3091856823
   C      20.1618116235    7.3871588242    1.7170768954
   H      20.2944466006    7.4043382708    2.7834814400
   H      20.1947048871    6.4303880401    1.2309217405
