12
-230.32871 frame 0   xyz file generated by terachem
   C       0.3202069660   -1.0001901427    0.1577908153
   C       1.7057846230   -0.9663029841   -0.0240206817
   C       2.4364161924    0.2247836413   -0.0581425858
   C       1.7405956522    1.4532929967    0.0089589607
   C       0.2972649404    1.4162328309   -0.3061705237
   C      -0.3898010024    0.2200827443    0.2260955772
   H      -0.1620676974   -1.9424673828    0.3434805270
   H       2.2452745429   -1.8960151639   -0.0080178601
   H       3.5096464112    0.1831229286   -0.0197988617
   H       2.2670004445    2.3664019994    0.2222495879
   H       0.2081014852    1.3766241164   -1.3952234401
   H      -1.4036815471    0.2418027540    0.5827408911
