12
-230.32466 frame 0   xyz file generated by terachem
   C       0.3803888888   -0.9498743371   -0.1724825241
   C       1.7679371136   -0.9942067374   -0.0127456958
   C       2.4716889700    0.2168064929    0.1839835868
   C       1.7725075867    1.4573512795   -0.2139613795
   C       0.3357275948    1.4509143263    0.1328739367
   C      -0.3558470889    0.2325965785   -0.0609326767
   H      -0.1540007437   -1.8789946094   -0.2566447933
   H       2.2576907498   -1.9480689972    0.0615429270
   H       3.4881477372    0.2060814989    0.5340856533
   H       1.8401072584    1.5280362766   -1.3026784434
   H      -0.1907677084    2.3307360566    0.4567134789
   H      -1.4286921192    0.1816802409   -0.0193956138
