12
-230.32531 frame 0   xyz file generated by terachem
   C       0.3786094124   -1.0256809976   -0.2329359748
   C       1.7848711293   -1.0271827760   -0.0830973037
   C       2.4473939424    0.1921391810    0.0823171779
   C       1.7903525530    1.4240115112    0.0206288690
   C       0.3838361447    1.4406383241   -0.1258558845
   C      -0.3312739232    0.1922674986    0.2126257217
   H      -0.1327434924   -1.9020780036   -0.5884685152
   H       2.3616593059   -1.9273323213   -0.1946805053
   H       3.5215824996    0.1876060853    0.1269897280
   H       2.3709586714    2.3276437273   -0.0192403551
   H      -0.1226789658    2.3433948496   -0.4169819131
   H      -0.3947689493    0.1441976704    1.3029841531
