12
-230.32215 frame 0   xyz file generated by terachem
   C       0.4149438783   -0.9958520936    0.0516012623
   C       1.8120520775   -1.0177693683    0.0364783627
   C       2.5131510912    0.2088006813   -0.0411718855
   C       1.7572208164    1.4243728750    0.3267313120
   C       0.3672198863    1.4141188917   -0.1764432624
   C      -0.3221249086    0.1813516860   -0.0989572588
   H      -0.1115557847   -1.9331916401    0.0440608196
   H       2.3223047992   -1.9617525132   -0.0226885710
   H       3.5568674893    0.2244921459   -0.2987252530
   H       1.7034211086    1.4528898633    1.4178622302
   H      -0.1346651977    2.2984952432   -0.5253815147
   H      -1.3843476737    0.1205964010   -0.2507456893
