12
-230.27172 frame 0   xyz file generated by terachem
   C       0.3713636129   -0.9137112025   -0.2357811221
   C       1.7495596797   -0.9382469107    0.0530920267
   C       2.4292003477    0.2668396368    0.2847347812
   C       1.6294151426    1.2721806524   -0.3757364077
   C       0.3562978838    1.4622348259    0.2792987859
   C      -0.3427606290    0.2671973706    0.0463640203
   H      -0.1515561450   -1.8227370746   -0.4570374327
   H       2.2677602665   -1.8779877329    0.1235741328
   H       3.3545035869    0.4129577013    0.8012143047
   H       1.7981081133    1.5597430147   -1.4110197230
   H       0.0227414322    2.3295586827    0.8089895587
   H      -1.4166760265    0.2458700383    0.1014812972
