12
-230.32242 frame 0   xyz file generated by terachem
   C       0.3614352178   -1.0539534347   -0.1810040250
   C       1.7806545878   -1.0474825499    0.2313439338
   C       2.4829002324    0.2009544027   -0.1352289042
   C       1.7591280474    1.4042221362    0.0347640012
   C       0.3666748254    1.3460062146    0.1356377306
   C      -0.3513754925    0.1563488596   -0.0129444984
   H      -0.1385077365   -1.9334567534   -0.5455961147
   H       1.8010997120   -1.1197121930    1.3216159987
   H       3.5106089278    0.2227950859   -0.4503172591
   H       2.2423220524    2.3630776715   -0.0149898584
   H      -0.1805642627    2.2692842751    0.1973735601
   H      -1.4212990872    0.1971143393   -0.1067045607
