12
-230.32659 frame 0   xyz file generated by terachem
   C       0.4009656421   -0.9785593721   -0.0694271817
   C       1.7830136904   -0.9655063650    0.1379375454
   C       2.4467281381    0.2791177391    0.2385566577
   C       1.7284559757    1.4552802822   -0.2967602251
   C       0.2800154454    1.4382514459   -0.0045385608
   C      -0.3704598550    0.1864669706   -0.0995509218
   H      -0.1055087978   -1.9268466804   -0.0778875644
   H       2.2955611360   -1.8928563743    0.3187918240
   H       3.4522432174    0.3321894266    0.6152166463
   H       1.8359672187    1.4269399084   -1.3844124503
   H      -0.2820740191    2.3287194137    0.2128510630
   H      -1.4422658609    0.1068498793   -0.0898670413
