12
-230.32597 frame 0   xyz file generated by terachem
   C       0.2675789412   -0.9868260047   -0.1841911478
   C       1.6710731662   -0.9964612204   -0.0121610903
   C       2.3409736131    0.2209792709    0.1379394478
   C       1.6957712159    1.4565483086    0.0380201220
   C       0.2925926064    1.4815223125   -0.1345033184
   C      -0.4391124564    0.2470534427    0.2196985066
   H      -0.2445616991   -1.8654012971   -0.5334349867
   H       2.2422507503   -1.9030341319   -0.0986384191
   H       3.4142725919    0.2083456693    0.1997656063
   H       2.2853218247    2.3533707147   -0.0146646871
   H      -0.2019760579    2.3828495905   -0.4488565959
   H      -0.5239369112    0.2254841960    1.3092205156
