12
-230.32203 frame 0   xyz file generated by terachem
   C       0.3561183543   -1.0367099078   -0.2098644190
   C       1.7463839373   -0.9916760843    0.2900564517
   C       2.4318200723    0.2369148806    0.1400660818
   C       1.6892961663    1.4009084287   -0.0754523507
   C       0.2921092778    1.4176616410   -0.0587068009
   C      -0.4039740360    0.1952867590    0.0909164336
   H       0.4047877747   -1.1287962389   -1.2977235014
   H       2.2486681441   -1.8489341488    0.7011433428
   H       3.4909607602    0.3137308443    0.3061587843
   H       2.2119950542    2.3386898865   -0.1294195910
   H      -0.2211740502    2.3619805891   -0.0471112997
   H      -1.4480263680    0.1902003425    0.3476053123
