12
-230.27240 frame 0   xyz file generated by terachem
   C       0.3558230000   -1.0314141463    0.2922155765
   C       1.6457847859   -0.8517760015   -0.3321355351
   C       2.4347177010    0.1431538058    0.3568471901
   C       1.7744463515    1.3558515076    0.1092478915
   C       0.4040274899    1.3455153261   -0.2149840702
   C      -0.3274705661    0.1692210036    0.0417744685
   H      -0.0071545114   -1.9050282899    0.7911925220
   H       1.8351632061   -1.1296077241   -1.3666700466
   H       3.3544572257   -0.0113492950    0.8806698096
   H       2.3009426321    2.2899225015    0.1920873749
   H      -0.1056338582    2.2610671701   -0.4403094337
   H      -1.4022562615    0.1993628530    0.0676468435
