12
-230.32485 frame 0   xyz file generated by terachem
   C       0.3204883086   -1.0068323173   -0.2310840874
   C       1.7117881294   -1.0143725150    0.0236020383
   C       2.3647677408    0.2016359257    0.2415248754
   C       1.7190286949    1.4363565404    0.1359371612
   C       0.3278605823    1.4592184798   -0.1178134906
   C      -0.4155410475    0.2131310705    0.1636530101
   H      -0.1663430673   -1.8795171397   -0.6277151156
   H       2.2915765910   -1.9168727340   -0.0447280329
   H       3.4321997129    0.1920995311    0.3691046400
   H       2.3038659692    2.3380756341    0.1453627346
   H      -0.1525896991    2.3655859037   -0.4399680062
   H      -0.5589194293    0.1638047097    1.2462377521
