12
-230.27088 frame 0   xyz file generated by terachem
   C       0.3623859990   -1.0094999022   -0.1086451115
   C       1.7481689019   -0.9969707804    0.1111880326
   C       2.2038209600    0.2333427359   -0.4925805064
   C       1.7262754520    1.3950821947    0.2202048404
   C       0.3402183764    1.4018853412   -0.0008081048
   C      -0.3161052121    0.2028101155   -0.3398094302
   H      -0.1845246714   -1.9350328824   -0.0786666725
   H       2.3443075657   -1.7338937574    0.6071281931
   H       2.5337113376    0.2840416334   -1.5276758750
   H       2.3078699423    2.0909949125    0.7874392596
   H      -0.2230651359    2.3117140254    0.1070228221
   H      -1.3663335356    0.2024720557   -0.5537631834
