12
-230.32665 frame 0   xyz file generated by terachem
   C       0.3054144696   -0.9996096294    0.0399988044
   C       1.6953110198   -0.9685845483   -0.1013795476
   C       2.4402051491    0.2097645558   -0.0029422995
   C       1.7577275298    1.4366322124    0.1651818741
   C       0.3235770467    1.4498740144   -0.1923931941
   C      -0.3912808393    0.2193556405    0.2076496874
   H      -0.1934052136   -1.9480737547    0.1218812765
   H       2.2236285628   -1.9030593521   -0.1614791536
   H       3.5121420541    0.1500093068    0.0482546708
   H       2.2896489161    2.3177822067    0.4760770943
   H       0.2669700842    1.5119116832   -1.2824469783
   H      -1.4106866722    0.2224210358    0.5494119505
