12
-230.32467 frame 0   xyz file generated by terachem
   C       0.3176934856   -1.0260738397   -0.0912579051
   C       1.7178831417   -1.0345709246   -0.2901849693
   C       2.4523632623    0.1768948181    0.1317960958
   C       1.7352911620    1.4307398610   -0.1824739387
   C       0.3347832409    1.4245435738    0.0144503510
   C      -0.3294619068    0.1979055251    0.0975131394
   H      -0.2696498198   -1.9208876249   -0.1884187239
   H       2.2090145493   -1.9115843148   -0.6716292772
   H       2.5530183177    0.1285552418    1.2192866111
   H       2.2385292846    2.3302948801   -0.4883012857
   H      -0.2397618661    2.3327892420   -0.0034490388
   H      -1.4014020283    0.2019923992    0.1784765156
