12
-230.32307 frame 0   xyz file generated by terachem
   C       0.2756325306   -0.9850637224    0.2419048456
   C       1.6837412727   -1.0140224118    0.1085276128
   C       2.3675008090    0.1899378674   -0.0798342166
   C       1.7283792290    1.4322987719   -0.0587727940
   C       0.3203688509    1.4750479106    0.0717368240
   C      -0.4092844538    0.2293810922   -0.2484826282
   H      -0.2516374330   -1.8367884957    0.6324372402
   H       2.2443935123   -1.9179920963    0.2628521904
   H       3.4416779365    0.1679825898   -0.1180169692
   H       2.3216682460    2.3283838547   -0.0443008611
   H      -0.1763075687    2.3946133311    0.3238604133
   H      -0.4547595066    0.1546672444   -1.3379630754
