12
-230.32434 frame 0   xyz file generated by terachem
   C       0.3859348368   -1.0050849585    0.0396993487
   C       1.7965514023   -1.0086704760    0.1437596681
   C       2.4908441213    0.2311692716   -0.2654749504
   C       1.7870537711    1.4596787458    0.1585895733
   C       0.3764760355    1.4481941680    0.0550345570
   C      -0.2818712476    0.2195290496   -0.0416455698
   H      -0.1861536772   -1.9120532620    0.1129890884
   H       2.3197493692   -1.9017550950    0.4342779276
   H       2.5137320653    0.2365583950   -1.3585021664
   H       2.3028279104    2.3488348381    0.4739254157
   H      -0.2024155791    2.3487750506    0.1499326841
   H      -1.3569745181    0.2157882468   -0.0515414512
