12
-230.32633 frame 0   xyz file generated by terachem
   C       0.3262259387   -1.0541731397    0.0313996510
   C       1.7248271867   -1.0596717308   -0.1774410184
   C       2.4475886770    0.1860716974    0.1551095956
   C       1.7131271996    1.4086868481   -0.2336758925
   C       0.3142561622    1.3984852493   -0.0269378804
   C      -0.3340786807    0.1723443028    0.1430248458
   H      -0.2509235578   -1.9602132121   -0.0024407193
   H       2.2244298235   -1.9566945993   -0.4963464692
   H       2.5581004566    0.2120402675    1.2424706913
   H       2.2044397460    2.2946720913   -0.5937047531
   H      -0.2714325744    2.2967636984   -0.0985682724
   H      -1.4053567254    0.1694404381    0.2336268496
