12
-230.27392 frame 0   xyz file generated by terachem
   C       0.3310888515   -0.9278021251    0.2219360777
   C       1.7076448876   -0.9996591829   -0.0678595783
   C       2.4245192468    0.1816776393   -0.3093604957
   C       1.6648961302    1.2151432592    0.3564138349
   C       0.3994872796    1.4444833441   -0.3021602539
   C      -0.3419966095    0.2779564007   -0.0582452883
   H      -0.2240843992   -1.8191346560    0.4365010238
   H       2.1957886359   -1.9560792843   -0.1272373448
   H       3.3718214084    0.2881032759   -0.7945192572
   H       1.8384696799    1.4873817645    1.3952463580
   H       0.0782174660    2.3377847074   -0.7947623445
   H      -1.4162644380    0.2944767062   -0.1074318976
