12
-230.27227 frame 0   xyz file generated by terachem
   C       0.3830744793   -0.9240598924    0.1782859002
   C       1.7574296856   -0.9030899921   -0.1292406338
   C       2.4054963738    0.3270870112   -0.3214890895
   C       1.5959144514    1.2814352066    0.3996526923
   C       0.3096529884    1.4691914439   -0.2300590294
   C      -0.3613289043    0.2519299046   -0.0370782291
   H      -0.1159769127   -1.8546396658    0.3621590988
   H       2.2966157433   -1.8265534770   -0.2441118405
   H       3.3203580563    0.5160179151   -0.8422992762
   H       1.7726913572    1.5221085932    1.4455680856
   H      -0.0614454520    2.3605888224   -0.6903283405
   H      -1.4348974724    0.2085681731   -0.0825771298
