12
-230.27218 frame 0   xyz file generated by terachem
   C       0.3648393168   -0.9036918819    0.2725470741
   C       1.7461792777   -0.9657354702    0.0053849645
   C       2.4557320628    0.2184058592   -0.2459968067
   C       1.6702578067    1.2564008595    0.3802252241
   C       0.4126171785    1.4578841480   -0.3007075963
   C      -0.3176989839    0.2859707476   -0.0488977957
   H      -0.1828686120   -1.7963298260    0.5005158101
   H       2.2455203681   -1.9176192639   -0.0292274433
   H       3.3931005915    0.3310287893   -0.7487613938
   H       1.8279300652    1.5617879532    1.4121787585
   H       0.1003068862    2.3257663329   -0.8422717073
   H      -1.3904300177    0.2863783863   -0.1260342451
