12
-230.32454 frame 0   xyz file generated by terachem
   C       0.3474223368   -1.0421024014    0.1099655995
   C       1.7493702589   -1.0312332830   -0.0775892390
   C       2.4067172252    0.1985769794   -0.1688202622
   C       1.7515975999    1.4205177758    0.0050208466
   C       0.3497164384    1.4242363095    0.1922552348
   C      -0.3737723988    0.2038408706   -0.2250586299
   H      -0.1537335663   -1.9416073922    0.4193455411
   H       2.3289973320   -1.9357837203   -0.0457421101
   H       3.4788755009    0.2003383610   -0.2476205653
   H       2.3323791167    2.3213013727    0.0849951702
   H      -0.1512112598    2.3065760701    0.5472873795
   H      -0.4610158329    0.2410041056   -1.3142683951
