12
-230.27554 frame 0   xyz file generated by terachem
   C       0.2956532775   -0.9500801950   -0.2999224402
   C       1.6730495082   -0.9767588574   -0.0349557831
   C       2.3447856930    0.2254180460    0.2622648773
   C       1.6866161914    1.4392795221   -0.0182845749
   C       0.3088678406    1.4318125494   -0.2860317058
   C      -0.1827438035    0.2398534231    0.3670163979
   H      -0.2957260903   -1.7062093339   -0.7716219451
   H       2.2222269094   -1.8997451404   -0.0901065273
   H       3.3941371400    0.2182068990    0.4805619107
   H       2.2449657666    2.3577599638   -0.0546193584
   H      -0.2719217633    2.1952282252   -0.7590656958
   H      -0.5141301186    0.2353976280    1.4031892188
