12
-230.32310 frame 0   xyz file generated by terachem
   C       0.3327793809   -1.0510972586    0.2098568105
   C       1.7771207012   -1.0354087713   -0.1054200643
   C       2.4503447908    0.1943713325    0.0821994247
   C       1.6996720250    1.3708729950    0.1516116118
   C       0.3160128645    1.3961998423   -0.0420414825
   C      -0.3693886068    0.1730365090   -0.2292887423
   H       0.2422719020   -1.1019194800    1.2979163213
   H       2.3205597721   -1.9151750778   -0.3996943182
   H       3.5233166493    0.2560914366    0.0686394089
   H       2.2225208875    2.3072371934    0.2266180351
   H      -0.1812536157    2.3426084196   -0.1526060113
   H      -1.3701752059    0.1644068910   -0.6223634307
