12
-230.27258 frame 0   xyz file generated by terachem
   C       0.4066263496   -0.8265580891   -0.3429107715
   C       1.7349225625   -1.0119140800    0.1932548332
   C       2.4153751847    0.1720552722   -0.1325943855
   C       1.6844371312    1.3533848825   -0.3662264908
   C       0.3398705892    1.3927895242    0.0509553325
   C      -0.3195515286    0.1972029613    0.3724895704
   H       0.1418894651   -1.1274659609   -1.3541940329
   H       2.1187299449   -1.8774510578    0.6906539427
   H       3.4896595178    0.1862543679   -0.1817744858
   H       2.1902781311    2.2558454289   -0.6464821234
   H      -0.1652312441    2.3371049462    0.1490722464
   H      -1.2015065184    0.0696684997    0.9642264999
