12
-230.27158 frame 0   xyz file generated by terachem
   C       0.3908519126   -0.8127388387   -0.3346854387
   C       1.7185587573   -0.9971209623    0.2030113492
   C       2.4035149649    0.1834634306   -0.1193576789
   C       1.6749313265    1.3626206664   -0.3658196418
   C       0.3288655530    1.4060122317    0.0468993460
   C      -0.3390423788    0.2137855804    0.3714693432
   H       0.1260330307   -1.1202510203   -1.3439165854
   H       2.0985247845   -1.8646332663    0.7004676812
   H       3.4784938784    0.1993614533   -0.1447715990
   H       2.1828371328    2.2632528151   -0.6481065909
   H      -0.1753164086    2.3518596299    0.1365719298
   H      -1.1962637043    0.0876989831    0.9985497713
