12

C      0.532575   -1.132258   -0.255277
C      1.715306   -0.969407    0.599098
C      2.433021    0.126175    0.046269
C      1.841360    1.567498    0.062137
C      0.323488    1.499619    0.133598
C     -0.179695    0.193074   -0.115585
H     -0.022455   -2.098516   -0.479212
H      1.862501   -1.437317    1.622171
H      2.663752   -0.217089   -0.940999
H      2.165804    2.590446   -0.198146
H     -0.239633    2.515135    0.006724
H     -1.241613    0.122581    0.090811
12

C      0.382649   -0.876812   -0.060264
C      1.625189   -0.981086    0.815784
C      2.154209    0.006501   -0.192886
C      1.670677    1.453517   -0.137625
C      0.295319    1.585481    0.115117
C     -0.362639    0.371279    0.074863
H      0.249259   -1.771071   -0.607034
H      2.208058   -1.625137    1.657014
H      3.074420   -0.269225   -0.829846
H      2.277651    2.342409   -0.269043
H     -0.435326    2.521249    0.157728
H     -1.285056    0.002836   -0.152219
12

C      0.507238   -0.812243   -0.060128
C      1.693953   -0.876176    0.788987
C      2.274448    0.084228   -0.173113
C      1.718124    1.424719   -0.072164
C      0.260940    1.474238    0.091193
C     -0.355369    0.371029   -0.091181
H      0.175352   -1.836138   -0.400032
H      2.090417   -1.487850    1.426474
H      2.989787   -0.276369   -0.868645
H      2.265921    2.327241   -0.085970
H     -0.296201    2.276642    0.092992
H     -1.470198    0.090618   -0.076822
12

C      0.406225   -1.012461    0.057934
C      1.800146   -1.057184    0.651668
C      2.246529    0.019117   -0.460899
C      1.596172    1.453636   -0.235286
C      0.108875    1.366495    0.123427
C     -0.461295    0.111027    0.098093
H      0.141707   -1.689194   -0.698552
H      2.033429   -1.043894    1.711391
H      3.189103   -0.117206   -0.725601
H      2.415218    2.207206   -0.096479
H     -0.182392    2.370129    0.315152
H     -1.439307    0.152269   -0.169258
12

C      0.374997   -1.024859    0.012557
C      1.732228   -1.010024    0.718924
C      2.321700    0.007168   -0.267340
C      1.672165    1.394206   -0.276705
C      0.289083    1.420029    0.074108
C     -0.422254    0.172131    0.124617
H      0.343846   -1.692031   -0.896911
H      1.906850   -1.091205    1.801907
H      3.333277   -0.296247   -0.909900
H      2.227861    2.290181   -0.206051
H     -0.343500    2.318232    0.380315
H     -1.581842    0.272357    0.016070
12

C      0.397365   -1.001141   -0.196243
C      1.671364   -0.995267    0.647272
C      2.309270    0.029711   -0.221649
C      1.698326    1.406671   -0.139770
C      0.309261    1.484631    0.262781
C     -0.364714    0.277712   -0.118459
H      0.314552   -2.092550   -0.758370
H      1.770878   -1.143843    1.809500
H      3.077166   -0.155728   -0.875016
H      2.386987    2.393335   -0.282379
H     -0.317334    2.375587    0.225107
H     -1.398710    0.180823    0.218817
12

C      0.574560   -0.782229    0.082658
C      1.746954   -1.111654    0.757960
C      2.276142    0.005759   -0.113382
C      1.628774    1.484231   -0.018255
C      0.176092    1.626859    0.290816
C     -0.294725    0.360058    0.100230
H      0.411831   -1.643990   -0.356135
H      1.964386   -1.928981    1.407733
H      3.008796   -0.242271   -0.796927
H      1.955396    2.299285   -0.547650
H     -0.236592    2.527137    0.121028
H     -1.357203    0.165735   -0.356485
12

C      0.592989   -0.821799    0.077468
C      1.736580   -1.110946    0.776143
C      2.265516   -0.008279   -0.109280
C      1.623747    1.491142   -0.002434
C      0.189542    1.597979    0.284179
C     -0.276997    0.322323    0.087944
H      0.330660   -1.631872   -0.388521
H      1.972111   -1.846265    1.331887
H      3.031292   -0.249906   -0.748529
H      2.029746    2.313422   -0.559837
H     -0.325698    2.561996    0.124890
H     -1.315077    0.142145   -0.302319
12

C      0.493715   -1.036400   -0.145738
C      1.629354   -0.839057    0.764030
C      2.289354    0.148469    0.034442
C      1.677492    1.541600   -0.179188
C      0.303252    1.614210   -0.005124
C     -0.360346    0.201262    0.022836
H      0.218050   -1.935974   -0.581344
H      2.071401   -1.305871    1.548840
H      2.691842   -0.153461   -0.928633
H      2.571863    2.140583   -0.116503
H     -0.233615    2.512405    0.262239
H     -1.497951   -0.127828   -0.104269
12

C      0.495747   -1.044916   -0.095705
C      1.625217   -0.835575    0.789739
C      2.288359    0.112308    0.018455
C      1.647747    1.521765   -0.147153
C      0.319333    1.565116    0.041447
C     -0.348582    0.233695    0.034352
H      0.189264   -1.901559   -0.691155
H      2.031728   -1.288227    1.557668
H      2.775288   -0.154137   -0.915269
H      2.504937    2.174177   -0.214587
H     -0.273610    2.400841    0.247304
H     -1.401019   -0.023546   -0.053506
12

C      0.449663   -0.998746   -0.073709
C      1.695754   -0.866688    0.703718
C      2.314634    0.085624   -0.299097
C      1.741101    1.471416   -0.200721
C      0.314400    1.519885    0.051040
C     -0.222487    0.208484    0.164197
H      0.138365   -1.706072   -0.806026
H      1.816867   -1.324778    1.809513
H      3.192783   -0.313563   -0.848955
H      2.380345    2.358879   -0.298642
H     -0.569878    2.180780    0.349204
H     -1.397136    0.144718    0.021067
12

C      0.239102   -1.066858    0.002028
C      1.613807   -0.714982    0.353513
C      2.427367    0.084867   -0.565452
C      1.756388    1.312710   -0.131420
C      0.288503    1.252157    0.339653
C     -0.459314    0.061434   -0.022833
H     -0.169911   -1.917092   -0.338979
H      2.043005   -0.571497    1.384015
H      3.543071   -0.164878   -0.718779
H      2.219207    2.189674    0.254373
H     -0.141665    2.132743    0.212787
H     -1.505150    0.161661   -0.197317
12

C      0.324077   -0.975648    0.008532
C      1.673238   -0.785546    0.427151
C      2.389057   -0.114952   -0.617008
C      1.748570    1.160815   -0.139228
C      0.403259    1.219737    0.169716
C     -0.505604    0.095910   -0.037244
H      0.000415   -1.998419   -0.238321
H      1.907322   -0.421482    1.438897
H      3.362180    0.185940   -0.825306
H      2.234375    1.954445    0.298611
H     -0.150568    2.258175    0.406726
H     -1.531910    0.180965   -0.320937
12

C      0.405125   -1.026949   -0.011756
C      1.800502   -0.922355    0.601465
C      2.357448    0.086219   -0.483884
C      1.699749    1.216244   -0.003419
C      0.250748    1.396076    0.140726
C     -0.422973    0.103630   -0.001046
H     -0.022810   -1.808158   -0.584557
H      1.938622   -0.677965    1.707360
H      3.263559   -0.211058   -0.984822
H      2.222796    2.211582    0.042127
H     -0.154977    2.286877    0.401815
H     -1.483381    0.105797   -0.252419
12

C      0.354911   -0.996551   -0.051887
C      1.813617   -1.058196   -0.079657
C      2.437210    0.296972   -0.358381
C      1.719094    1.374344   -0.016715
C      0.206430    1.369009    0.043333
C     -0.375911    0.134793    0.035191
H     -0.025496   -1.897806   -0.238733
H      1.756083   -0.617764    1.678401
H      3.626019    0.005621   -0.554006
H      2.320717    2.163162   -0.059921
H     -0.413925    2.326953    0.016818
H     -1.535990    0.266769    0.266483
12

C      0.353903   -0.963023   -0.122177
C      1.888649   -1.079600   -0.153189
C      2.410212    0.253588   -0.393207
C      1.670881    1.357918   -0.008153
C      0.253536    1.430473    0.088569
C     -0.411228    0.086507    0.048123
H     -0.135015   -1.971659   -0.068315
H      1.697500   -0.685236    1.662627
H      3.569082    0.084200   -0.509449
H      2.351885    2.272685   -0.024610
H     -0.345294    2.249129   -0.000835
H     -1.479935    0.264853    0.145768
12

C      0.432560   -1.108864   -0.059526
C      1.781048   -1.190656    0.146934
C      2.470373    0.082929   -0.296108
C      1.826404    1.310507   -0.085361
C      0.386118    1.298061    0.062918
C     -0.380392    0.115288   -0.004417
H     -0.261642   -1.910231   -0.522688
H      1.607462   -0.676791    1.459570
H      3.389113    0.157751   -0.389237
H      2.186111    2.412078   -0.275287
H     -0.174085    2.133554    0.295988
H     -1.408660    0.136312    0.238802
12

C      0.385542   -1.125070   -0.048775
C      1.787532   -1.106192    0.231834
C      2.460482    0.097205   -0.326838
C      1.824907    1.379485   -0.106151
C      0.364721    1.337236    0.011676
C     -0.408331    0.209325   -0.035531
H     -0.259223   -1.968372   -0.396483
H      1.696180   -1.016798    1.368893
H      3.489704    0.186449   -0.343197
H      2.184499    2.381702   -0.253857
H     -0.280736    2.207963    0.219649
H     -1.390866    0.177006    0.250371
12

C      0.284709   -1.206342   -0.117795
C      1.796315   -1.163496    0.078613
C      2.444473    0.155398   -0.250407
C      1.911768    1.382756   -0.013539
C      0.340488    1.268866    0.163135
C     -0.404418    0.206403    0.060571
H     -0.213778   -2.088436   -0.223005
H      1.533642   -0.698061    1.164523
H      3.701809    0.222952   -0.462264
H      2.291206    2.296226   -0.235604
H     -0.319062    2.203360    0.211023
H     -1.512743    0.180315    0.196338
12

C      0.220525   -1.194187   -0.155092
C      1.828823   -1.109765    0.132189
C      2.450991    0.200661   -0.340461
C      1.806049    1.458056   -0.022656
C      0.317645    1.353460    0.099388
C     -0.450684    0.198876    0.003294
H     -0.206785   -2.222108   -0.101203
H      1.740041   -1.090691    1.346695
H      3.570280    0.204428   -0.514857
H      2.387750    2.482561   -0.070404
H     -0.253161    2.212752    0.063493
H     -1.557065    0.265897    0.131203
12

C      0.379214   -1.070616    0.036830
C      1.690096   -1.038996    0.502447
C      2.641819    0.210886    0.248411
C      1.780549    1.684602    0.221468
C      0.476379    1.560274   -0.161708
C     -0.228826    0.175570   -0.249371
H     -0.079783   -1.970393    0.032656
H      2.142006   -1.727217    1.319197
H      2.330622    0.067010   -1.053560
H      2.426816    2.496862    0.032199
H     -0.330711    2.274197   -0.131201
H     -1.373769    0.097761   -0.225777
12

C      0.214842   -1.189920   -0.071319
C      1.845388   -1.041497   -0.075503
C      2.514935    0.240184   -0.154941
C      1.731654    1.433477   -0.017605
C      0.467560    1.325948    0.144063
C     -0.404292   -0.092178    0.127486
H     -0.297276   -2.139878    0.016293
H      1.495735   -0.870664    1.270700
H      3.572864    0.207732   -0.703170
H      2.216435    2.456363   -0.064574
H     -0.075680    2.211900    0.192641
H     -1.427752    0.218473   -0.092480
12

C      0.274992   -1.140218    0.032961
C      1.837566   -1.068097    0.007611
C      2.544111    0.176648   -0.106772
C      1.784645    1.411767   -0.045555
C      0.517852    1.327302    0.056673
C     -0.389188   -0.033621    0.102694
H     -0.381492   -2.132370   -0.003837
H      1.530431   -0.845805    1.022408
H      3.380368    0.250578   -0.523413
H      2.174670    2.517326   -0.070795
H     -0.032827    2.193978    0.176263
H     -1.386717    0.102453   -0.076649
12

C      0.355146   -1.114902    0.051960
C      1.805930   -1.167859    0.032102
C      2.525178    0.247521   -0.225297
C      1.720847    1.378117    0.005311
C      0.253704    1.344796    0.185657
C     -0.344596    0.122784    0.292655
H     -0.375467   -1.922249   -0.226195
H      1.780933   -0.791409    1.071974
H      3.493135    0.250519   -0.600077
H      2.410218    2.184508    0.176566
H     -0.210587    2.143097   -0.352108
H     -1.560032    0.085018    0.159040
12

C      0.289627   -1.175569   -0.009559
C      1.763545   -1.147210    0.257534
C      2.429331    0.105227   -0.169212
C      1.734400    1.356240   -0.021871
C      0.414535    1.261422    0.164080
C     -0.319373    0.062323    0.156234
H     -0.242330   -2.065613   -0.459113
H      1.744932   -0.539073    1.126231
H      3.459055    0.163132   -0.319632
H      2.066583    2.257511   -0.504916
H     -0.030439    2.222610    0.532318
H     -1.455455    0.258939   -0.180504
12

C      0.478274   -1.099032   -0.332077
C      1.686662   -0.915497    0.556131
C      2.299059    0.278923   -0.070107
C      1.692779    1.396126    0.065055
C      0.440145    1.408735    0.297808
C     -0.163059    0.135697    0.125105
H     -0.083975   -1.920805   -0.684283
H      1.825446   -1.179422    1.612327
H      3.084434   -0.160137   -0.787886
H      2.066280    2.305549   -0.354465
H     -0.189973    2.304139   -0.037155
H     -1.281662    0.205664    0.181137
12

C      0.328016   -0.950979    0.132491
C      1.645172   -0.931508    0.568356
C      2.381104    0.019144   -0.438245
C      1.616796    1.172872   -0.188898
C      0.172261    1.309613   -0.135343
C     -0.545849    0.087569   -0.049048
H      0.170433   -1.695212   -0.645832
H      2.086244   -1.175723    1.502115
H      3.455456    0.188048   -0.673364
H      2.203676    2.051146    0.232351
H     -0.131171    2.398423   -0.160189
H     -1.527728    0.286546    0.427196
12

C      0.442179   -0.998914    0.024000
C      1.584620   -0.784799    0.921759
C      2.203247    0.110094   -0.176049
C      1.682010    1.461501   -0.182390
C      0.311596    1.589788   -0.073060
C     -0.435008    0.207300   -0.089283
H      0.238583   -1.676886   -0.612498
H      2.169549   -1.568005    1.276533
H      3.115271   -0.327932   -0.633264
H      2.202954    2.307518   -0.166472
H     -0.179347    2.472316    0.181649
H     -1.481244   -0.032042    0.100665
12

C      0.434537   -0.978065    0.008972
C      1.597990   -0.780486    0.904984
C      2.199971    0.089925   -0.199725
C      1.692572    1.463659   -0.197000
C      0.311961    1.592286   -0.074349
C     -0.438448    0.216509   -0.071539
H      0.195432   -1.739185   -0.658964
H      2.192830   -1.541910    1.321886
H      3.130233   -0.283716   -0.593876
H      2.256767    2.299656   -0.169939
H     -0.209655    2.447763    0.172807
H     -1.509779   -0.026496    0.128333
12

C      0.461151   -0.908725   -0.245089
C      1.718392   -0.916921    0.595587
C      2.236571    0.020657   -0.343187
C      1.675026    1.388831   -0.201954
C      0.182406    1.381125    0.048503
C     -0.371596    0.271466    0.106207
H      0.138706   -1.856583   -0.567598
H      2.004917   -1.312490    1.564372
H      3.222904    0.078512   -0.479585
H      2.406422    2.096472   -0.197796
H     -0.354954    2.244387    0.072952
H     -1.465534    0.273209    0.219178
12

C      0.516351   -0.890667   -0.219617
C      1.733815   -0.943060    0.547405
C      2.297867    0.039163   -0.300297
C      1.611073    1.331592   -0.167225
C      0.204497    1.387506    0.089594
C     -0.365453    0.203523    0.149993
H      0.057720   -2.035445   -0.615728
H      1.870547   -1.229598    1.668042
H      3.348572    0.007000   -0.734518
H      2.374562    2.232084   -0.131402
H     -0.363982    2.342480    0.056379
H     -1.431158    0.315361    0.228963
12

C      0.523495   -1.076064   -0.056041
C      1.625700   -0.854063    0.799283
C      2.341603    0.196986   -0.085320
C      1.742750    1.519242   -0.078213
C      0.443615    1.407184    0.007273
C     -0.255271    0.124080   -0.073028
H      0.195284   -1.870234   -0.651621
H      2.013666   -1.418449    1.554878
H      2.749182   -0.352853   -0.898839
H      2.146969    2.439676   -0.113124
H     -0.239961    2.362489    0.135106
H     -1.432623    0.281945    0.031235
12

C      0.267254   -1.142956   -0.556131
C      1.449840   -0.839425    0.462598
C      2.431757    0.238505    0.056668
C      1.707397    1.558298   -0.241145
C      0.424500    1.402549    0.109649
C     -0.309702    0.041089    0.170061
H     -0.180452   -2.054235   -0.529222
H      1.769606   -1.292332    1.309819
H      3.505935    0.073856   -0.225725
H      2.387177    2.436641   -0.687615
H     -0.296694    2.214876    0.290526
H     -1.302209    0.123074    0.412107
12

C      0.410282   -1.193447   -0.303150
C      1.546250   -0.764110    0.404791
C      2.469656    0.227485   -0.233483
C      1.859001    1.498824    0.100244
C      0.461006    1.266150    0.352084
C     -0.186614    0.147041   -0.081597
H     -0.255786   -2.012212   -0.149608
H      1.700366   -0.733736    1.492240
H      3.156357   -0.225884   -0.972439
H      2.138368    2.393128   -0.166670
H     -0.159905    2.120145    0.483287
H     -1.284570    0.036554   -0.354112
12

C      0.497681   -1.123726   -0.267886
C      1.687998   -0.890024    0.623905
C      2.320548    0.212954   -0.035359
C      1.749223    1.389172    0.116920
C      0.421423    1.412617    0.398621
C     -0.197115    0.154029    0.201025
H     -0.233711   -1.728124   -0.734991
H      1.918339   -1.170727    1.590616
H      2.973824   -0.009606   -0.789578
H      2.259648    2.315578   -0.462393
H     -0.283045    2.081956   -0.122598
H     -1.260402    0.115840    0.053308
12

C      0.356267   -1.075338   -0.081329
C      1.731861   -0.975704    0.115241
C      2.447802    0.076937   -0.231044
C      1.780907    1.275864   -0.080215
C      0.365854    1.320659    0.050809
C     -0.333834    0.131566    0.045140
H     -0.272745   -2.027317   -0.090801
H      1.664962   -0.544903    1.097187
H      3.586250    0.025172   -0.680834
H      2.068556    2.212673    0.172422
H     -0.183226    2.203166    0.234125
H     -1.358244    0.137164    0.020888
12

C      0.404865   -1.180696   -0.001213
C      1.785200   -1.053469    0.047970
C      2.371602    0.256719   -0.500236
C      1.728418    1.436402   -0.149211
C      0.408985    1.278481    0.184412
C     -0.425931    0.056772    0.041365
H     -0.050461   -2.190627   -0.264581
H      1.485068   -0.496861    1.231957
H      3.358905   -0.011104   -0.385142
H      2.386933    2.283816   -0.048027
H     -0.130552    2.075757    0.439871
H     -1.468621    0.304750   -0.025576
12

C      0.199677   -1.209457   -0.039859
C      1.741144   -1.186016    0.242181
C      2.399881    0.151099   -0.208736
C      1.884411    1.402791   -0.131328
C      0.395066    1.229825    0.251923
C     -0.405004    0.107885   -0.026992
H     -0.077590   -2.211537   -0.389271
H      1.586920   -0.540442    1.249834
H      3.457669    0.218817   -0.456416
H      2.179176    2.374802   -0.376326
H     -0.007296    2.104477    0.498927
H     -1.499643    0.317695   -0.042346
12

C      0.506056   -0.888703    0.041383
C      1.736634   -1.069305    0.790057
C      2.267783   -0.018861   -0.075714
C      1.677386    1.425300   -0.013398
C      0.174468    1.594808    0.109009
C     -0.348312    0.353669   -0.032427
H     -0.035225   -1.793838   -0.338961
H      2.357002   -1.648564    1.645186
H      2.758070   -0.036912   -1.100871
H      2.369948    2.329736   -0.018650
H     -0.349620    2.606125   -0.030294
H     -1.259780   -0.093513   -0.403731
12

C      0.476732   -0.721742    0.047435
C      1.726317   -0.791194    0.931688
C      2.366468    0.089692   -0.065832
C      1.722536    1.360811    0.017427
C      0.240057    1.482448    0.028035
C     -0.574671    0.413638   -0.026379
H      0.419257   -1.665632   -0.352234
H      2.168787   -1.898286    1.259255
H      2.832638   -0.231751   -0.880579
H      2.320793    2.331486   -0.181117
H     -0.230735    2.452636   -0.086117
H     -1.613768   -0.062168   -0.119990
12

C      0.277391   -1.103316   -0.133912
C      1.994470   -1.169329    0.194946
C      2.444380    0.209261   -0.211082
C      1.767400    1.323851    0.140251
C      0.319343    1.381612    0.152896
C     -0.401931    0.042661    0.084198
H     -0.339976   -2.027551   -0.324640
H      1.613737   -0.861785    1.331877
H      3.507121    0.330145   -0.571736
H      2.172276    2.189573   -0.277631
H     -0.046312    2.436580    0.056537
H     -1.453489    0.008237    0.129883
12

C      0.251542   -1.115945   -0.001790
C      1.650157   -0.948317   -0.099966
C      2.463567    0.233358   -0.263456
C      1.822959    1.417026   -0.002352
C      0.422460    1.258313    0.032119
C     -0.325613    0.024433    0.054024
H     -0.146403   -2.105502   -0.163189
H      1.414503   -0.779584    1.204839
H      3.523790    0.031449   -0.599347
H      2.179149    2.424591    0.043806
H     -0.069535    2.327318    0.122245
H     -1.332167   -0.007201    0.244657
12

C      0.350680   -1.188426   -0.109873
C      1.780299   -0.866105   -0.146046
C      2.515224    0.251066   -0.227676
C      1.769888    1.364186    0.074916
C      0.325053    1.327021    0.103636
C     -0.387968    0.038061   -0.079461
H     -0.260766   -2.128953   -0.020727
H      1.389133   -0.831345    1.178356
H      3.539258    0.268218   -0.421394
H      2.353432    2.277532   -0.252938
H     -0.030918    2.228355    0.297778
H     -1.488903    0.020329    0.175020
12

C      0.420476   -1.039372    0.111985
C      1.651963   -0.832248    0.550359
C      2.306176   -0.071432   -0.402283
C      1.751602    1.339969    0.014625
C      0.277343    1.328262    0.312877
C     -0.363214    0.055381    0.171411
H      0.138557   -1.661048   -0.820576
H      1.773511   -0.983027    1.601310
H      3.422614    0.157085   -0.531913
H      2.134790    1.930830   -0.772496
H     -0.266506    2.273402    0.556709
H     -1.392901    0.262138   -0.220419
12

C      0.304413   -1.164973   -0.210908
C      1.762157   -1.100468    0.033453
C      2.531314    0.123085   -0.080989
C      1.687057    1.424841   -0.077666
C      0.373962    1.335997    0.208139
C     -0.231388    0.047675    0.053683
H     -0.524690   -2.063466   -0.114562
H      1.602943   -0.587037    1.013349
H      3.605943    0.183776   -0.361517
H      2.216596    2.274271   -0.260143
H     -0.209810    2.268690    0.310737
H     -1.264086    0.017549    0.058014
12

C      0.374953   -1.064156    0.086616
C      1.631805   -0.838221    0.540009
C      2.311556   -0.062149   -0.495594
C      1.698285    1.229252    0.009413
C      0.332335    1.363168    0.370737
C     -0.382100    0.092113    0.205601
H      0.047440   -1.553967   -0.759211
H      1.932456   -0.914110    1.579731
H      3.338303   -0.064303   -0.458528
H      2.058821    2.171743   -0.659244
H     -0.243421    2.206911    0.539018
H     -1.246024    0.193658   -0.386957
12

C      0.374322   -1.029507    0.035056
C      1.719611   -0.788737    0.497140
C      2.574960    0.076132   -0.357711
C      1.752169    1.317829   -0.172607
C      0.256482    1.241399    0.020908
C     -0.556924    0.111108   -0.152371
H      0.100139   -1.867078   -0.398985
H      1.750182   -0.747281    1.574889
H      3.318881    0.027322   -1.108324
H      2.522411    2.084577    0.311176
H     -0.358639    2.079294    0.243311
H     -1.599181    0.254881    0.079108
12

C      0.386479   -0.926336    0.139619
C      1.642224   -0.781911    0.875183
C      2.299915    0.066767   -0.174204
C      1.603379    1.400595   -0.163785
C      0.121521    1.453989   -0.069080
C     -0.372437    0.212458   -0.062527
H      0.471952   -1.707169   -0.598215
H      1.901871   -1.720839    1.203715
H      3.138602   -0.230473   -0.813785
H      2.402776    2.344074   -0.010461
H     -0.446562    2.283479   -0.180256
H     -1.295310    0.365306    0.425386
12

C      0.456811   -0.825236    0.165926
C      1.655906   -0.844249    0.944302
C      2.440521    0.131011   -0.060954
C      1.696954    1.358106    0.010238
C      0.326393    1.549976   -0.149382
C     -0.324997    0.241285   -0.389362
H      0.269635   -1.817681   -0.148885
H      2.227643   -1.707164    1.169352
H      2.721729   -0.141164   -1.150650
H      2.365372    2.212294    0.339856
H     -0.511410    2.313197   -0.185393
H     -1.470146    0.289565    0.026542
12

C      0.165311   -1.185938   -0.392794
C      1.505574   -0.913697    0.265342
C      2.409813    0.276127   -0.156034
C      1.879613    1.547218   -0.260394
C      0.433074    1.385647   -0.055241
C     -0.223912    0.053298    0.163429
H     -0.100719   -2.227779   -0.620960
H      1.529279   -1.229191    1.339312
H      3.351339    0.052433   -0.134876
H      2.255712    2.564130   -0.367910
H     -0.303071    2.242115    0.070701
H     -1.047603    0.195578    0.721014
12

C      0.211893   -1.271148   -0.306933
C      1.513533   -0.865975    0.356639
C      2.263203    0.254498   -0.175308
C      1.848061    1.582224   -0.356710
C      0.424007    1.335960   -0.141183
C     -0.191521   -0.002384    0.190689
H     -0.069172   -2.205543   -0.730691
H      1.589105   -1.284079    1.316938
H      3.420388    0.033649   -0.042769
H      2.257860    2.625764   -0.436522
H     -0.192504    2.321891    0.213324
H     -1.220442    0.235084    0.684116
12

C      0.361295   -1.211420   -0.111179
C      1.535124   -0.799202    0.603576
C      2.536602    0.201573   -0.071785
C      1.725733    1.394880   -0.087771
C      0.423276    1.380417    0.059172
C     -0.329784    0.215871   -0.146895
H      0.082220   -2.125380   -0.699166
H      1.762635   -0.824245    1.648372
H      2.990749   -0.271253   -1.021913
H      2.407565    2.502905   -0.131264
H     -0.188925    2.220083    0.457020
H     -1.452079    0.075712    0.073424
12

C      0.342589   -1.117573   -0.023984
C      1.833595   -1.195538    0.265410
C      2.419925    0.162436   -0.163122
C      1.789513    1.325649   -0.033224
C      0.342073    1.297684    0.170770
C     -0.365983    0.117319    0.082159
H     -0.250778   -1.822204   -0.591903
H      1.664887   -0.635639    1.309003
H      3.572222    0.166887   -0.408489
H      2.233542    2.171107   -0.534051
H     -0.257612    2.152309    0.413456
H     -1.469562    0.137501    0.085565
12

C      0.548445   -1.050214   -0.187695
C      1.719282   -0.956355    0.609377
C      2.363064    0.050222   -0.275365
C      1.762467    1.428477   -0.030950
C      0.371840    1.385479    0.321669
C     -0.400368    0.182928    0.045614
H      0.097034   -1.963282   -0.588266
H      1.595648   -0.886834    1.697666
H      3.203422   -0.108104   -0.981288
H      2.234116    2.288612   -0.338576
H     -0.166587    2.324533    0.417752
H     -1.473953    0.064478   -0.118348
12

C      0.175180   -0.984821    0.178669
C      1.697889   -0.866345    0.558291
C      2.453193   -0.011869   -0.441609
C      1.669612    1.217696   -0.048607
C      0.145322    1.360190    0.004937
C     -0.583454    0.304781    0.128368
H      0.213181   -1.565885   -0.700249
H      2.204047   -1.371762    1.338285
H      3.544868    0.034220   -0.487106
H      2.067029    2.150846    0.027400
H     -0.118142    2.282033   -0.339955
H     -1.614312    0.210854    0.353166
12

C      0.348816   -0.989708   -0.084076
C      1.630525   -0.943754    0.739371
C      2.157144   -0.020073   -0.175397
C      1.565433    1.339501   -0.195411
C      0.245889    1.524184    0.127833
C     -0.410191    0.356471   -0.014860
H      0.696014   -1.677168   -0.852115
H      2.072679   -1.477516    1.582840
H      3.117167   -0.306606   -0.473549
H      2.135560    2.182163   -0.556634
H     -0.233538    2.517285    0.322106
H     -1.471086    0.255161    0.151480
12

C      0.357799   -0.948595   -0.087251
C      1.652113   -0.932871    0.819864
C      2.173996   -0.025319   -0.138156
C      1.571358    1.344783   -0.226597
C      0.253884    1.502006    0.119832
C     -0.449001    0.346962   -0.100547
H      0.478446   -1.630023   -0.880697
H      2.098105   -1.541824    1.535091
H      3.218204   -0.241238   -0.473333
H      2.207261    2.250956   -0.507462
H     -0.306892    2.489063    0.176622
H     -1.400863    0.146038    0.334223
12

C      0.405503   -1.066129   -0.080362
C      1.715051   -0.991043    0.744874
C      2.303711    0.049343   -0.140827
C      1.701727    1.297926   -0.188453
C      0.379453    1.329813    0.122197
C     -0.260474    0.108671    0.180373
H      0.431725   -1.587756   -1.086961
H      1.736067   -0.786990    1.807211
H      2.815135   -0.302419   -0.955630
H      2.205109    2.260417   -0.230335
H     -0.219259    2.253611    0.298477
H     -1.359336    0.194496    0.101027
12

C      0.353626   -0.964326    0.283333
C      1.780028   -0.869418    0.619451
C      2.369777    0.019893   -0.345394
C      1.634264    1.199883   -0.028822
C      0.256928    1.326619    0.098582
C     -0.547933    0.221694    0.358529
H      0.133546   -1.363045   -0.732645
H      2.259813   -1.363740    1.372295
H      3.395879   -0.036220   -0.692058
H      2.214042    2.131077   -0.046280
H     -0.354151    2.166754   -0.289139
H     -1.641408    0.290768   -0.026263
12

C      0.231442   -1.125408    0.027561
C      1.785934   -1.106437    0.108859
C      2.490336    0.156529   -0.064979
C      1.697372    1.359283    0.047287
C      0.403138    1.323699    0.184384
C     -0.296468    0.066468    0.184969
H     -0.325889   -1.992508   -0.406018
H      1.738791   -0.650284    1.213407
H      3.387047    0.342067   -0.498714
H      2.334368    2.091331   -0.379730
H     -0.230259    2.161175    0.238859
H     -1.361401    0.134026   -0.084295
12

C      0.401094   -1.069941   -0.143304
C      1.762515   -1.145460    0.173655
C      2.469938    0.135497   -0.331813
C      1.833247    1.326040   -0.211673
C      0.345302    1.273569    0.125603
C     -0.453487    0.089208    0.075312
H     -0.095289   -1.988925   -0.418086
H      1.565547   -0.606060    1.111376
H      3.527989   -0.082552   -0.246356
H      2.107830    2.394585   -0.119897
H     -0.132037    2.299037    0.233151
H     -1.478238    0.134941    0.323622
12

C      0.356379   -1.032674   -0.127948
C      1.764008   -1.104809    0.218749
C      2.450370    0.167273   -0.332428
C      1.768348    1.367423   -0.232593
C      0.340456    1.291007    0.123390
C     -0.503368    0.092906    0.084868
H     -0.015548   -1.930356   -0.493027
H      1.431693   -0.635532    1.125157
H      3.631405   -0.015755   -0.294088
H      2.235533    2.312405   -0.169547
H     -0.077420    2.233249    0.212356
H     -1.527446    0.014803    0.456700
12

C      0.295358   -1.129502    0.000832
C      1.855356   -1.231978    0.221095
C      2.530889    0.235710   -0.170014
C      1.791496    1.289425   -0.007450
C      0.363210    1.218758    0.342667
C     -0.487753    0.068549    0.240475
H     -0.399312   -1.934484   -0.369568
H      1.737222   -0.700584    1.316173
H      3.555003    0.198688   -0.620440
H      2.049378    2.325477   -0.352696
H     -0.060762    2.249296    0.239101
H     -1.375675    0.170583   -0.268584
12

C      0.272938   -1.074047   -0.129409
C      1.839750   -1.238958    0.190368
C      2.564973    0.199436   -0.205156
C      1.828939    1.291148   -0.036940
C      0.405736    1.227328    0.350216
C     -0.435541    0.103404    0.202021
H     -0.267208   -1.989901   -0.204811
H      1.657533   -0.663807    1.209942
H      3.481633    0.264528   -0.546709
H      1.972240    2.252802   -0.238972
H     -0.020493    2.105955    0.145236
H     -1.446091    0.282052   -0.164197
12

C      0.422284   -1.091051   -0.580894
C      1.538016   -0.832333    0.457905
C      2.324239    0.321841    0.202564
C      1.657798    1.551971   -0.042513
C      0.366381    1.538395   -0.012183
C     -0.208298    0.118474    0.006207
H     -0.086003   -1.956866   -0.298732
H      1.832299   -1.588843    1.095034
H      3.105845   -0.088448   -0.346656
H      2.243800    2.342908   -0.373936
H     -0.232040    2.420895   -0.150834
H     -1.109910    0.022996    0.615629
12

C      0.337348   -1.215983   -0.499340
C      1.474496   -0.902943    0.445169
C      2.305937    0.311561    0.069949
C      1.716641    1.532198   -0.177406
C      0.438300    1.504088   -0.095499
C     -0.209618    0.109768    0.001047
H     -0.333986   -2.086324   -0.270884
H      1.782387   -1.684202    1.199736
H      3.384534    0.234093   -0.353952
H      2.258237    2.525222   -0.245797
H     -0.296129    2.267401   -0.242725
H     -1.003736    0.165061    0.741292
12

C      0.442999   -0.953099    0.125964
C      1.648909   -0.860581    0.888777
C      2.037432    0.014706   -0.210181
C      1.684357    1.365657    0.015682
C      0.259594    1.493670    0.188231
C     -0.340582    0.286709   -0.065111
H      0.480254   -1.834230   -0.378888
H      2.089248   -1.744149    1.372455
H      3.013964   -0.100011   -0.823159
H      2.148279    2.303321   -0.450126
H     -0.238423    2.353631    0.266328
H     -1.371621    0.434317   -0.358382
12

C      0.402527   -1.011971    0.211507
C      1.712067   -0.945735    0.746899
C      2.391842    0.067258   -0.078455
C      1.562796    1.365892    0.050135
C      0.190073    1.467412    0.188063
C     -0.499709    0.237856    0.240714
H      0.287989   -1.181446   -0.933718
H      2.139635   -1.401926    1.554363
H      3.179825   -0.223701   -0.771707
H      2.016994    1.968608   -0.606458
H     -0.131674    2.477241    0.179135
H     -1.397956   -0.059548   -0.208890
12

C      0.532972   -0.816397    0.239194
C      1.791329   -0.983368    0.872469
C      2.210432   -0.001842   -0.039180
C      1.561904    1.333924   -0.139561
C      0.132049    1.488496   -0.190080
C     -0.538560    0.341288    0.147615
H      0.413919   -1.351051   -0.546486
H      2.335082   -1.909191    1.128224
H      3.114555   -0.254348   -0.611856
H      2.273749    2.247365   -0.215612
H     -0.341337    2.598112   -0.065713
H     -1.631683    0.066952   -0.007423
12

C      0.507068   -0.777149    0.228074
C      1.811078   -0.927080    0.976967
C      2.205584    0.075931   -0.081298
C      1.652582    1.399315   -0.118282
C      0.264029    1.601469   -0.170057
C     -0.434278    0.381603    0.099916
H      0.073020   -1.669809   -0.573914
H      2.230739   -1.872793    1.146792
H      3.080789   -0.082096   -0.670346
H      2.233262    2.213255   -0.186033
H     -0.365806    2.372924   -0.089613
H     -1.403655    0.044370    0.009384
12

C      0.390286   -1.046613    0.053980
C      1.641867   -1.014653    0.782299
C      2.341676    0.138904   -0.250955
C      1.844791    1.469563    0.147298
C      0.255450    1.355872    0.035552
C     -0.202617    0.181458   -0.051706
H      0.138802   -1.862998   -0.540083
H      2.031606   -1.075208    1.709274
H      2.580182   -0.192513   -1.233055
H      2.335686    2.348265    0.067825
H     -0.265925    2.321812    0.160040
H     -1.237395    0.136051   -0.308877
12

C      0.424165   -1.055966    0.043030
C      1.603421   -1.008114    0.820668
C      2.329920    0.130105   -0.175931
C      1.839700    1.467479    0.190682
C      0.298646    1.366838    0.041871
C     -0.195796    0.149763   -0.019811
H      0.157955   -1.762924   -0.730879
H      2.028924   -1.259062    1.817489
H      2.589506   -0.164288   -1.191828
H      2.346918    2.482475   -0.144334
H     -0.259994    2.261308    0.064216
H     -1.308954    0.152325   -0.143583
12

C      0.390069   -1.174009   -0.127841
C      1.790268   -1.181966    0.230896
C      2.445356    0.202600   -0.334694
C      1.751783    1.455556   -0.146044
C      0.328328    1.271341    0.147320
C     -0.372835   -0.012260    0.049331
H     -0.194942   -2.060473   -0.404229
H      1.507331   -0.565618    1.303788
H      3.434632    0.087030   -0.501489
H      2.324184    2.334567   -0.124678
H     -0.120739    2.209700    0.306524
H     -1.429025    0.193472    0.172707
12

C      0.535249   -1.051829   -0.167439
C      1.590951   -0.712857    0.837183
C      2.201519    0.134379   -0.290139
C      1.596890    1.456701   -0.182308
C      0.214994    1.544213   -0.017830
C     -0.463719    0.230043   -0.329249
H      0.087258   -1.985775   -0.190865
H      2.256684   -1.343041    1.360822
H      3.053583   -0.335530   -0.724130
H      2.290002    2.301210    0.013027
H     -0.030984    2.463599    0.520043
H     -1.478015    0.058827   -0.257526
12

C      0.316768   -0.945410    0.232835
C      1.695659   -0.954296    0.848506
C      2.327224    0.009890   -0.115101
C      1.619209    1.302346    0.057724
C      0.204502    1.438175    0.246779
C     -0.403961    0.211495    0.174535
H      0.412628   -1.124437   -0.849054
H      2.126755   -1.590444    1.683311
H      3.105447   -0.105574   -0.855890
H      2.053633    2.064859   -0.749516
H     -0.203791    2.439794    0.279595
H     -1.399663    0.013542   -0.382135
12

C      0.371823   -0.968400   -0.079099
C      1.685372   -0.774628    0.509701
C      2.474014    0.020128   -0.432250
C      1.675087    1.263856   -0.041255
C      0.189493    1.279369    0.158078
C     -0.470735    0.168587   -0.019597
H      0.002684   -2.070442   -0.377712
H      1.852034   -0.753637    1.680988
H      3.532769   -0.068333   -1.057082
H      2.222332    2.161404   -0.001324
H     -0.125324    2.259706    0.513606
H     -1.555138    0.242330   -0.282463
12

C      0.146002   -1.142069    0.323350
C      1.540435   -0.829066    0.847308
C      2.306869    0.076084   -0.166784
C      1.738631    1.398687   -0.138455
C      0.265876    1.327676    0.024300
C     -0.408168    0.144604    0.042484
H      0.400041   -1.210348   -0.877179
H      2.066012   -1.424962    1.440526
H      3.279039   -0.139362   -0.754342
H      2.335432    2.213653   -0.431733
H     -0.424871    2.216925    0.252843
H     -1.390886    0.128117    0.009270
12

C      0.375177   -1.116507    0.054076
C      1.765146   -0.935519    0.630646
C      2.515254    0.203207    0.215930
C      1.867319    1.550401    0.016202
C      0.414678    1.410738    0.181857
C     -0.218904    0.138404   -0.283316
H     -0.132093   -2.054950   -0.284079
H      2.134245   -1.463682    1.507567
H      2.348627   -0.001683   -0.923689
H      2.237166    2.543467   -0.326064
H     -0.097581    2.359904    0.308633
H     -1.354623    0.126160   -0.526172
12

C      0.500524   -1.031615   -0.170693
C      1.536645   -0.831615    0.810616
C      2.273226    0.096299   -0.195390
C      1.701426    1.369187   -0.097995
C      0.351699    1.420255    0.211026
C     -0.149883    0.153654    0.068330
H     -0.031868   -1.925633   -0.631843
H      1.944215   -1.163202    1.730639
H      3.032754   -0.141903   -0.981415
H      2.185998    2.348749   -0.320691
H     -0.242243    2.303981    0.412392
H     -1.248082    0.161782   -0.263387
12

C      0.461878   -1.041918   -0.204555
C      1.657644   -0.795800    0.674322
C      2.232165    0.052945   -0.184557
C      1.654544    1.344861   -0.210048
C      0.328840    1.433930    0.116330
C     -0.316189    0.158107    0.073806
H      0.043531   -1.783067   -0.851241
H      1.889740   -1.032604    1.727667
H      3.149969   -0.126047   -0.697399
H      2.240029    2.210156   -0.346640
H     -0.134770    2.359860    0.384007
H     -1.352971   -0.020484    0.089899
12

C      0.218006   -1.173154    0.306894
C      1.549995   -0.881347    0.643021
C      2.211625   -0.061206   -0.319843
C      1.586782    1.231455   -0.147968
C      0.192884    1.329626    0.142881
C     -0.497523    0.179950    0.201393
H      0.346770   -1.570853   -0.903559
H      2.324412   -1.223182    1.364746
H      3.394328    0.187837   -0.445746
H      2.294610    2.005697   -0.301953
H     -0.200074    2.356440   -0.011971
H     -1.567403    0.378675    0.043695
12

C      0.263604   -1.084958    0.223811
C      1.635397   -0.888591    0.559390
C      2.236226   -0.010694   -0.470691
C      1.662479    1.263826   -0.238493
C      0.324288    1.317644    0.154194
C     -0.519492    0.098217    0.177744
H      0.232823   -1.450021   -0.677266
H      2.181965   -0.999342    1.458258
H      3.208529    0.030857   -0.579570
H      2.346152    2.116362    0.037790
H     -0.185782    2.228706    0.050549
H     -1.531778    0.137933   -0.124126
12

C      0.297484   -0.961428   -0.018106
C      1.689089   -0.847292    0.554797
C      2.400781    0.086240   -0.319649
C      1.929076    1.522002   -0.220479
C      0.304192    1.486916   -0.259442
C     -0.304603    0.269663   -0.078104
H      0.075200   -1.993860   -0.310169
H      1.868405   -1.229345    1.391699
H      3.026969   -0.120572   -0.969891
H      2.074515    2.172091    0.674891
H     -0.225536    2.382076   -0.213658
H     -1.281161   -0.006551    0.339700
12

C      0.557315   -0.968130   -0.204123
C      1.651188   -0.971998    0.619518
C      2.413751    0.183202   -0.010832
C      1.794795    1.540045    0.069401
C      0.419253    1.372662   -0.162131
C     -0.211531    0.143329    0.003855
H      0.022706   -1.747975   -0.591422
H      1.542665   -1.397380    1.587636
H      2.987181   -0.024175   -0.971479
H      2.387127    2.386585   -0.238426
H     -0.366002    2.368575   -0.004086
H     -1.344038   -0.124800    0.473678
12

C      0.501331   -0.920191   -0.036592
C      1.758832   -0.819096    0.944567
C      2.299703    0.158111   -0.111816
C      1.571790    1.393448   -0.068015
C      0.198500    1.550198   -0.069248
C     -0.449277    0.370769    0.119396
H      0.320354   -1.890547   -0.228587
H      2.220261   -2.013112    0.926112
H      3.112241   -0.182261   -0.673278
H      2.263361    2.223595   -0.019677
H     -0.397754    2.539966   -0.277899
H     -1.544931    0.349059    0.066627
12

C      0.312935   -1.027880   -0.022744
C      1.745895   -1.182228    0.133995
C      2.452485    0.119535   -0.434617
C      1.770683    1.295326   -0.175651
C      0.331010    1.292869    0.237406
C     -0.356555    0.098850    0.121618
H     -0.220658   -2.179695   -0.406897
H      1.612298   -0.471033    1.388460
H      3.478892    0.161853   -0.508311
H      2.155078    2.252460   -0.041559
H     -0.044216    2.289520    0.300388
H     -1.383437    0.110362   -0.020500
12

C      0.339184   -1.036675   -0.080012
C      1.746942   -1.175271    0.146037
C      2.429102    0.147866   -0.374247
C      1.738475    1.278805   -0.181806
C      0.293254    1.283995    0.266795
C     -0.405214    0.073346    0.138092
H     -0.232539   -2.116094   -0.249853
H      1.603941   -0.449330    1.328332
H      3.551807    0.238526   -0.582133
H      2.203308    2.157374   -0.065703
H      0.014333    2.284740    0.377453
H     -1.428183    0.072659   -0.151364
12

C      0.344085   -0.777093    0.042080
C      1.635839   -0.639047    0.765201
C      2.351003    0.083242   -0.336910
C      1.726444    1.277946    0.030687
C      0.194806    1.357991    0.051744
C     -0.513331    0.303359   -0.020224
H      0.454867   -1.917359   -0.462583
H      1.974854   -1.520617    1.393935
H      3.312542   -0.246550   -0.888353
H      2.033385    2.225368   -0.097178
H     -0.064748    2.352180    0.077532
H     -1.595336    0.260521    0.015660
12

C      0.408950   -0.886129    0.048537
C      1.636604   -0.750677    0.772697
C      2.361662    0.056025   -0.316464
C      1.713907    1.258156    0.087806
C      0.232096    1.344812    0.064964
C     -0.489586    0.210179   -0.064650
H      0.419699   -1.690045   -0.426571
H      1.958902   -1.416279    1.369686
H      3.189547   -0.272037   -0.937482
H      2.113865    2.361772   -0.078865
H     -0.090591    2.373524    0.057270
H     -1.600643    0.170639   -0.005338
12

C      0.483842   -0.974745    0.124383
C      1.699923   -1.015997    0.927151
C      2.351286    0.137205    0.092429
C      1.645139    1.610927    0.016678
C      0.267557    1.642488    0.005034
C     -0.306867    0.237980    0.003935
H      0.203500   -1.523483   -0.829121
H      1.998663   -1.822377    1.334862
H      3.046792   -0.193749   -0.806919
H      2.286559    2.232500   -0.477909
H     -0.452112    2.372838   -0.130398
H     -1.369872    0.056352    0.311466
12

C      0.466878   -1.074777   -0.248958
C      1.630968   -0.903367    0.701015
C      2.226029    0.152688   -0.125259
C      1.721647    1.481014   -0.052690
C      0.302495    1.516509    0.172742
C     -0.217977    0.164038   -0.107197
H      0.119594   -2.037300   -0.586749
H      1.811459   -1.173797    1.714586
H      2.948115   -0.198488   -0.866545
H      2.365157    2.300220   -0.464281
H     -0.330135    2.419171    0.553145
H     -1.189819    0.114028   -0.118220
12

C      0.412017   -1.183530   -0.278588
C      1.571291   -0.747702    0.359509
C      2.476368    0.333411   -0.102626
C      1.767544    1.476878   -0.005407
C      0.323725    1.388172    0.222488
C     -0.245482    0.001662   -0.017468
H      0.105234   -2.208237   -0.271382
H      1.350114   -1.173204    1.348480
H      3.145792    0.053031   -0.897339
H      2.349425    2.324314   -0.128521
H     -0.059268    2.384319    0.015026
H     -1.342349    0.110827    0.327418
12

C      0.569950   -0.971467   -0.075581
C      1.709977   -0.928905    0.747859
C      2.330116    0.147435    0.120983
C      1.761433    1.525774    0.048554
C      0.318956    1.530119    0.054372
C     -0.297213    0.189140    0.025851
H      0.221122   -1.758449   -0.648936
H      2.023397   -1.507212    1.555908
H      2.563420   -0.352374   -0.889801
H      2.264895    2.388035   -0.430117
H     -0.322641    2.360479    0.214536
H     -1.289004    0.137363   -0.152038
12

C      0.436241   -0.899748    0.013983
C      1.662936   -0.742659    1.078271
C      2.208410    0.185034   -0.099120
C      1.619680    1.335481   -0.006344
C      0.241070    1.509722    0.072620
C     -0.567265    0.317872   -0.238518
H      0.234473   -1.891936   -0.362983
H      2.405954   -1.526018    1.087068
H      2.873573   -0.249761   -0.745301
H      2.373600    2.234697   -0.172382
H     -0.083235    2.447934    0.200855
H     -1.551026    0.039321   -0.256560
12

C      0.311392   -1.108385   -0.081602
C      1.791368   -1.032840   -0.015422
C      2.493569    0.251990   -0.080126
C      1.727419    1.361503   -0.113411
C      0.341981    1.284015    0.121233
C     -0.328481    0.155842    0.422614
H     -0.386826   -1.831702   -0.475508
H      1.715228   -0.873472    0.989265
H      3.444247    0.253273   -0.069326
H      2.363505    2.140878   -0.319237
H     -0.277130    2.167998   -0.123120
H     -1.341861   -0.009160    0.316230
12

C      0.243574   -1.168498   -0.058220
C      1.787908   -1.218298    0.158631
C      2.493461    0.044754   -0.214302
C      1.721693    1.194484   -0.013375
C      0.373588    1.293459    0.058161
C     -0.356490    0.018904    0.109303
H     -0.334478   -1.982719   -0.309756
H      1.740862   -0.645216    1.092680
H      3.560971    0.473766   -0.361264
H      2.192473    2.259187   -0.144552
H     -0.147264    2.237189    0.023668
H     -1.421887    0.252927    0.230616
12

C      0.591034   -0.931739   -0.217073
C      1.665446   -0.919870    0.626509
C      2.398137    0.161499   -0.049702
C      1.727773    1.456837   -0.263277
C      0.411247    1.531924   -0.017076
C     -0.190019    0.236137   -0.038751
H      0.198703   -1.885673   -0.498577
H      1.450397   -1.239607    1.676992
H      2.885416   -0.154581   -0.946378
H      2.285881    2.298393   -0.283633
H     -0.253923    2.292303    0.522252
H     -1.315683   -0.085684    0.060303
12

C      0.502028   -0.997048   -0.219948
C      1.581102   -0.956309    0.654235
C      2.191879    0.182548   -0.232835
C      1.698999    1.561909   -0.235681
C      0.440953    1.506222    0.067664
C     -0.216836    0.211585   -0.184470
H      0.105355   -1.841005   -0.447144
H      1.661711   -1.149811    1.690811
H      3.008911   -0.251070   -0.775478
H      2.396026    2.389334   -0.363334
H     -0.293291    2.175082    0.704987
H     -1.222426   -0.071495   -0.087215
12

C      0.412944   -1.075648    0.014778
C      1.710277   -0.963562    0.554850
C      2.556566    0.198796    0.187685
C      1.783827    1.520964    0.236476
C      0.430180    1.393631    0.088388
C     -0.169124    0.157527    0.084185
H     -0.289345   -2.151978   -0.220921
H      2.071775   -1.612856    1.291622
H      2.420753    0.408342   -1.015445
H      2.332673    2.323710   -0.018303
H     -0.195351    2.457181   -0.482516
H     -1.210765    0.103834   -0.149209
12

C      0.361905   -1.029178    0.003881
C      1.612972   -1.034916    0.552582
C      2.561445    0.196856    0.161237
C      1.778616    1.511054    0.157721
C      0.394534    1.374248    0.063187
C     -0.240372    0.169211    0.065851
H     -0.055882   -2.052974   -0.258317
H      1.992563   -1.502967    1.437039
H      2.379264    0.312787   -1.080136
H      2.395516    2.487665   -0.041170
H     -0.063825    2.171563   -0.315328
H     -1.262325    0.156589   -0.174958
12

C      0.512531   -0.926022    0.118222
C      1.739906   -1.061544    0.800554
C      2.243594    0.047769    0.046432
C      1.583853    1.471685   -0.005219
C      0.226481    1.557866   -0.110560
C     -0.353698    0.319766    0.098097
H      0.069392   -1.798294   -0.629641
H      2.326515   -1.678486    1.368717
H      2.965129   -0.017589   -0.911248
H      2.262738    2.171342    0.001977
H     -0.326770    2.472912   -0.340836
H     -1.395260    0.200534    0.135094
12

C      0.466609   -0.962876   -0.203331
C      1.694974   -1.063805    0.547624
C      2.279989    0.057496   -0.276726
C      1.623741    1.415152   -0.055218
C      0.322866    1.451444   -0.102161
C     -0.324462    0.239066    0.041349
H      0.029726   -1.784099   -0.500638
H      1.929015   -1.405166    1.653062
H      3.184631    0.064228   -0.674933
H      2.394262    2.383001   -0.133719
H     -0.269859    2.319868   -0.012878
H     -1.477080    0.045630    0.289158
12

C      0.414653   -1.024753   -0.097673
C      1.631202   -1.017474    0.658988
C      2.342793   -0.003121   -0.124399
C      1.671530    1.372393   -0.128628
C      0.331902    1.360852   -0.044404
C     -0.341947    0.168120   -0.028319
H      0.039333   -1.938593   -0.797866
H      1.874524   -0.964182    1.660476
H      3.281173    0.049726   -0.880937
H      2.204898    2.224430   -0.148123
H     -0.241431    2.247142    0.196341
H     -1.354219    0.285399    0.306134
12

C      0.508492   -0.831081    0.124449
C      1.727335   -0.855720    0.859705
C      2.181134    0.066204   -0.207882
C      1.608172    1.487782   -0.051631
C      0.190816    1.446183    0.166932
C     -0.441635    0.250955    0.231579
H      0.252649   -1.618267   -0.769010
H      2.139361   -1.789076    1.432513
H      3.186791   -0.294713   -0.686595
H      2.310499    2.305667   -0.452284
H     -0.371084    2.473588   -0.013955
H     -1.438120    0.118416   -0.062231
12

C      0.488944   -0.993003   -0.076246
C      1.792402   -0.919885    0.545144
C      2.251454    0.016036   -0.392169
C      1.630639    1.342574   -0.178655
C      0.258038    1.434671    0.251361
C     -0.327747    0.227175    0.065360
H      0.062297   -1.790495   -0.646455
H      1.755408   -0.985142    1.593758
H      3.212768   -0.120137   -0.634470
H      2.375064    2.231880   -0.270224
H     -0.264940    2.338452    0.334865
H     -1.379916   -0.022186   -0.020678
12

C      0.493194   -0.947983   -0.046055
C      1.734721   -0.896758    0.590236
C      2.226484   -0.018542   -0.363453
C      1.675636    1.371024   -0.259575
C      0.179391    1.515720    0.095199
C     -0.408375    0.267711   -0.003593
H     -0.084250   -1.792906   -0.692703
H      2.077229   -1.050487    1.650788
H      3.375096   -0.172748   -0.714605
H      2.335964    2.113956    0.012225
H     -0.336174    2.499583    0.214542
H     -1.414505   -0.128631    0.088584
12

C      0.530946   -1.061220   -0.024305
C      1.841305   -0.988314    0.681195
C      2.386248    0.238216    0.025198
C      1.824249    1.612703   -0.055134
C      0.321511    1.419661    0.153360
C     -0.186782    0.187498   -0.060271
H     -0.003456   -1.832477   -0.494368
H      1.853849   -1.530944    1.709988
H      2.574485   -0.180247   -1.007959
H      2.501441    2.493113   -0.351117
H     -0.426778    2.379640    0.277261
H     -1.362608    0.022312   -0.282258
12

C      0.483122   -1.003055   -0.268124
C      1.672693   -0.832237    0.494281
C      2.616914    0.152148    0.158687
C      1.711817    1.449798    0.090071
C      0.416623    1.485352    0.078217
C     -0.316055    0.152241    0.058862
H     -0.110283   -1.967481   -0.260018
H      1.807510   -1.385021    1.370985
H      2.857910    0.136973   -0.890394
H      2.170009    2.231306   -0.243370
H     -0.087790    2.355374   -0.026486
H     -1.368058   -0.015456    0.008880
12

C      0.501358   -0.870775    0.150480
C      1.735385   -0.993906    0.940330
C      2.347797    0.102384    0.055075
C      1.623381    1.445195    0.164111
C      0.251711    1.497656    0.059781
C     -0.469552    0.277937    0.022684
H      0.473623   -1.747118   -0.444363
H      2.026711   -2.029658    1.232666
H      2.782840   -0.107979   -1.044781
H      2.181159    2.464227   -0.227281
H     -0.110402    2.494339   -0.384948
H     -1.489602    0.227637    0.047837
12

C      0.360488   -1.113872   -0.160837
C      1.777628   -1.119611    0.213907
C      2.468859    0.236268   -0.229988
C      1.804940    1.432781   -0.039108
C      0.309807    1.322985    0.104912
C     -0.351886    0.123224    0.002313
H     -0.110105   -2.018821   -0.074376
H      1.431809   -0.588896    1.107220
H      3.472050    0.044428   -0.788851
H      2.557407    2.306705    0.079144
H     -0.235188    2.227086    0.212749
H     -1.631399   -0.092338    0.144506
12

C      0.251676   -1.156748    0.159710
C      1.758609   -1.138315    0.102464
C      2.443027    0.234773   -0.275392
C      1.711498    1.310425    0.005450
C      0.301430    1.259506    0.267029
C     -0.394317    0.126077    0.157589
H     -0.187513   -2.008440   -0.144100
H      1.781674   -0.612829    1.260770
H      3.367340    0.165742   -0.774031
H      2.519025    2.294739   -0.049079
H     -0.159396    2.234040    0.294160
H     -1.538642    0.050969   -0.432979
12

C      0.312162   -1.044932   -0.004193
C      1.744382   -1.160073    0.202493
C      2.469515    0.186369   -0.088182
C      1.722812    1.387537    0.054110
C      0.388057    1.241504    0.438853
C     -0.445375    0.117442    0.166980
H     -0.146946   -1.871063   -0.541125
H      1.800757   -0.648573    1.357451
H      3.321472    0.152385   -0.489802
H      2.299154    2.107874   -0.644161
H     -0.195008    2.135324    0.372558
H     -1.416571    0.156145   -0.253389
12

C      0.387818   -0.931164    0.218879
C      1.652554   -1.073314    0.931447
C      2.262270    0.086515    0.139025
C      1.550799    1.406907   -0.059829
C      0.266601    1.499274   -0.125082
C     -0.366040    0.342857   -0.033317
H      0.427646   -1.511393   -0.610198
H      2.472283   -1.806688    1.222857
H      2.759540   -0.221354   -0.772819
H      2.363937    2.369405   -0.193551
H     -0.331422    2.367668   -0.135392
H     -1.591575    0.231226   -0.010430
12

C      0.274780   -1.074115   -0.263685
C      1.456274   -0.671854    0.311278
C      2.401167    0.145806   -0.394261
C      1.788463    1.280273   -0.151117
C      0.365239    1.238697    0.316900
C     -0.341559    0.099124    0.039595
H      0.045768   -2.105504   -0.167882
H      1.702339   -0.760825    1.387245
H      3.433646    0.046801   -0.627562
H      2.412804    2.313552   -0.185408
H     -0.120545    2.116336    0.496987
H     -1.563965    0.131647   -0.190500
12

C      0.420561   -1.088242   -0.345000
C      1.499483   -0.820257    0.607722
C      2.411699    0.208318    0.027012
C      1.887722    1.414320   -0.144654
C      0.520761    1.360620    0.210476
C     -0.234591    0.109539   -0.130110
H     -0.101267   -1.995668   -0.496961
H      1.529588   -1.115557    1.615383
H      3.059070    0.172423   -0.834230
H      2.284900    2.313702   -0.506233
H     -0.293337    2.163848    0.421973
H     -1.130179    0.036893    0.146211
12

C      0.487626   -1.105440   -0.307159
C      1.595315   -0.863367    0.544381
C      2.399295    0.174434    0.003640
C      1.856626    1.518123   -0.075165
C      0.505481    1.413694    0.224644
C     -0.202607    0.127736    0.012410
H     -0.018537   -2.022032   -0.570517
H      1.565610   -1.194881    1.613873
H      3.125051   -0.056192   -0.781667
H      2.222885    2.519748   -0.570947
H     -0.203036    2.101552    0.374022
H     -1.479297    0.146564    0.104077
12

C      0.289784   -1.031769    0.080161
C      1.630935   -0.759720    0.630556
C      2.261496   -0.035862   -0.356622
C      1.572271    1.263312   -0.252575
C      0.233640    1.247387    0.197093
C     -0.450011    0.141888    0.203514
H      0.141528   -1.691426   -1.018695
H      2.159497   -0.863572    1.732516
H      3.299874    0.044179   -0.627917
H      2.303037    1.948858   -0.241454
H     -0.159235    2.258739    0.283810
H     -1.428405    0.237926   -0.058800
12

C      0.301551   -1.048025    0.088441
C      1.606398   -0.811974    0.639744
C      2.258672   -0.046940   -0.354555
C      1.634637    1.211724   -0.160732
C      0.360948    1.264110    0.283879
C     -0.489565    0.152347    0.243502
H      0.201017   -1.573378   -0.679759
H      2.150443   -0.966345    1.466282
H      3.253859   -0.014179   -0.730974
H      2.260706    2.234042   -0.080231
H     -0.088019    2.207328    0.056043
H     -1.596240    0.151230   -0.200049
12

C      0.293368   -1.116463    0.007771
C      1.776188   -1.190382    0.098402
C      2.452723    0.162322   -0.297649
C      1.726181    1.230529   -0.082850
C      0.385487    1.244438    0.213669
C     -0.368432    0.039452    0.251984
H     -0.321706   -1.825363   -0.359707
H      1.773315   -0.624689    1.119527
H      3.524677    0.190105   -0.409983
H      2.162328    2.283405    0.012457
H     -0.184673    2.169929   -0.112607
H     -1.365045    0.196659    0.130574
12

C      0.381146   -1.006212   -0.005585
C      1.714818   -1.156480    0.087225
C      2.432588    0.157784   -0.294187
C      1.762022    1.278760   -0.142347
C      0.330349    1.257246    0.094081
C     -0.421068    0.138263    0.313031
H     -0.162368   -1.830636   -0.390841
H      1.652414   -0.813298    1.246806
H      3.571056    0.252587   -0.438007
H      2.283622    2.215560   -0.083703
H     -0.179526    2.208316   -0.026988
H     -1.510642    0.058052    0.212105
12

C      0.523275   -0.866223    0.037572
C      1.692686   -0.828015    0.900376
C      2.262634    0.065300   -0.061470
C      1.514989    1.250177   -0.284732
C      0.264175    1.460282    0.096936
C     -0.403155    0.263208    0.111570
H      0.458465   -1.567384   -0.838924
H      1.901757   -1.682749    1.580596
H      3.169453   -0.057759   -0.859211
H      2.234934    2.098793   -0.361272
H     -0.288572    2.408441    0.048048
H     -1.476230    0.215868    0.202103
12

C      0.340249   -0.963046    0.154919
C      1.740038   -0.800024    0.644281
C      2.339598   -0.012405   -0.421308
C      1.680404    1.212780   -0.114374
C      0.265241    1.361537    0.213407
C     -0.479625    0.224525    0.067820
H      0.246882   -1.693836   -0.831612
H      2.171508   -1.138900    1.566810
H      3.407718   -0.256073   -0.564422
H      2.076785    2.129747   -0.331131
H     -0.424689    2.163671    0.309140
H     -1.509698    0.531964   -0.121941
12

C      0.373218   -0.955370    0.064296
C      1.730469   -0.837525    0.565542
C      2.329492   -0.034597   -0.397943
C      1.679592    1.184593   -0.107868
C      0.293416    1.328043    0.152122
C     -0.437910    0.203365    0.026429
H      0.314203   -1.686130   -0.820212
H      2.035468   -1.067817    1.588505
H      3.394757   -0.242678   -0.554266
H      1.981548    2.148571   -0.287399
H     -0.311536    2.232537    0.271827
H     -1.528306    0.486948    0.070556
12

C      0.329047   -1.147493    0.139476
C      1.660189   -0.765670    0.761237
C      2.344533    0.063406   -0.321284
C      1.669175    1.309548   -0.086195
C      0.278597    1.325408   -0.074781
C     -0.445380    0.173561   -0.002846
H      0.031268   -1.582588   -0.733079
H      2.202963   -1.175485    1.556368
H      3.309223   -0.024071   -0.810662
H      2.299025    2.159138   -0.035953
H     -0.220550    2.297750    0.161965
H     -1.603677    0.126436    0.017345
12

C      0.250703   -1.130280    0.207642
C      1.578923   -0.828362    0.863753
C      2.391026    0.104380   -0.267500
C      1.627000    1.364435   -0.089331
C      0.239681    1.410288   -0.047412
C     -0.542923    0.201132    0.053625
H      0.236329   -1.632492   -0.817469
H      2.309671   -1.200753    1.558337
H      3.190085   -0.147058   -0.921849
H      2.326475    2.162685   -0.029703
H     -0.151218    2.310126    0.166318
H     -1.601342    0.145839   -0.104821
12

C      0.485870   -0.822250    0.180821
C      1.639567   -1.032106    0.985973
C      2.258212    0.022019   -0.116661
C      1.657776    1.453733    0.035484
C      0.257396    1.522983   -0.068944
C     -0.445739    0.326319   -0.017782
H      0.241778   -1.685633   -0.251072
H      2.094449   -1.907185    1.128880
H      3.074975    0.085787   -0.964533
H      2.218917    2.267668   -0.093533
H     -0.229049    2.496420   -0.193701
H     -1.399740    0.032185   -0.053343
12

C      0.598256   -1.202752   -0.268672
C      1.593573   -0.949074    0.627076
C      2.411762    0.138736   -0.010434
C      1.818195    1.527825    0.144380
C      0.443397    1.505555    0.114691
C     -0.180479    0.160755   -0.226893
H     -0.120414   -2.131456   -0.115555
H      1.860157   -1.383757    1.633353
H      2.613412    0.129380   -1.223934
H      2.267803    2.415434    0.004959
H     -0.196874    2.455136    0.024913
H     -1.254377    0.094158   -0.132294
12

C      0.503255   -1.295832   -0.120368
C      1.625592   -0.874647    0.646097
C      2.520425    0.305118   -0.125670
C      1.834829    1.616959    0.193173
C      0.417817    1.508231    0.096274
C     -0.210276    0.251766   -0.152893
H      0.058551   -2.350968   -0.513820
H      1.781638   -1.143014    1.660513
H      2.410025   -0.221124   -1.139190
H      2.370656    2.472743   -0.035780
H     -0.169432    2.339916    0.156768
H     -1.288670    0.150792   -0.093516
12

C      0.458360   -1.181574   -0.240902
C      1.731608   -1.115055    0.646423
C      2.495721    0.116522    0.090561
C      1.770060    1.540949    0.037813
C      0.377119    1.360431    0.017496
C     -0.349388    0.237501    0.020733
H      0.160635   -2.127468   -0.719692
H      1.786193   -1.270940    1.641211
H      2.813349    0.029575   -0.903475
H      2.328949    2.456753   -0.327456
H     -0.308449    2.300293    0.003954
H     -1.409747    0.412953    0.304924
12

C      0.344293   -1.063383    0.017173
C      1.843062   -0.862366    0.443353
C      2.491800   -0.022969   -0.599919
C      1.651675    1.229669   -0.173735
C      0.210363    1.328236    0.262731
C     -0.527184    0.061964    0.180744
H     -0.302487   -1.908378   -0.500315
H      1.892655   -0.588785    1.700824
H      3.498186    0.128924   -0.910519
H      2.363085    2.108450    0.185997
H     -0.187759    2.303425    0.274684
H     -1.423278    0.045154   -0.309430
12

C      0.495549   -1.066053   -0.322479
C      1.597610   -0.778136    0.593101
C      2.435569    0.259888   -0.065077
C      1.732729    1.410236    0.058966
C      0.400832    1.385180    0.080151
C     -0.302476    0.087956   -0.018822
H     -0.023383   -2.118884   -0.412741
H      1.814658   -1.298745    1.525077
H      2.913948   -0.128025   -0.882590
H      2.356974    2.554579   -0.185221
H     -0.186858    2.213869    0.076796
H     -1.380743    0.238074    0.124429
12

C      0.482996   -1.113990   -0.313232
C      1.584276   -0.833442    0.595088
C      2.437782    0.258138   -0.003120
C      1.747880    1.442213    0.048026
C      0.416247    1.421399    0.057402
C     -0.272651    0.093892   -0.073232
H      0.026099   -2.024431   -0.370307
H      1.806289   -1.306474    1.521349
H      2.860979   -0.144351   -0.926885
H      2.247969    2.518942   -0.175880
H     -0.137353    2.242046    0.113408
H     -1.346103    0.205998    0.098974
12

C      0.483721   -0.803636    0.113769
C      1.544440   -0.789843    0.909757
C      2.280908    0.078454   -0.004715
C      1.657577    1.415770   -0.127892
C      0.323545    1.515547   -0.056988
C     -0.413634    0.344817    0.026117
H      0.364140   -1.662851   -0.532180
H      2.302924   -1.712152    1.319833
H      2.778010   -0.359048   -0.908883
H      2.391841    2.257944   -0.070317
H     -0.459924    2.498955    0.039884
H     -1.399139   -0.024019   -0.136796
12

C      0.559292   -0.826332    0.095371
C      1.698265   -0.835185    0.991701
C      2.309151    0.160425   -0.012894
C      1.636915    1.370548   -0.069718
C      0.317717    1.553483    0.033744
C     -0.351615    0.247237    0.089708
H      0.286808   -1.712605   -0.459287
H      2.116512   -1.722135    1.102500
H      2.784447   -0.294808   -0.822314
H      2.154493    2.291969   -0.192066
H     -0.235962    2.346253   -0.002560
H     -1.421611    0.181091   -0.182594
12

C      0.534744   -0.800839    0.146545
C      1.709633   -0.777432    0.997069
C      2.296620    0.187580   -0.080810
C      1.620581    1.374544   -0.183253
C      0.292209    1.496771   -0.033949
C     -0.447606    0.251674   -0.011785
H      0.407004   -1.732866   -0.386729
H      2.042481   -1.782639    0.988130
H      2.955484   -0.308196   -0.798430
H      2.131755    2.282796   -0.006352
H     -0.144749    2.335432   -0.073166
H     -1.543745    0.233113    0.014320
12

C      0.475684   -1.125117   -0.484552
C      1.643668   -0.984037    0.474024
C      2.367490    0.201132   -0.148945
C      1.713899    1.418573   -0.194383
C      0.433380    1.464828    0.192340
C     -0.198992    0.085931   -0.051565
H     -0.136327   -2.107078   -0.700870
H      1.341599   -0.947404    1.592810
H      3.375178   -0.105348   -0.416161
H      2.130571    2.497967   -0.693353
H     -0.147784    2.367593    0.575538
H     -1.143955   -0.007101    0.426707
12

C      0.428662   -0.973629   -0.382678
C      1.514786   -0.869679    0.462581
C      2.342651    0.057767   -0.290289
C      1.782983    1.367974   -0.089935
C      0.401765    1.353775    0.228305
C     -0.350457    0.143410    0.131606
H     -0.006129   -1.951591   -0.583548
H      1.618624   -0.906025    1.532548
H      3.427052   -0.056667   -0.625660
H      2.223796    2.331481   -0.312634
H     -0.174165    2.389676    0.211136
H     -1.355157   -0.126553    0.290160
12

C      0.415418   -1.094874    0.219388
C      1.766786   -0.939732    0.715544
C      2.492143    0.147602   -0.003423
C      1.608174    1.278234   -0.027385
C      0.288269    1.235531    0.012805
C     -0.432922    0.109541    0.154967
H      0.123092   -1.346587   -0.781875
H      2.194510   -1.164883    1.621838
H      2.687226    0.020581   -0.980546
H      2.362406    2.172093   -0.155521
H     -0.116215    2.178050    0.065288
H     -1.534477    0.164384   -0.269490
12

C      0.459197   -0.969551    0.163797
C      1.769745   -0.924375    1.081408
C      2.195772    0.172752   -0.002641
C      1.647462    1.529714   -0.068416
C      0.306093    1.474415    0.021188
C     -0.315123    0.322024    0.050984
H      0.055175   -1.721495   -0.414713
H      2.358895   -1.953904    0.974666
H      2.859115   -0.130791   -0.701000
H      2.225816    2.350775   -0.150920
H     -0.382192    2.245275   -0.252817
H     -1.325543    0.365100   -0.129946
12

C      0.533650   -0.990644    0.133541
C      1.734365   -0.986795    1.026169
C      2.171482    0.184054    0.034880
C      1.727409    1.522564   -0.091571
C      0.359793    1.544276   -0.017424
C     -0.266431    0.286495    0.002513
H      0.003628   -1.784156   -0.374050
H      2.373057   -1.750066    1.042586
H      2.700635   -0.258572   -0.818865
H      2.394573    2.541512   -0.010320
H     -0.407033    2.247019   -0.146200
H     -1.470717    0.204252   -0.209669
12

C      0.492056   -0.997459    0.121124
C      1.809665   -0.927792    0.891182
C      2.328710    0.098072   -0.198867
C      1.626575    1.372811   -0.012815
C      0.288492    1.474496   -0.055595
C     -0.297463    0.294779   -0.062752
H      0.141923   -1.748269   -0.528565
H      2.071359   -1.681710    1.445257
H      3.024404   -0.151968   -0.919676
H      2.282342    2.413061   -0.104051
H     -0.418141    2.282911   -0.017323
H     -1.495512    0.331009    0.013670
12

C      0.348014   -0.979629    0.095890
C      1.674177   -0.743514    0.335013
C      2.472205    0.139338   -0.642943
C      1.759999    1.235693   -0.221725
C      0.291039    1.367317    0.089368
C     -0.503660    0.141496    0.150661
H     -0.088010   -1.848612   -0.491707
H      1.928847   -0.994365    1.485940
H      3.614008   -0.013666   -0.479757
H      2.273924    2.090944    0.038379
H     -0.325957    2.235600    0.242175
H     -1.590177    0.129338   -0.029705
12

C      0.279518   -1.033329    0.035282
C      1.642410   -0.686449    0.549041
C      2.508066    0.153264   -0.306429
C      1.620719    1.203420   -0.198068
C      0.359158    1.309614    0.126677
C     -0.360579    0.153654    0.117800
H      0.060630   -1.815691   -0.743193
H      1.757472   -0.799933    1.753666
H      3.401219   -0.168510   -1.040011
H      2.067792    2.097478   -0.043837
H     -0.090911    2.284601    0.447558
H     -1.391084    0.061821   -0.126896
12

C      0.269876   -1.061218    0.072640
C      1.704262   -0.735417    0.542307
C      2.459922    0.059033   -0.374660
C      1.634255    1.150541   -0.298836
C      0.362550    1.277333    0.056234
C     -0.398139    0.105082    0.149685
H      0.072995   -1.626602   -0.719750
H      1.748668   -0.618372    1.545627
H      3.395980   -0.070820   -0.800156
H      2.164028    2.050547    0.004613
H     -0.158128    2.118068    0.467121
H     -1.401859    0.111766   -0.073234
12

C      0.395529   -1.102396   -0.242929
C      1.736261   -1.128309    0.584595
C      2.223016    0.082640   -0.090687
C      1.704116    1.567530   -0.188639
C      0.271258    1.412302    0.014651
C     -0.376097    0.103769   -0.029553
H      0.159142   -1.879003   -0.779800
H      1.719001   -1.055925    1.682890
H      3.170674   -0.030738   -0.689968
H      2.442370    2.279647   -0.361962
H     -0.310152    2.337819    0.300819
H     -1.280707    0.172604    0.372173
12

C      0.429833   -1.050320   -0.241167
C      1.719483   -1.130604    0.582651
C      2.194945    0.131224   -0.083531
C      1.663588    1.644765   -0.129736
C      0.261648    1.510690    0.046960
C     -0.352105    0.175430    0.013643
H      0.170992   -2.022164   -0.792886
H      1.810262   -1.266187    1.578232
H      3.059527   -0.059566   -0.519759
H      2.570159    2.359242   -0.452113
H     -0.270348    2.387354    0.152524
H     -1.403573    0.080077    0.416772
12

C      0.332680   -1.052631    0.213829
C      1.758736   -0.872006    0.706130
C      2.507424    0.124945   -0.021007
C      1.622991    1.209971   -0.018295
C      0.246943    1.298664    0.053027
C     -0.394760    0.150408    0.163067
H      0.129020   -1.348414   -0.813614
H      2.069515   -1.287097    1.683028
H      2.989877    0.058625   -1.106253
H      2.222403    2.026967   -0.153282
H     -0.287012    2.266525   -0.039624
H     -1.343406    0.183982   -0.095417
12

C      0.462372   -1.140145    0.073755
C      1.710948   -0.970485    0.652303
C      2.413232    0.287133    0.331611
C      1.730207    1.620068    0.102053
C      0.344374    1.505606    0.034161
C     -0.219130    0.103668   -0.163048
H      0.035235   -1.943958   -0.308720
H      2.268239   -1.742738    1.281105
H      2.122961    0.085939   -0.787600
H      2.516127    2.322318   -0.312655
H     -0.246744    2.443481   -0.035368
H     -1.283413    0.189053   -0.296008
12

C      0.461040   -1.109938    0.030518
C      1.732754   -0.950423    0.593855
C      2.398196    0.275482    0.267470
C      1.766756    1.625758    0.119906
C      0.390892    1.524542    0.054110
C     -0.167608    0.128372   -0.217006
H      0.072582   -2.015228   -0.268504
H      2.168893   -1.746834    1.317235
H      2.158902    0.098866   -0.787075
H      2.484068    2.342351   -0.260074
H     -0.258624    2.324492   -0.104622
H     -1.353440    0.262501   -0.174224
12

C      0.506949   -1.082680   -0.204586
C      1.587350   -0.922116    0.561580
C      2.297973    0.108850   -0.113683
C      1.793564    1.485864   -0.073102
C      0.377294    1.441782   -0.038508
C     -0.282649    0.152002   -0.065569
H     -0.070980   -1.946908   -0.516020
H      1.874582   -0.955961    1.662948
H      2.862705   -0.143392   -0.931875
H      2.425514    2.511158   -0.032138
H     -0.114599    2.182979    0.298481
H     -1.403292   -0.071637    0.024063
12

C      0.300199   -1.123936   -0.082722
C      1.733037   -1.186868    0.206108
C      2.482416    0.166165   -0.175132
C      1.822372    1.368490   -0.176868
C      0.339006    1.321801    0.048794
C     -0.416844    0.035442    0.098255
H     -0.135196   -1.883675   -0.753853
H      1.631164   -0.659975    1.448157
H      3.554944    0.033604   -0.379882
H      2.193856    2.300345   -0.364943
H     -0.259308    2.182284    0.319155
H     -1.391234    0.206261    0.384518
12

C      0.264587   -1.163293   -0.146287
C      1.814981   -1.192411    0.301519
C      2.491163    0.084596   -0.074206
C      1.748731    1.324615   -0.133117
C      0.336149    1.279732    0.075648
C     -0.405993    0.055147    0.106046
H     -0.163565   -1.921829   -0.734483
H      1.695378   -0.636484    1.253728
H      3.532992    0.135882   -0.314094
H      2.281511    2.337314   -0.408561
H     -0.284356    2.160445    0.200332
H     -1.457167    0.296225    0.445063
12

C      0.330018   -1.102925   -0.182287
C      1.973839   -1.160105    0.285569
C      2.443970    0.102121   -0.172759
C      1.738769    1.363362   -0.018136
C      0.350036    1.294918    0.168504
C     -0.357116    0.160576    0.124982
H     -0.235681   -2.032866   -0.307304
H      1.607820   -0.769149    1.391135
H      3.316147    0.268607   -0.743278
H      2.182875    2.240714   -0.080016
H     -0.075953    2.252470    0.060557
H     -1.420314    0.142218    0.044624
12

C      0.458823   -0.741983    0.082241
C      1.738408   -0.911951    0.940145
C      2.295182    0.026793   -0.101043
C      1.611776    1.371293   -0.120238
C      0.146505    1.445305   -0.145562
C     -0.476609    0.382048    0.109632
H      0.096237   -1.666366   -0.512899
H      2.441247   -1.895965    1.093636
H      3.250228   -0.156409   -0.595788
H      2.183336    2.251909   -0.034478
H     -0.407083    2.406719   -0.322495
H     -1.483640    0.248547    0.178439
12

C      0.359779   -0.998522   -0.094132
C      1.760583   -1.083740    0.245313
C      2.453015    0.100885   -0.134358
C      1.812601    1.379234   -0.128218
C      0.367868    1.220194    0.250968
C     -0.402927    0.075478    0.137038
H      0.010768   -1.871572   -0.500023
H      1.327128   -0.754018    1.186407
H      3.379156    0.202491   -0.330229
H      2.257260    2.318649   -0.624997
H     -0.043036    2.162295    0.393185
H     -1.427783    0.008565    0.170635
12

C      0.347911   -1.063521    0.051025
C      1.790955   -1.084419    0.177627
C      2.409179    0.129614   -0.317401
C      1.751179    1.397937    0.037722
C      0.367465    1.236503    0.137276
C     -0.352234    0.058538   -0.165246
H     -0.137341   -2.079469    0.054567
H      1.521619   -0.693121    1.526458
H      3.266489    0.259746   -1.080357
H      2.290496    2.275644    0.059392
H      0.005096    2.234731    0.475026
H     -1.406402    0.087757   -0.384499
12

C      0.351394   -1.078967   -0.585336
C      1.513605   -0.832604    0.463658
C      2.255116    0.270902   -0.073616
C      1.713024    1.564802   -0.230920
C      0.449786    1.566023    0.068347
C     -0.060803    0.147466    0.014436
H     -0.286109   -1.876346   -0.409475
H      1.765732   -1.544164    1.266761
H      3.406963    0.000968   -0.020904
H      2.246098    2.345170   -0.658870
H     -0.427540    2.217327    0.207271
H     -1.072854   -0.020639    0.530239
12

C      0.497907   -0.986880    0.131612
C      1.699425   -1.074159    0.975008
C      2.116292    0.097422    0.085764
C      1.634028    1.465878   -0.032281
C      0.240667    1.706805    0.059022
C     -0.401869    0.255817    0.119644
H      0.206052   -1.769431   -0.586676
H      2.384613   -1.816573    1.086649
H      3.071581   -0.113697   -0.734825
H      2.346884    2.279817   -0.308973
H     -0.365247    2.516513   -0.192007
H     -1.575922    0.198428   -0.031347
12

C      0.273864   -1.093529   -0.016910
C      1.777772   -1.067649    0.065460
C      2.449105    0.198756   -0.307061
C      1.673871    1.419796   -0.046524
C      0.378441    1.281749   -0.040513
C     -0.384689    0.171172    0.090283
H     -0.150456   -2.058260   -0.005167
H      1.589024   -0.535894    1.478003
H      3.300959    0.386301   -0.738679
H      2.277957    2.363215    0.040418
H      0.018023    2.219537    0.105600
H     -1.488172    0.163984   -0.144382
12

C      0.310069   -1.205882   -0.110009
C      1.816835   -1.154559    0.172210
C      2.498329    0.152021   -0.163623
C      1.736168    1.316996    0.063866
C      0.356977    1.209938    0.049595
C     -0.439787    0.009483    0.073335
H     -0.338905   -2.083982   -0.255211
H      1.843518   -0.598592    1.364330
H      3.543527    0.187180   -0.803477
H      2.131510    2.275188    0.054926
H     -0.131627    2.267161    0.134143
H     -1.472203    0.384986   -0.008495
12

C      0.312890   -1.006521    0.054155
C      1.771081   -1.020120    0.225517
C      2.464891    0.127632   -0.288803
C      1.788571    1.435485    0.048600
C      0.362253    1.273558    0.186510
C     -0.419501    0.121302   -0.165672
H     -0.021609   -1.984217    0.082078
H      1.426762   -0.692390    1.116721
H      3.333553    0.080198   -0.880225
H      2.445102    2.359602    0.005574
H     -0.068111    2.213373    0.370052
H     -1.541472   -0.147962   -0.182917
12

C      0.247499   -1.044388    0.137513
C      1.634925   -0.830619    0.554784
C      2.341406   -0.077404   -0.441170
C      1.629267    1.247579   -0.319105
C      0.315546    1.319239    0.145790
C     -0.682401    0.183213    0.066334
H      0.391875   -1.459291   -0.925438
H      2.191323   -1.003728    1.515799
H      3.481328   -0.151154   -0.396034
H      2.212866    2.127259   -0.104212
H     -0.172652    2.241983    0.099448
H     -1.736570    0.207252    0.237881
12

C      0.344442   -1.026714    0.015270
C      1.726889   -0.945084    0.519517
C      2.304661    0.089094   -0.290659
C      1.637457    1.364282   -0.022183
C      0.190023    1.395437   -0.058738
C     -0.538467    0.202546   -0.059384
H      0.378589   -1.956254   -0.616065
H      2.057004   -1.122684    1.553371
H      3.192682   -0.140195   -0.914287
H      2.334920    2.127095    0.259536
H     -0.225645    2.381416   -0.157224
H     -1.548143    0.391002    0.342435
12

C      0.546030   -0.873337   -0.088098
C      1.663097   -1.031509    0.938361
C      2.294847   -0.023610   -0.020531
C      1.595501    1.466228   -0.166439
C      0.233656    1.603765    0.108146
C     -0.400978    0.374584   -0.042582
H      0.089552   -1.781853   -0.430178
H      2.303141   -1.824567    1.269080
H      3.137721   -0.137056   -0.584173
H      2.171168    2.351936   -0.433842
H     -0.300325    2.582180    0.128010
H     -1.478999    0.053180   -0.106165
12

C      0.492958   -1.184507   -0.394676
C      1.654783   -0.940435    0.573945
C      2.380502    0.268713    0.001962
C      1.740038    1.489942   -0.023238
C      0.408493    1.451365    0.080443
C     -0.173256    0.112256   -0.004739
H      0.067984   -2.139963   -0.366698
H      1.382533   -1.157942    1.591861
H      2.965417    0.151175   -0.894833
H      2.307342    2.256257   -0.533081
H     -0.125870    2.335787    0.528970
H     -1.246512    0.117292    0.011675
12

C      0.338758   -1.197302   -0.068407
C      1.532509   -0.785367    0.724917
C      2.302526    0.073028   -0.144906
C      1.702470    1.352355   -0.249186
C      0.416933    1.336926   -0.031248
C     -0.440017    0.111964   -0.065111
H      0.282075   -1.772038   -0.952559
H      1.945182   -1.018058    1.652268
H      3.119287   -0.155980   -0.738229
H      2.135267    2.315305   -0.153053
H     -0.013088    2.321107    0.268240
H     -1.467490    0.178001    0.328864
12

C      0.274846   -1.156294    0.128011
C      1.619701   -0.736747    0.601118
C      2.321421   -0.062101   -0.324284
C      1.641828    1.222483   -0.307288
C      0.333963    1.254680    0.060297
C     -0.530634    0.109681    0.071830
H      0.327727   -1.497376   -0.888120
H      2.043913   -0.880247    1.527789
H      3.314520   -0.078244   -0.590205
H      2.160478    2.125606   -0.087542
H     -0.043274    2.289491    0.269163
H     -1.610077    0.169009    0.110820
12

C      0.474392   -1.046479   -0.236062
C      1.659144   -0.898834    0.544898
C      2.338701    0.153848   -0.115399
C      1.822304    1.524262   -0.214904
C      0.433208    1.380442    0.055058
C     -0.213191    0.123376   -0.017178
H     -0.067803   -1.761357   -0.759824
H      1.785383   -1.062649    1.704425
H      2.967292   -0.351721   -0.759812
H      2.346568    2.497748   -0.119588
H     -0.449588    2.179187    0.181330
H     -1.242000    0.022118    0.308645
12

C      0.264417   -1.173188   -0.153995
C      1.841525   -1.163151    0.202073
C      2.499648    0.148249   -0.196800
C      1.808710    1.357553   -0.097166
C      0.434495    1.303138    0.012331
C     -0.368739    0.065082    0.108817
H     -0.346440   -2.055207   -0.588984
H      1.579253   -0.656941    1.198327
H      3.629805    0.269234   -0.213441
H      2.233451    2.268398   -0.369451
H     -0.356289    2.076113    0.205368
H     -1.365426    0.320659    0.464511
12

C      0.284302   -1.022450   -0.053742
C      1.905111   -1.230338    0.342179
C      2.463432    0.087645   -0.151561
C      1.763598    1.291240   -0.009702
C      0.329753    1.255246    0.386468
C     -0.376704    0.144059    0.193941
H     -0.102188   -1.890014   -0.503676
H      1.687251   -0.677704    1.308258
H      3.410653    0.180891   -0.503206
H      2.044347    2.094482   -0.597416
H     -0.214767    2.221403    0.395293
H     -1.340377    0.305481   -0.235245
12

C      0.264048   -1.096645   -0.024748
C      1.785083   -0.785572    0.700689
C      2.384311   -0.058436   -0.362622
C      1.641642    1.189652   -0.268215
C      0.300466    1.315873    0.154361
C     -0.492251    0.151810    0.063197
H      0.256631   -1.793834   -0.960681
H      1.871180   -0.824729    1.773448
H      3.438240   -0.040194   -0.690515
H      2.216519    2.156486   -0.375767
H     -0.195638    2.177702    0.570942
H     -1.615821    0.367826   -0.008500
12

C      0.380959   -0.970417    0.206763
C      1.590954   -0.716967    0.904676
C      2.109069    0.102647   -0.118981
C      1.648489    1.355080   -0.296108
C      0.278616    1.452489   -0.115474
C     -0.529164    0.283570   -0.070926
H      0.669396   -1.510506   -0.714046
H      2.121528   -1.520760    1.270861
H      2.911415   -0.252109   -0.647830
H      2.425092    2.149637   -0.176462
H     -0.173728    2.306076    0.251777
H     -1.578216    0.081199    0.077340
12

C      0.480745   -1.115322   -0.300610
C      1.626264   -0.900633    0.579320
C      2.543948    0.193494   -0.079358
C      1.749747    1.466631   -0.084397
C      0.393448    1.456727    0.111144
C     -0.335315    0.226607    0.160091
H      0.137796   -2.027276   -0.738281
H      1.648928   -1.147195    1.629579
H      3.067192   -0.352027   -0.891130
H      2.233207    2.543235   -0.209762
H     -0.277438    2.252457    0.099120
H     -1.414110    0.163242    0.295874
12

C      0.300067   -1.049303   -0.152072
C      1.766823   -1.153009    0.112632
C      2.435141    0.162592   -0.189736
C      1.694904    1.307702   -0.104715
C      0.281709    1.292745    0.229969
C     -0.265661    0.092355    0.394345
H     -0.261271   -1.785001   -0.642344
H      1.685259   -0.736679    1.134765
H      3.590431    0.165226   -0.081125
H      2.233064    2.166508   -0.483425
H     -0.280864    2.132965    0.016186
H     -1.325191    0.163838    0.337110
12

C      0.235531   -1.047363    0.055615
C      1.698269   -0.774487    0.447680
C      2.496581   -0.046757   -0.473227
C      1.653296    1.235999   -0.322574
C      0.348667    1.149657    0.166014
C     -0.454126    0.072905    0.273997
H     -0.144820   -1.757668   -0.770996
H      2.007137   -0.505111    1.492976
H      3.553438    0.044608   -0.573804
H      2.185705    2.028368    0.078923
H     -0.145016    2.235296    0.268606
H     -1.580253    0.124491   -0.071620
12

C      0.331381   -1.062987   -0.112917
C      1.866322   -1.195711    0.170746
C      2.543284    0.146254   -0.264633
C      1.847019    1.274473   -0.042236
C      0.411918    1.304794    0.242194
C     -0.446194    0.137150    0.147184
H     -0.358604   -1.854972   -0.470280
H      1.677233   -0.671434    1.393687
H      3.530801    0.328459   -0.386212
H      2.223802    2.178231   -0.387289
H     -0.232563    2.106811    0.202811
H     -1.539988    0.068873    0.078536
12

C      0.215250   -1.284009   -0.052178
C      1.572864   -0.764479    0.489164
C      2.319176    0.002628   -0.388320
C      1.637637    1.208859   -0.343568
C      0.356507    1.306284    0.136462
C     -0.462719    0.059336    0.165279
H      0.324240   -1.708534   -1.029013
H      1.804118   -0.917037    1.569238
H      3.304808    0.310826   -0.132097
H      2.260363    2.062637   -0.516947
H      0.022967    2.192704    0.315644
H     -1.500799    0.290725    0.357926
12

C      0.409393   -1.092184    0.035450
C      1.701677   -0.820152    0.645220
C      2.464843    0.047569   -0.368176
C      1.628552    1.189589   -0.110363
C      0.223297    1.362255    0.125052
C     -0.509403    0.154498   -0.138229
H      0.134984   -1.816101   -0.571681
H      1.969017   -0.962766    1.748869
H      3.275551    0.063102   -1.032571
H      2.267951    2.054784    0.024623
H     -0.185732    2.249820    0.293639
H     -1.525718    0.329526   -0.080243
12

C      0.487196   -0.936511   -0.068871
C      1.691623   -0.988848    0.752279
C      2.310706   -0.000064   -0.127654
C      1.682893    1.370655    0.082142
C      0.286186    1.454874    0.068532
C     -0.315466    0.254189   -0.156605
H      0.000402   -1.652254   -0.551845
H      2.201279   -1.255863    1.657004
H      3.044019   -0.294533   -1.039247
H      2.167067    2.334102   -0.097222
H     -0.371601    2.417070    0.123459
H     -1.329893    0.057123   -0.070383
12

C      0.461732   -0.950620   -0.301703
C      1.694334   -0.999882    0.511115
C      2.363353    0.149583   -0.027426
C      1.706503    1.420399   -0.091852
C      0.341350    1.463956    0.013388
C     -0.124443    0.176921    0.133339
H     -0.084767   -1.901887   -0.545227
H      1.879407   -1.285925    1.500138
H      2.993940   -0.109374   -0.744563
H      2.146110    2.404880   -0.022499
H     -0.232162    2.238358   -0.207773
H     -1.290947    0.153530    0.354652
12

C      0.438759   -0.974779   -0.213189
C      1.673430   -1.020458    0.511767
C      2.364627    0.138095   -0.058683
C      1.686532    1.369289   -0.116824
C      0.342932    1.416647   -0.004254
C     -0.201413    0.189668    0.208376
H      0.126710   -1.844360   -0.602315
H      1.695031   -1.228520    1.518093
H      3.042456   -0.105769   -0.931044
H      2.251474    2.330905    0.074897
H     -0.411840    2.268090   -0.255630
H     -1.154287    0.221130    0.440397
12

C      0.512967   -1.216339   -0.195698
C      1.649547   -0.796185    0.553373
C      2.441313    0.182927   -0.073435
C      1.801842    1.470601   -0.078602
C      0.362982    1.329894    0.186898
C     -0.143610    0.180832   -0.123074
H     -0.112926   -2.070801   -0.461047
H      1.624991   -0.826090    1.696919
H      2.829442   -0.113781   -1.085069
H      2.425848    2.346219   -0.210104
H     -0.341978    2.084857    0.569011
H     -1.196006    0.187806   -0.207583
12

C      0.411818   -1.154474   -0.289100
C      1.536373   -0.911483    0.493153
C      2.390263    0.243307   -0.062677
C      1.876170    1.412276    0.063229
C      0.456968    1.349509    0.227209
C     -0.201809    0.097618   -0.065876
H     -0.026742   -2.132878   -0.434958
H      1.426033   -1.005341    1.561928
H      3.034309    0.256982   -0.922491
H      2.377446    2.266034   -0.426979
H     -0.216082    2.335797    0.273421
H     -1.210337    0.002593    0.154730
12

C      0.529461   -0.829453   -0.202588
C      1.648895   -1.032268    0.704576
C      2.221736    0.081906    0.009896
C      1.618237    1.478725   -0.016355
C      0.291077    1.533091    0.216780
C     -0.287776    0.232574    0.071047
H      0.111201   -1.640410   -0.598910
H      1.977528   -1.452440    1.585342
H      2.970460   -0.008662   -0.716695
H      2.274177    2.113500   -0.611475
H     -0.195495    2.390760    0.197540
H     -1.305090   -0.107382   -0.067568
12

C      0.508565   -0.824599   -0.187492
C      1.635857   -1.053294    0.707010
C      2.244586    0.035551   -0.011085
C      1.606159    1.391274   -0.100177
C      0.328609    1.518352    0.166119
C     -0.298248    0.248550   -0.010821
H      0.078175   -1.792777   -0.732558
H      2.023944   -1.253927    1.744867
H      3.045297   -0.017819   -0.747884
H      2.169964    2.088582   -0.577765
H     -0.174117    2.480440    0.398127
H     -1.314381   -0.060394   -0.076751
12

C      0.206976   -1.130445    0.065191
C      1.650550   -0.759808    0.406016
C      2.452324    0.047625   -0.380088
C      1.661223    1.259268   -0.238026
C      0.276984    1.181250    0.078918
C     -0.421637    0.090713    0.147002
H     -0.048445   -1.552095   -0.848682
H      1.896363   -0.896529    1.486163
H      3.609377   -0.096188   -0.343060
H      2.187201    2.292859   -0.326532
H     -0.209991    2.205616    0.339606
H     -1.406513    0.117674    0.185082
12

C      0.276916   -1.092991    0.228799
C      1.631279   -0.830091    0.484896
C      2.416226    0.001269   -0.449970
C      1.655948    1.212148   -0.360112
C      0.345271    1.291035    0.173158
C     -0.557266    0.115281    0.191157
H      0.043172   -1.569108   -0.766552
H      2.126151   -0.738367    1.354585
H      3.417699   -0.018992   -0.418595
H      2.215984    2.108592   -0.002809
H     -0.070218    2.234593    0.231489
H     -1.646751    0.046570   -0.094457
12

C      0.195458   -1.158805    0.196760
C      1.601395   -0.875259    0.539968
C      2.337110   -0.003177   -0.387670
C      1.642083    1.226187   -0.212785
C      0.267967    1.331967    0.395292
C     -0.534714    0.133179    0.232514
H      0.325635   -1.650488   -0.719883
H      1.906132   -1.008791    1.462184
H      3.465612    0.053124   -0.513232
H      2.318450    2.133010   -0.587535
H     -0.304059    2.300661    0.514763
H     -1.366657    0.278333   -0.348787
12

C      0.260767   -1.014048    0.178583
C      1.713559   -0.936159    0.597731
C      2.355080   -0.060611   -0.380779
C      1.620552    1.230616   -0.060661
C      0.322498    1.321819    0.379473
C     -0.483543    0.212302    0.154202
H      0.213254   -1.380310   -0.942795
H      2.151090   -0.934167    1.682065
H      3.329342   -0.065403   -0.511308
H      1.989214    2.027873   -0.606834
H     -0.068213    2.221180    0.413183
H     -1.549190    0.136849   -0.331269
12

C      0.328570   -1.113983   -0.153900
C      1.727279   -1.040558    0.078504
C      2.517869    0.044259   -0.154809
C      1.744701    1.238919   -0.110793
C      0.321079    1.285500    0.012766
C     -0.384106    0.103551    0.288594
H     -0.116778   -2.012708   -0.541640
H      1.528101   -0.817815    1.000040
H      3.520914    0.341515   -0.000258
H      2.192878    2.284993   -0.428367
H     -0.089035    2.297981    0.035426
H     -1.437062    0.148285    0.546027
12

C      0.290183   -1.023385    0.388041
C      1.651360   -0.989169    0.600515
C      2.375444    0.036228   -0.147650
C      1.655633    1.254846   -0.197405
C      0.243490    1.253273   -0.075061
C     -0.504909    0.131451    0.258060
H      0.474218   -1.067156   -0.651195
H      2.016716   -1.655201    1.262186
H      3.384698    0.032676   -0.522869
H      2.060508    2.204197   -0.404817
H     -0.220603    2.327858    0.047847
H     -1.572329    0.254320    0.013937
12

C      0.480098   -0.932135   -0.093670
C      1.635025   -0.881368    0.648897
C      2.278579    0.066765   -0.330170
C      1.669116    1.300836   -0.161815
C      0.258084    1.355863    0.139279
C     -0.393357    0.109288    0.009685
H      0.233222   -1.693735   -0.546418
H      1.958142   -0.895102    1.683159
H      3.097098   -0.289099   -0.919474
H      2.284085    2.232647   -0.086449
H     -0.155485    2.265883    0.483637
H     -1.490195    0.120097   -0.255071
12

C      0.468141   -0.881776   -0.073514
C      1.676449   -0.811444    0.722532
C      2.286707    0.084022   -0.258020
C      1.693203    1.323074   -0.150165
C      0.217374    1.376541    0.115369
C     -0.375869    0.089010   -0.029325
H      0.187257   -2.019582   -0.826835
H      1.908943   -0.788677    1.734388
H      2.989797   -0.290601   -0.960649
H      2.318451    2.145905   -0.099448
H     -0.136867    2.457886    0.478155
H     -1.379175    0.075582   -0.080898
12

C      0.514694   -1.028803    0.082707
C      1.822747   -0.970813    0.738423
C      2.379108    0.093286   -0.116383
C      1.697333    1.392799   -0.004281
C      0.308254    1.434239   -0.072257
C     -0.440856    0.279061   -0.059955
H      0.135266   -1.923831   -0.550150
H      2.112970   -1.403045    1.621225
H      2.894278    0.057478   -1.103136
H      2.357294    2.161898    0.105705
H     -0.333677    2.319297   -0.089193
H     -1.593001    0.348374    0.018884
12

C      0.453099   -1.094315    0.023453
C      1.810089   -0.966195    0.693538
C      2.353484    0.040227   -0.156419
C      1.646481    1.325367   -0.053223
C      0.259231    1.391118   -0.088548
C     -0.501814    0.252675   -0.076640
H      0.213068   -1.951909   -0.569857
H      2.061775   -1.222372    1.776775
H      2.960251    0.064074   -1.065350
H      2.354328    2.214290   -0.050760
H     -0.239023    2.249848    0.267591
H     -1.516558    0.457132   -0.128972
12

C      0.425113   -0.920187   -0.085195
C      1.637767   -0.863840    0.825518
C      2.286936    0.020458   -0.217922
C      1.623242    1.396998   -0.103679
C      0.247756    1.408705   -0.050788
C     -0.406037    0.261929    0.217586
H      0.348251   -1.763459   -0.623664
H      2.084133   -1.756104    1.292033
H      3.134040   -0.072262   -0.548644
H      2.265160    2.295641   -0.211271
H     -0.375817    2.409406   -0.217154
H     -1.416134    0.342656    0.294771
12

C      0.241242   -1.057839    0.160762
C      1.595453   -0.787233    0.504140
C      2.383088   -0.020620   -0.454251
C      1.631939    1.249628   -0.330128
C      0.309428    1.290817    0.185347
C     -0.495331    0.175616    0.143550
H      0.167494   -1.443865   -0.769912
H      1.893891   -0.990284    1.515858
H      3.705799   -0.083581   -0.512997
H      2.123230    2.160021   -0.260543
H     -0.177744    2.199665    0.359808
H     -1.524080    0.067615    0.029955
12

C      0.271953   -0.982453    0.292514
C      1.640491   -0.885453    0.542816
C      2.406783   -0.021402   -0.462409
C      1.606480    1.159703   -0.300337
C      0.299722    1.259780    0.215376
C     -0.491027    0.163212    0.097057
H      0.195053   -1.580226   -0.773963
H      2.001722   -0.943713    1.606783
H      3.396773    0.127029   -0.620550
H      2.287343    2.064323   -0.196602
H     -0.200517    2.228317    0.331717
H     -1.560364    0.170822   -0.160813
12

C      0.236489   -1.071380    0.201099
C      1.779374   -0.870413    0.573862
C      2.308183    0.008318   -0.539581
C      1.622181    1.175763   -0.056625
C      0.282297    1.345021    0.410754
C     -0.567945    0.195045    0.133441
H      0.090443   -1.568625   -0.620805
H      2.214216   -0.729030    1.523248
H      3.477640   -0.313560   -0.745816
H      2.030430    2.092595   -0.154032
H     -0.211916    2.272672    0.439042
H     -1.406980    0.223534   -0.592997
12

C      0.243628   -1.004058    0.187871
C      1.756410   -0.903643    0.603378
C      2.294614   -0.019519   -0.571890
C      1.618598    1.184502   -0.029210
C      0.287440    1.352170    0.337420
C     -0.593056    0.207180    0.143521
H      0.072704   -1.707921   -0.751236
H      2.222854   -0.756580    1.660340
H      3.357782   -0.286642   -0.769748
H      2.070958    2.239199   -0.105661
H     -0.064615    2.384239    0.348389
H     -1.412906    0.071012   -0.481583
12

C      0.321606   -0.924432    0.206801
C      1.706246   -0.801091    0.577056
C      2.467366    0.046071   -0.480444
C      1.783628    1.297549   -0.181115
C      0.208754    1.298845   -0.001743
C     -0.543521    0.174335   -0.022364
H      0.178979   -1.944558   -0.415872
H      2.015692   -1.155030    1.475928
H      3.294030    0.068615   -0.959453
H      2.367525    2.106757    0.406959
H     -0.310312    2.279101   -0.070565
H     -1.635581    0.313778    0.036400
12

C      0.463471   -1.043963   -0.180803
C      1.622589   -1.015225    0.710491
C      2.180571    0.069211   -0.041009
C      1.735024    1.379333   -0.003523
C      0.370235    1.574756    0.131131
C     -0.376891    0.203689    0.089809
H      0.178158   -1.938975   -0.435649
H      2.020720   -1.336311    1.554255
H      2.961525    0.046263   -1.025432
H      2.315038    2.241179   -0.157816
H     -0.198611    2.601265    0.049262
H     -1.417419   -0.021283   -0.119126
12

C      0.330247   -1.117900   -0.485357
C      1.608072   -0.871895    0.363688
C      2.368087    0.229328   -0.052407
C      1.760088    1.402979   -0.182258
C      0.445138    1.460802    0.180650
C     -0.191357    0.129122   -0.096360
H     -0.076182   -2.152108   -0.360283
H      1.284517   -0.952742    1.339321
H      3.323274    0.028561   -0.573797
H      2.134238    2.329105   -0.345910
H     -0.128572    2.340699    0.311689
H     -1.003140   -0.066011    0.472616
12

C      0.485426   -1.124060   -0.153814
C      1.737666   -1.076198    0.607644
C      2.377779    0.148410    0.104748
C      1.766430    1.519171    0.044843
C      0.367041    1.561683    0.287404
C     -0.187582    0.224937    0.150628
H      0.072277   -1.867940   -0.833133
H      1.735875   -1.308364    1.724626
H      2.884572    0.088778   -0.940552
H      2.250287    2.175693   -0.535884
H     -0.256591    2.363776   -0.022397
H     -1.378768    0.054054    0.137477
12

C      0.481902   -1.127670   -0.267323
C      1.708161   -1.097981    0.580585
C      2.331561    0.104640    0.075070
C      1.779517    1.438433    0.087716
C      0.316123    1.489365    0.145942
C     -0.245622    0.143544   -0.014426
H      0.000113   -1.996512   -0.692626
H      1.826991   -1.190218    1.612431
H      2.821691    0.053879   -0.819247
H      2.316998    2.376548   -0.388622
H     -0.274159    2.412566   -0.018100
H     -1.208865    0.153345    0.270190
12

C      0.327687   -1.056424   -0.453468
C      1.574842   -0.973927    0.415237
C      2.495909    0.250113   -0.118211
C      1.627182    1.400468   -0.314884
C      0.336438    1.380046   -0.090062
C     -0.250031    0.075805    0.267274
H     -0.318172   -1.941116   -0.632369
H      1.572086   -1.248331    1.460550
H      3.550667    0.242916   -0.361440
H      2.241278    2.382782   -0.274007
H     -0.113698    2.309080   -0.046831
H     -1.189777   -0.061473    0.719800
12

C      0.453646   -1.101653   -0.081927
C      1.641359   -0.814152    0.680015
C      2.270578    0.177460   -0.205382
C      1.656580    1.541827   -0.130455
C      0.330686    1.470581   -0.088675
C     -0.342128    0.198997    0.091331
H      0.193841   -2.039628   -0.546760
H      2.055884   -1.313391    1.556739
H      2.886603   -0.315681   -0.978383
H      2.313082    2.347887    0.231751
H     -0.168519    2.423186    0.017327
H     -1.437202    0.184506    0.026009
12

C      0.269772   -1.119667   -0.176427
C      1.750063   -1.133863    0.087284
C      2.463933    0.172373   -0.226889
C      1.800022    1.394227   -0.005204
C      0.415124    1.310733    0.073962
C     -0.334754    0.133885    0.076427
H     -0.053151   -2.177825   -0.077972
H      1.468427   -0.722911    0.980094
H      3.470932    0.145598   -0.385719
H      2.226454    2.335016   -0.171570
H     -0.166135    2.213687    0.225624
H     -1.456275    0.208687    0.171980
12

C      0.380378   -1.164763   -0.147119
C      1.785122   -1.147368    0.166796
C      2.482186    0.196488   -0.184477
C      1.778103    1.393353    0.006610
C      0.420201    1.277858    0.112417
C     -0.295111    0.048813    0.029185
H     -0.305747   -2.112366   -0.250564
H      1.427971   -0.711698    1.177829
H      3.519054    0.146080   -0.625628
H      2.118532    2.450165   -0.090129
H     -0.089103    2.184617    0.083027
H     -1.367176    0.198762    0.293642
12

C      0.373150   -1.110652    0.001901
C      1.840498   -1.050487    0.262958
C      2.430904    0.196647   -0.123711
C      1.825504    1.372456   -0.137523
C      0.387777    1.260277    0.175332
C     -0.333911    0.038619    0.098653
H     -0.164594   -1.906912   -0.319127
H      1.342461   -0.810015    1.160274
H      3.438713    0.148067   -0.658268
H      2.278372    2.359813   -0.251096
H     -0.201198    2.183760    0.265031
H     -1.363265    0.078365    0.097165
12

C      0.287652   -1.155096   -0.041299
C      1.740293   -1.205065    0.198663
C      2.498136    0.067055   -0.241210
C      1.725898    1.186169   -0.030750
C      0.282656    1.266043    0.261841
C     -0.422695    0.089135    0.104583
H     -0.241173   -1.842875   -0.566691
H      1.902507   -0.498341    1.299232
H      3.636671    0.084557   -0.426744
H      1.965697    2.212514   -0.251055
H     -0.098646    2.295669    0.186899
H     -1.422586    0.260175    0.078121
12

C      0.512766   -0.902621    0.108620
C      1.707553   -0.901907    0.851807
C      2.155553    0.113896   -0.096021
C      1.634524    1.488434    0.018744
C      0.277933    1.462983   -0.112484
C     -0.305230    0.326491    0.034059
H     -0.022112   -1.756338   -0.300630
H      2.296730   -1.770081    1.208279
H      2.842182   -0.119501   -0.883701
H      2.342517    2.385345    0.092365
H     -0.333905    2.295440   -0.238281
H     -1.254100    0.137799   -0.111168
12

C      0.286438   -0.997443   -0.145022
C      1.670750   -1.129418    0.297348
C      2.412281    0.149982   -0.066566
C      1.865703    1.418447   -0.107012
C      0.431587    1.277975    0.172595
C     -0.393497    0.101201    0.044462
H     -0.047891   -1.959698   -0.711705
H      1.527849   -0.629263    1.163364
H      3.476653    0.075824   -0.183400
H      2.295841    2.336546   -0.704446
H     -0.181661    2.028535    0.434054
H     -1.489642    0.087252    0.377917
12

C      0.316854   -1.073425   -0.040847
C      1.686091   -1.117265    0.243758
C      2.439680    0.055133   -0.155605
C      1.837591    1.417839   -0.010864
C      0.416143    1.245291    0.137264
C     -0.340063    0.162381   -0.006959
H     -0.078488   -1.820467   -0.557061
H      1.740683   -0.570139    1.328201
H      3.442058   -0.174299   -0.530556
H      2.063825    2.355441   -0.333232
H     -0.238759    2.111800    0.413520
H     -1.431204    0.167649    0.083970
12

C      0.376758   -1.081233    0.032028
C      1.815230   -1.098728    0.274683
C      2.467356    0.128331   -0.145081
C      1.827976    1.347783   -0.114169
C      0.347277    1.259619    0.111138
C     -0.296671    0.111908    0.043778
H     -0.110097   -2.025648   -0.495854
H      1.542757   -0.682690    1.224523
H      3.372274   -0.163503   -0.597343
H      1.964163    2.541821   -0.183138
H     -0.033093    2.185020    0.323696
H     -1.419520    0.237259    0.097328
12

C      0.472045   -1.072275   -0.011821
C      1.887409   -1.048434    0.343132
C      2.503767    0.174871   -0.181012
C      1.838947    1.401178   -0.057969
C      0.377635    1.234744    0.164150
C     -0.283891    0.062892   -0.012665
H     -0.092370   -2.042834   -0.246295
H      1.290401   -0.837962    1.386280
H      3.130139   -0.058631   -1.030345
H      2.068908    2.531953    0.022772
H     -0.064324    2.238711    0.227521
H     -1.274255    0.175726   -0.032156
12

C      0.435593   -0.899678    0.130231
C      1.802959   -0.914355    1.003987
C      2.365173    0.190371    0.158849
C      1.645131    1.396624   -0.162834
C      0.287220    1.555817   -0.215158
C     -0.353504    0.337806    0.008524
H      0.263801   -1.664053   -0.578359
H      2.233634   -1.894901    1.240081
H      2.715232   -0.212807   -0.894257
H      2.248271    2.238545   -0.047737
H     -0.404436    2.484077   -0.127470
H     -1.384663    0.142494    0.055732
12

C      0.335716   -1.065011   -0.075471
C      1.770362   -1.152642    0.075846
C      2.442697    0.078010   -0.275450
C      1.688300    1.226269   -0.244305
C      0.398652    1.342863    0.199901
C     -0.395701    0.202033    0.414790
H     -0.055561   -1.821720   -0.663824
H      1.615219   -0.761292    1.210309
H      3.479162    0.310343   -0.064267
H      2.313668    2.090617   -0.368491
H     -0.255339    2.302966    0.005757
H     -1.482765    0.007503    0.356795
12

C      0.459156   -0.925948    0.178031
C      1.857481   -0.960993    0.995144
C      2.312092    0.160235    0.124498
C      1.651081    1.354598   -0.107864
C      0.227422    1.575731   -0.159932
C     -0.367595    0.334799    0.109450
H      0.335854   -1.612857   -0.540978
H      2.229198   -1.975523    1.191964
H      2.740444   -0.212374   -0.861517
H      2.184772    2.296317   -0.142015
H     -0.350728    2.512838   -0.145468
H     -1.424765    0.213116   -0.069723
12

C      0.206473   -1.057021    0.113558
C      1.656130   -0.820249    0.512527
C      2.344516   -0.064336   -0.603102
C      1.694564    1.240123   -0.186654
C      0.291482    1.299567    0.347364
C     -0.364602    0.104169   -0.045439
H     -0.014456   -1.946250   -0.500882
H      1.895351   -0.537585    1.566636
H      3.452004    0.042902   -0.775018
H      2.275110    2.081864   -0.040875
H     -0.151312    2.405458    0.582880
H     -1.430850    0.011298   -0.399405
12

C      0.335271   -0.993337   -0.015036
C      1.689341   -0.670156    0.525028
C      2.337497    0.098294   -0.454703
C      1.758551    1.329026   -0.041639
C      0.246244    1.211740    0.126478
C     -0.448057    0.102823    0.015976
H     -0.086823   -2.016336   -0.234393
H      1.940938   -0.867089    1.533844
H      3.183670   -0.069064   -1.051213
H      2.424083    2.258381    0.249508
H     -0.203673    2.246109    0.286531
H     -1.322633    0.129550   -0.368791
12

C      0.297754   -1.157886   -0.079921
C      1.808641   -1.077952    0.004496
C      2.507577    0.175100   -0.209248
C      1.712900    1.297632   -0.192408
C      0.360529    1.300577    0.097541
C     -0.380842    0.198248    0.190959
H     -0.303674   -2.073138   -0.326123
H      1.643784   -0.667083    1.233109
H      3.589640    0.115780   -0.368601
H      2.274025    2.275261   -0.158425
H     -0.262452    2.285779    0.305766
H     -1.393473    0.087622    0.074444
12

C      0.315665   -1.212871   -0.087877
C      1.869378   -1.132893    0.056626
C      2.455523    0.211577   -0.266515
C      1.776084    1.306706   -0.131486
C      0.342070    1.296654    0.240326
C     -0.370568    0.022367    0.198613
H     -0.296435   -2.211896   -0.211153
H      1.540352   -0.638877    1.267346
H      3.459879    0.233884   -0.544296
H      2.228709    2.424167   -0.082748
H     -0.006398    2.218078    0.211994
H     -1.459849    0.243043   -0.079239
12

C      0.299858   -1.039488   -0.143448
C      1.683371   -1.127052    0.259774
C      2.413782    0.140691   -0.113510
C      1.858214    1.403301   -0.134283
C      0.429405    1.265281    0.192603
C     -0.396028    0.043889    0.057935
H      0.000480   -1.980924   -0.637591
H      1.471191   -0.661162    1.133233
H      3.475265    0.150703   -0.157935
H      2.228006    2.311571   -0.651088
H     -0.105423    2.098445    0.386516
H     -1.503710    0.154686    0.379385
12

C      0.618156   -1.030843   -0.341661
C      1.637490   -0.959172    0.523018
C      2.427970    0.282336    0.126446
C      1.861638    1.601959    0.147241
C      0.493256    1.440761    0.108159
C     -0.211372    0.161507   -0.084525
H     -0.106898   -1.837040   -0.357406
H      1.554458   -1.387817    1.491344
H      2.727896    0.012262   -0.962638
H      2.347542    2.383399   -0.288744
H     -0.318238    2.140396   -0.114724
H     -1.177488   -0.047808    0.325080
12

C      0.472732   -1.092892   -0.299460
C      1.613172   -0.968342    0.549153
C      2.434890    0.146152   -0.036326
C      1.857404    1.515408    0.018317
C      0.452873    1.396938    0.083199
C     -0.242193    0.209009   -0.074357
H     -0.027231   -2.043869   -0.280885
H      1.747397   -1.290249    1.629615
H      2.738983   -0.008895   -1.042356
H      2.373518    2.626676   -0.049978
H     -0.222589    2.229418    0.020379
H     -1.344545    0.040586    0.054290
12

C      0.392286   -0.974777    0.156787
C      1.865212   -0.954046    0.465962
C      2.340932    0.138174   -0.496225
C      1.590195    1.264423    0.036342
C      0.183504    1.423612    0.134772
C     -0.479895    0.230798    0.218057
H     -0.160493   -1.733257   -0.521193
H      2.254809   -1.067040    1.494961
H      3.398490   -0.099131   -0.845672
H      2.188619    2.011469    0.301192
H     -0.266422    2.329596   -0.253304
H     -1.452823    0.190119   -0.120089
12

C      0.374243   -1.071755   -0.108031
C      1.923453   -1.142615    0.307675
C      2.340724    0.082487   -0.243716
C      1.758930    1.383054    0.001890
C      0.401860    1.381712    0.311979
C     -0.392251    0.133091   -0.024838
H     -0.042525   -1.942459   -0.450911
H      1.501726   -0.702660    1.437537
H      3.474055    0.089660   -0.676846
H      2.279178    2.167202   -0.399721
H     -0.311955    2.233773    0.371471
H     -1.453027    0.148451    0.045101
12

C      0.480217   -0.892306    0.252265
C      1.746530   -0.778923    0.904228
C      2.333281    0.074415   -0.120305
C      1.722814    1.503048    0.046261
C      0.326465    1.412195   -0.074308
C     -0.318147    0.266280   -0.327447
H      0.076152   -1.825998   -0.259192
H      2.308085   -1.676095    1.318158
H      2.582217   -0.218004   -1.020529
H      2.335997    2.443950    0.117004
H     -0.322757    2.205217    0.039907
H     -1.416443    0.246160   -0.304451
12

C      0.306620   -1.002020    0.097018
C      1.602014   -0.778176    0.430329
C      2.351566    0.108583   -0.602559
C      1.646009    1.226864   -0.213839
C      0.310067    1.284450    0.112933
C     -0.464113    0.077493    0.081361
H     -0.189756   -1.877159   -0.386431
H      1.917036   -0.612906    1.329618
H      3.475752    0.156319   -0.513562
H      2.421863    2.014891    0.013167
H     -0.106077    2.221580    0.498086
H     -1.416570   -0.059978   -0.274532
12

C      0.477022   -0.807139    0.019372
C      1.757189   -1.070648    0.851837
C      2.217461    0.040471    0.131415
C      1.643159    1.448031    0.037003
C      0.198637    1.485207   -0.003649
C     -0.417909    0.271754    0.010810
H      0.324459   -1.595851   -0.677821
H      2.320170   -1.846712    1.270671
H      2.934580   -0.156397   -0.630481
H      2.139984    2.282464   -0.392984
H     -0.257272    2.417282   -0.273115
H     -1.483069    0.291477    0.228532
12

C      0.440120   -1.110479   -0.433836
C      1.539032   -0.886080    0.492966
C      2.345751    0.139552   -0.251125
C      1.777584    1.494540   -0.040694
C      0.397841    1.278194    0.222750
C     -0.201325    0.109291   -0.071382
H     -0.114770   -1.955415   -0.364141
H      1.833660   -0.723749    1.530846
H      3.164064   -0.112892   -0.720079
H      2.363806    2.252110   -0.191204
H     -0.345220    2.030305    0.392088
H     -1.346132    0.244563    0.005400
12

C      0.236495   -1.133161    0.096249
C      1.723681   -1.102285    0.009950
C      2.544633    0.211597   -0.143322
C      1.810904    1.398719    0.136561
C      0.329405    1.284008    0.195305
C     -0.349209    0.087375    0.168362
H     -0.152419   -2.093678   -0.067510
H      1.693168   -0.818985    1.046472
H      3.387429   -0.045413   -0.745961
H      2.224454    2.532283    0.021510
H     -0.199438    2.179990   -0.017261
H     -1.394693    0.259489   -0.128766
12

C      0.413071   -0.929464    0.031913
C      1.572651   -0.901249    0.949798
C      2.112417    0.162154    0.060805
C      1.656049    1.558422    0.020647
C      0.231504    1.571391    0.042058
C     -0.249861    0.269105    0.122441
H      0.362624   -1.873349   -0.673754
H      2.364687   -1.699068    1.163040
H      2.639896   -0.354136   -0.721888
H      2.314072    2.292117   -0.224468
H     -0.263577    2.475680   -0.171805
H     -1.299121    0.188338   -0.027196
12

C      0.421668   -0.974097    0.092500
C      1.662528   -0.970833    0.966660
C      2.115062    0.075111    0.053090
C      1.644303    1.466827   -0.003468
C      0.178192    1.537269    0.148280
C     -0.225837    0.269092    0.153893
H      0.421724   -1.734598   -0.632398
H      2.257118   -1.772778    1.058739
H      2.767470   -0.359657   -0.658965
H      2.106863    2.397651   -0.367603
H     -0.242359    2.507202   -0.150361
H     -1.252320    0.318751   -0.088778
12

C      0.544892   -0.828324    0.055848
C      1.714934   -0.751889    0.952922
C      2.290619    0.082415   -0.054726
C      1.632835    1.389862   -0.117082
C      0.254734    1.481335   -0.015965
C     -0.393731    0.349579    0.027457
H      0.211384   -1.847202   -0.568295
H      2.209894   -1.625748    1.117540
H      2.974933   -0.340370   -0.661613
H      2.174688    2.216324   -0.214271
H     -0.313342    2.472126    0.104187
H     -1.447430    0.161831   -0.054411
12

C      0.250059   -1.069287    0.022066
C      1.751680   -0.825467    0.599782
C      2.444455   -0.072279   -0.396915
C      1.618558    1.161370   -0.190287
C      0.227201    1.287651    0.242760
C     -0.399210    0.108299    0.330821
H     -0.107178   -1.685687   -0.841297
H      2.019053   -0.815360    1.605471
H      3.471405    0.086857   -0.625194
H      2.177896    2.138069   -0.267740
H     -0.199519    2.250905    0.275757
H     -1.399990    0.194870   -0.183633
12

C      0.282019   -1.176010    0.091972
C      1.788910   -1.115862    0.031188
C      2.573603    0.136334   -0.367854
C      1.872369    1.339680    0.113519
C      0.256186    1.302870    0.126504
C     -0.353828    0.031947   -0.054041
H     -0.210384   -2.056733   -0.047308
H      1.555078   -0.702985    1.119771
H      3.614736    0.142286   -0.689382
H      2.416509    2.339912    0.040136
H     -0.503930    2.217150    0.130992
H     -1.436859    0.301352    0.076093
12

C      0.356949   -1.162535   -0.398822
C      1.481594   -0.843403    0.379871
C      2.363677    0.247128   -0.172135
C      1.754472    1.430509    0.004487
C      0.411547    1.342555    0.152438
C     -0.317445    0.079023    0.006834
H     -0.095144   -2.177619   -0.491385
H      1.697006   -0.873059    1.489362
H      3.327968   -0.024378   -0.634728
H      2.383786    2.370293   -0.313702
H     -0.212886    2.229287    0.272746
H     -1.297115    0.142139    0.276624
12

C      0.441465   -1.198206   -0.444368
C      1.593965   -0.874583    0.395704
C      2.373917    0.201682   -0.051872
C      1.893646    1.453722    0.010909
C      0.454194    1.337262   -0.025499
C     -0.173028    0.088778   -0.205227
H      0.004404   -2.200297   -0.059863
H      1.182390   -0.960615    1.388569
H      3.099081    0.200385   -0.870044
H      2.305610    2.409384   -0.306630
H     -0.158865    2.185514    0.519714
H     -1.162368    0.116915    0.220198
12

C      0.267890   -0.936535    0.134644
C      1.746422   -0.855099    0.525381
C      2.471095    0.056232   -0.596399
C      1.669725    1.179599   -0.184100
C      0.159347    1.315478    0.142836
C     -0.601342    0.151932   -0.012935
H     -0.211000   -1.729831   -0.495219
H      2.337832   -0.873901    1.446376
H      3.539765   -0.045805   -0.580196
H      2.279125    2.091308    0.228369
H     -0.211355    2.369294    0.114586
H     -1.593094    0.037268   -0.151752
12

C      0.222141   -0.898665    0.157013
C      1.758408   -0.900365    0.508376
C      2.432972    0.029618   -0.559692
C      1.677882    1.183896   -0.089080
C      0.112346    1.311128    0.214202
C     -0.626352    0.186121    0.027907
H     -0.031977   -1.713084   -0.372669
H      2.391887   -0.964572    1.407187
H      3.505043    0.090249   -0.653426
H      2.282664    1.989148    0.199633
H     -0.135786    2.267043   -0.008360
H     -1.734817    0.179422   -0.259502
12

C      0.443973   -0.787523    0.262613
C      1.763502   -0.950454    0.979426
C      2.146950    0.017167   -0.002138
C      1.656914    1.356208   -0.080012
C      0.167464    1.497825   -0.145837
C     -0.475777    0.321528   -0.013942
H      0.369106   -1.661454   -0.511752
H      2.386880   -1.890639    0.941983
H      3.048867   -0.275285   -0.564575
H      2.192024    2.344317   -0.235185
H     -0.325836    2.573436   -0.054501
H     -1.519658    0.214814   -0.004490
12

C      0.428314   -0.964152   -0.016883
C      1.749163   -0.860233    0.719206
C      2.464903    0.014870   -0.177713
C      1.814362    1.370052   -0.272787
C      0.279923    1.397084   -0.041443
C     -0.420388    0.173556    0.034816
H      0.117144   -1.715704   -0.668190
H      1.789886   -1.220616    1.692668
H      3.165378   -0.131729   -1.134239
H      2.260422    2.309706    0.191295
H     -0.352336    2.348347    0.023169
H     -1.442359    0.038760    0.221691
12

C      0.285888   -1.004420   -0.102980
C      1.724310   -1.011550    0.306522
C      2.509339    0.032370   -0.167828
C      1.741271    1.223127   -0.189839
C      0.391069    1.240767    0.167130
C     -0.522544   -0.088511    0.535562
H     -0.022598   -1.493022   -0.985886
H      1.665742   -0.856630    1.378360
H      3.555428    0.245096   -0.282877
H      2.212306    2.218769   -0.437874
H     -0.092699    2.294435   -0.159472
H     -1.593102   -0.040491    0.510773
12

C      0.269647   -1.061628    0.107138
C      1.697939   -0.833767    0.487226
C      2.448088   -0.045064   -0.446536
C      1.657344    1.289843   -0.255768
C      0.276908    1.245874    0.015082
C     -0.471610    0.168812    0.393009
H      0.031532   -1.580579   -0.918107
H      1.929008   -1.048881    1.536747
H      3.545141    0.056596   -0.393797
H      2.159083    2.251288   -0.230208
H     -0.121743    2.166075    0.111305
H     -1.566928    0.151370    0.165499
12

C      0.322244   -1.121913   -0.174396
C      1.641696   -0.841871    0.704982
C      2.455224    0.239593   -0.019094
C      1.609795    1.422970   -0.188428
C      0.362780    1.367741    0.051212
C     -0.295725    0.137426    0.327428
H      0.012190   -1.580179   -1.061934
H      1.771182   -1.370946    1.609054
H      3.427196   -0.046959   -0.640979
H      2.109372    2.231788   -0.505132
H     -0.188363    2.175331   -0.014342
H     -1.373180    0.146958    0.483219
12

C      0.531089   -0.946521   -0.257016
C      1.711411   -0.907169    0.683750
C      2.190493    0.035128   -0.200652
C      1.787295    1.328064   -0.052110
C      0.434248    1.257701    0.210596
C     -0.388337    0.114755    0.054815
H      0.331349   -1.767755   -0.992998
H      1.518341   -0.810014    1.764050
H      3.079179   -0.088110   -0.820867
H      2.209688    2.251759   -0.445876
H      0.007462    2.304369    0.269404
H     -1.557808   -0.012268    0.358494
12

C      0.517611   -0.920187   -0.270776
C      1.537973   -0.884752    0.711669
C      2.232131    0.082664   -0.121439
C      1.730057    1.306844   -0.100222
C      0.354222    1.366676    0.163172
C     -0.419087    0.064858    0.129931
H      0.469145   -1.641739   -1.071053
H      1.563358   -0.717382    1.804745
H      2.941125   -0.238380   -0.968577
H      2.404367    2.178067   -0.354255
H     -0.115302    2.252725    0.298571
H     -1.361189   -0.089453    0.349825
12

C      0.536202   -0.953927   -0.254746
C      1.544795   -0.877420    0.703113
C      2.369911    0.071580   -0.105811
C      1.743373    1.336626   -0.119166
C      0.365901    1.410490    0.178258
C     -0.327863    0.059664    0.197750
H      0.540991   -1.648179   -1.148379
H      1.514336   -0.665193    1.785909
H      2.919720   -0.359577   -0.983120
H      2.443171    2.147174   -0.373018
H     -0.258680    2.344516    0.349594
H     -1.537445   -0.105814    0.341204
12

C      0.502433   -1.119622   -0.190178
C      1.684427   -0.925262    0.735612
C      2.527752    0.003143   -0.063662
C      1.664768    1.421635   -0.157193
C      0.374647    1.396123    0.222519
C     -0.215357    0.131715    0.302501
H      0.436181   -1.638599   -1.225717
H      1.259632   -0.779149    1.781644
H      3.057378   -0.455294   -1.041522
H      2.158598    2.409193   -0.499899
H     -0.236840    2.283131    0.373547
H     -1.359208    0.032927    0.333937
12

C      0.483907   -1.169329   -0.194075
C      1.724407   -0.989962    0.728938
C      2.530838   -0.019171   -0.055619
C      1.679349    1.437491   -0.189962
C      0.404318    1.352015    0.194656
C     -0.196742    0.152007    0.242208
H      0.357104   -1.592425   -1.145156
H      1.381744   -0.854712    1.680063
H      3.050473   -0.324203   -0.850944
H      1.989407    2.340246   -0.497451
H     -0.180122    2.303339    0.306358
H     -1.370272    0.124646    0.352576
12

C      0.458288   -1.030937   -0.003789
C      1.753414   -0.886816    0.567776
C      2.253943    0.105729   -0.377002
C      1.687883    1.336671   -0.075959
C      0.247357    1.419545    0.018970
C     -0.382329    0.210050    0.068070
H     -0.034890   -1.812358   -0.469077
H      2.129730   -0.940942    1.614544
H      3.201073   -0.000252   -1.029623
H      2.597914    1.961210    0.300020
H     -0.497469    2.254062    0.040289
H     -1.560504    0.143979   -0.082629
12

C      0.273798   -1.153289   -0.082757
C      1.806880   -1.206124    0.141741
C      2.557107    0.175308   -0.057657
C      1.774760    1.359685    0.048400
C      0.372951    1.317726    0.153190
C     -0.397629    0.038488    0.119818
H     -0.274677   -1.928204   -0.539941
H      1.644698   -0.754671    1.314574
H      3.453962    0.259638   -0.620750
H      2.183652    2.305460   -0.134486
H     -0.093935    2.240671   -0.206466
H     -1.447158    0.105250    0.435923
12

C      0.297331   -1.166981    0.056324
C      1.778794   -1.234814    0.201490
C      2.504783    0.208053   -0.017926
C      1.778749    1.346201   -0.058910
C      0.397261    1.260497    0.141948
C     -0.435530    0.040610    0.138303
H     -0.330962   -1.880445   -0.588288
H      1.642568   -0.807601    1.097368
H      3.514677    0.309741   -0.423303
H      2.175195    2.402755   -0.255296
H     -0.022763    2.192711   -0.165822
H     -1.445694    0.089211    0.445702
12

C      0.199879   -1.262569   -0.292681
C      1.472143   -0.804967    0.370108
C      2.389031    0.287432   -0.101404
C      1.747580    1.543027   -0.295034
C      0.442146    1.438849    0.002268
C     -0.304991    0.115430    0.024922
H      0.022993   -2.310390   -0.661700
H      1.535615   -1.267350    1.315516
H      3.364269    0.048753   -0.286857
H      2.187423    2.483423   -0.310436
H     -0.069496    2.289320    0.076483
H     -1.132182    0.198981    0.730404
12

C      0.383497   -0.954709   -0.024645
C      1.578197   -0.771195    0.713946
C      2.433272    0.096991   -0.036618
C      1.618678    1.306864   -0.114729
C      0.173013    1.372529   -0.012409
C     -0.474551    0.215753    0.110254
H      0.423620   -1.820280   -0.750634
H      1.973645   -1.178046    1.546095
H      3.041183   -0.261032   -1.078672
H      2.326094    2.188280    0.017538
H     -0.160249    2.420956    0.051956
H     -1.461988    0.143830    0.149508
12

C      0.466353   -1.087281   -0.080387
C      1.786659   -0.958924    0.442026
C      2.510707    0.213573    0.219490
C      1.756993    1.534634    0.096306
C      0.388913    1.454980    0.083782
C     -0.181048    0.182328   -0.336187
H     -0.023298   -2.036502    0.125757
H      2.024645   -1.578683    1.211505
H      2.273297    0.114140   -0.790986
H      2.330705    2.404322   -0.138854
H     -0.097007    2.424718    0.065472
H     -1.382509    0.092635   -0.326334
12

C      0.474476   -1.086898   -0.077548
C      1.797953   -0.978864    0.474475
C      2.488741    0.214887    0.251028
C      1.757275    1.552309    0.107442
C      0.386278    1.457021    0.100212
C     -0.193610    0.170953   -0.318562
H      0.030954   -2.040625    0.094879
H      1.997550   -1.558948    1.195631
H      2.277576    0.089232   -0.842972
H      2.366931    2.395648   -0.159229
H     -0.113843    2.450642    0.066430
H     -1.415869    0.094583   -0.320196
12

C      0.407350   -1.023100    0.051823
C      1.685086   -0.933095    0.856770
C      2.353637    0.229812    0.263291
C      1.673120    1.501093   -0.030328
C      0.346646    1.459979   -0.007084
C     -0.195983    0.228130    0.219483
H      0.084810   -1.614782   -0.839699
H      2.211763   -1.693055    1.605975
H      2.570443   -0.204330   -1.015383
H      2.191673    2.369387   -0.317369
H     -0.235493    2.344162   -0.094257
H     -1.238642    0.095738   -0.121632
12

C      0.426847   -1.049238    0.023424
C      1.690198   -0.948927    0.836097
C      2.385844    0.181463    0.169192
C      1.636310    1.462845   -0.026650
C      0.348705    1.423289    0.002660
C     -0.163501    0.210015    0.235401
H      0.187666   -1.616000   -0.827835
H      2.097310   -1.546773    1.417524
H      2.640731   -0.229812   -0.879687
H      2.172967    2.368543   -0.261988
H     -0.191346    2.390509   -0.158286
H     -1.377321    0.114026    0.041738
12

C      0.529652   -1.021185    0.054910
C      1.769674   -0.937518    0.566160
C      2.581852    0.208022    0.119743
C      1.714413    1.471351    0.034471
C      0.393160    1.495551   -0.118738
C     -0.200367    0.194672   -0.225027
H     -0.045614   -1.830926    0.102712
H      2.025113   -1.711370    1.334943
H      2.256873   -0.031762   -1.055235
H      2.279898    2.499763    0.133656
H     -0.211957    2.369733    0.026051
H     -1.238287    0.053609   -0.402056
12

C      0.395850   -0.984506   -0.011416
C      1.692812   -0.939170    0.757064
C      2.328400   -0.016395   -0.073570
C      1.637321    1.396202   -0.255469
C      0.223114    1.434273    0.053178
C     -0.492217    0.255379   -0.020734
H      0.453840   -1.466697   -0.926569
H      2.042364   -1.519777    1.805014
H      3.059738   -0.188150   -0.683562
H      2.124157    2.296361   -0.483401
H     -0.093899    2.355713    0.273546
H     -1.517070    0.136707    0.137510
12

C      0.320860   -1.181765   -0.039936
C      1.880553   -1.247972    0.208884
C      2.538157    0.124860   -0.215156
C      1.783645    1.365995   -0.039067
C      0.357304    1.256234    0.180080
C     -0.362375    0.122168    0.221800
H     -0.230960   -1.933690   -0.512018
H      1.698511   -0.806727    1.493596
H      3.416100    0.167326   -0.714371
H      2.100201    2.379924   -0.071211
H     -0.161998    2.242250   -0.063623
H     -1.485587    0.271336    0.122612
12

C      0.195480   -1.132628    0.012539
C      1.779046   -1.214235    0.356185
C      2.458457    0.244690   -0.064247
C      1.724263    1.426648   -0.014679
C      0.319533    1.369506    0.121328
C     -0.416574    0.175499    0.181117
H     -0.193189   -2.041493   -0.529799
H      1.766116   -0.546635    1.200099
H      3.352470   -0.070594   -0.798314
H      2.365091    2.354994   -0.048140
H     -0.082065    2.320425    0.150482
H     -1.414218   -0.126238    0.005017
12

C      0.196460   -1.120778   -0.010264
C      1.790661   -0.950142    0.032831
C      2.480465    0.215751   -0.365256
C      1.720431    1.371279   -0.097961
C      0.409708    1.253759    0.298502
C     -0.333241    0.194146    0.092152
H     -0.132526   -2.132351   -0.066832
H      1.247225   -0.690881    0.987433
H      3.747177    0.092866   -0.481077
H      2.211769    2.345044   -0.165339
H     -0.090161    2.146287    0.297706
H     -1.393558    0.034960    0.049696
12

C      0.491324   -0.827734    0.093431
C      1.616378   -0.915583    1.016356
C      2.143411    0.132203    0.011701
C      1.690421    1.477710    0.114961
C      0.289318    1.479380    0.127819
C     -0.358669    0.359106   -0.076187
H      0.209549   -1.729211   -0.289474
H      2.419338   -1.708779    0.944649
H      2.669059   -0.363282   -0.768460
H      2.154656    2.352422   -0.190116
H     -0.189180    2.462666   -0.074948
H     -1.281196    0.041042   -0.338142
12

C      0.420626   -0.979386   -0.137972
C      1.626500   -0.870625    0.592655
C      2.567826    0.133070    0.176276
C      1.700821    1.448714    0.058794
C      0.447604    1.276336   -0.039184
C     -0.393584    0.098568   -0.210204
H     -0.036767   -2.052884   -0.132381
H      2.055686   -1.326499    1.324247
H      2.496533    0.252320   -1.013387
H      2.380379    2.334966    0.119507
H     -0.018662    2.326047   -0.143206
H     -1.392552    0.119313   -0.023555
12

C      0.536656   -0.905829   -0.169657
C      1.821156   -0.976570    0.665256
C      2.173561    0.193003   -0.225137
C      1.589457    1.470551   -0.137452
C      0.266879    1.450406    0.088428
C     -0.313390    0.230164   -0.122810
H      0.215350   -1.880299   -0.514121
H      1.587935   -1.411659    1.561795
H      3.114026   -0.186362   -0.775955
H      2.356996    2.398745   -0.266603
H     -0.091820    2.449015    0.209935
H     -1.402397   -0.071225    0.257910
12

C      0.540262   -0.924991   -0.016098
C      1.678028   -0.892425    0.947544
C      2.201362    0.085989    0.051374
C      1.563293    1.498397   -0.164268
C      0.264613    1.513317    0.117417
C     -0.349104    0.346457   -0.062761
H      0.119328   -1.744509   -0.590269
H      2.436608   -1.662158    1.050060
H      3.037591   -0.446620   -0.550165
H      2.184056    2.352086   -0.199479
H     -0.333428    2.416378   -0.099957
H     -1.488197    0.218018    0.088193
12

C      0.385235   -0.959760   -0.268336
C      1.811605   -1.073678    0.168009
C      2.452958    0.215601   -0.151103
C      1.783964    1.370667   -0.132352
C      0.447652    1.306379    0.300978
C     -0.405531    0.082450    0.234629
H     -0.228548   -1.700643   -0.713402
H      1.461389   -0.674205    1.202157
H      3.544548   -0.017884   -0.167125
H      2.266666    2.272000   -0.489538
H     -0.252387    2.006687    0.028601
H     -1.413140   -0.067675    0.559071
12

C      0.278400   -1.119118   -0.145343
C      1.749408   -1.207309    0.072175
C      2.437182    0.129383   -0.257625
C      1.742075    1.355708    0.050034
C      0.351367    1.362251    0.217457
C     -0.325525    0.124010    0.168598
H     -0.217556   -2.052978   -0.014407
H      1.531485   -0.762515    1.042306
H      3.485081    0.423865   -0.576343
H      2.369429    2.237227    0.005869
H     -0.117804    2.299872   -0.152454
H     -1.429130   -0.030458    0.161321
12

C      0.491473   -0.936605   -0.208107
C      1.727681   -1.015566    0.547077
C      2.221871    0.075827   -0.185538
C      1.670598    1.368979   -0.094347
C      0.361049    1.445394    0.099559
C     -0.375387    0.142349    0.142729
H      0.121028   -1.626573   -0.854334
H      1.930449   -1.220544    1.593668
H      3.214086   -0.111599   -0.471467
H      2.203290    2.252077   -0.375605
H     -0.265988    2.193014   -0.033098
H     -1.445739    0.193188    0.411052
12

C      0.390212   -1.187708   -0.446979
C      1.547807   -0.975696    0.569210
C      2.376019    0.195035   -0.223225
C      1.780756    1.445159   -0.086726
C      0.457271    1.334167    0.357744
C     -0.294491    0.117988   -0.149333
H     -0.049357   -2.154163   -0.405607
H      1.587461   -1.039440    1.671976
H      3.245940    0.175485   -0.840711
H      2.315476    2.441814   -0.291888
H     -0.145695    2.214556    0.176351
H     -1.356988    0.192743    0.240779
12

C      0.211066   -1.002251    0.010793
C      1.658504   -0.804899    0.395379
C      2.398658   -0.031982   -0.506953
C      1.721884    1.287753   -0.159168
C      0.282254    1.284854    0.375951
C     -0.452877    0.208198    0.172581
H      0.119408   -1.801328   -0.675557
H      1.871875   -0.786775    1.475757
H      3.561014   -0.075211   -0.575636
H      2.317351    2.143850   -0.118411
H     -0.378607    2.128490    0.113233
H     -1.456118    0.209241    0.063621
12

C      0.474999   -1.156850   -0.240090
C      1.569486   -0.724900    0.376995
C      2.437722    0.241336   -0.123944
C      1.763362    1.386439    0.121354
C      0.335540    1.413735    0.168019
C     -0.284367    0.093453    0.030852
H     -0.124552   -2.019292   -0.498604
H      1.638128   -0.904318    1.404167
H      3.278856   -0.134811   -0.745450
H      2.106438    2.217942   -0.337039
H      0.003306    2.456177    0.299811
H     -1.344507   -0.108972    0.115520
12

C      0.480484   -0.855935    0.120739
C      1.795935   -0.920339    0.900758
C      2.228179    0.000604    0.025372
C      1.589447    1.279630    0.097986
C      0.121038    1.602709   -0.085136
C     -0.405898    0.391446   -0.034255
H      0.413912   -1.686782   -0.534227
H      2.183150   -1.822380    1.341146
H      2.879357   -0.089899   -0.843685
H      2.184884    2.153104   -0.389091
H     -0.212904    2.593575    0.064232
H     -1.403171    0.114207   -0.092249
12

C      0.432138   -1.250034   -0.283934
C      1.569586   -0.953161    0.587363
C      2.342935    0.182457   -0.132849
C      1.732446    1.369516    0.042200
C      0.398365    1.405994    0.091532
C     -0.306860    0.087530   -0.112577
H      0.167405   -2.030401   -0.941619
H      1.288941   -0.711800    1.627470
H      3.213066   -0.021500   -0.788790
H      2.156332    2.275853   -0.506744
H     -0.002415    2.375671    0.382088
H     -1.137529    0.029816    0.607449
12

C      0.391982   -1.199966   -0.322074
C      1.566341   -0.951781    0.601256
C      2.324987    0.169211   -0.109084
C      1.795730    1.400216    0.030953
C      0.390056    1.407421    0.146585
C     -0.322238    0.125833   -0.070297
H      0.132095   -2.127263   -0.893098
H      1.250175   -0.853613    1.625616
H      3.171525    0.129662   -0.820124
H      2.168922    2.282456   -0.475154
H      0.019108    2.418161    0.196058
H     -1.034272   -0.040397    0.660951
12

C      0.220659   -1.149683    0.160677
C      1.631797   -0.800258    0.512264
C      2.342078    0.008456   -0.380289
C      1.745951    1.218806   -0.231714
C      0.270508    1.354584    0.237588
C     -0.352100    0.109451    0.212429
H      0.063516   -1.555217   -0.803303
H      1.982686   -0.936269    1.519806
H      3.413254    0.058367   -0.462796
H      2.285405    2.095280   -0.435098
H     -0.308742    2.277559    0.443068
H     -1.440601    0.078863   -0.201044
12

C      0.250718   -1.126938    0.233466
C      1.648417   -0.823881    0.495242
C      2.331214   -0.020132   -0.448397
C      1.665354    1.205364   -0.319284
C      0.244228    1.306338    0.261992
C     -0.410819    0.098861    0.285119
H      0.049363   -1.402169   -0.794978
H      2.008429   -0.994199    1.509133
H      3.407237    0.042527   -0.384406
H      2.333531    2.159440   -0.411050
H     -0.340427    2.211695    0.412031
H     -1.332835    0.103033   -0.267279
12

C      0.311516   -1.012824    0.111406
C      1.718420   -0.824160    0.457577
C      2.504561   -0.033503   -0.539386
C      1.600013    1.181335   -0.344991
C      0.218258    1.263055    0.158612
C     -0.581925    0.124371    0.220048
H      0.041916   -1.736496   -0.764761
H      1.854312   -0.745565    1.524139
H      3.601143    0.085549   -0.498968
H      2.179758    2.085234   -0.073454
H     -0.007674    2.246299    0.303788
H     -1.585888    0.126645    0.017581
12

C      0.230012   -0.988919    0.136104
C      1.698863   -0.953613    0.439808
C      2.372231   -0.106640   -0.599622
C      1.669756    1.116087   -0.320297
C      0.314837    1.270058    0.087416
C     -0.609911    0.165092    0.100082
H      0.230317   -1.766464   -0.612088
H      2.128357   -0.759750    1.440720
H      3.354051    0.180261   -0.351315
H      2.161906    2.045560    0.093296
H     -0.035613    2.313080    0.197882
H     -1.660395    0.245188   -0.040396
12

C      0.494518   -0.858512    0.133826
C      1.791493   -0.920018    0.923744
C      2.206124    0.050950    0.039625
C      1.598438    1.337422    0.099995
C      0.124117    1.614763   -0.098250
C     -0.376552    0.364324   -0.034954
H      0.345932   -1.658362   -0.545139
H      2.305617   -1.845640    1.233809
H      2.875090   -0.102733   -0.742065
H      2.291527    2.071063   -0.384961
H     -0.326682    2.601779    0.010242
H     -1.475213    0.104902   -0.064282
12

C      0.575205   -0.940253   -0.030467
C      1.656377   -0.852575    0.977822
C      2.226853    0.110303   -0.022164
C      1.705561    1.585091   -0.181672
C      0.258039    1.543739    0.150117
C     -0.261247    0.254583   -0.076439
H      0.174787   -1.901814   -0.411450
H      2.106101   -1.809795    1.262565
H      3.005220   -0.380234   -0.686884
H      2.238953    2.430756   -0.549087
H     -0.437535    2.490961    0.466281
H     -1.393903    0.229176   -0.327033
12

C      0.523343   -0.901543   -0.036088
C      1.506378   -0.850214    0.923006
C      2.128422    0.028494   -0.031169
C      1.633501    1.494483   -0.113737
C      0.285349    1.483064    0.136434
C     -0.272476    0.250665   -0.197882
H      0.199586   -1.777067   -0.493587
H      2.213696   -1.559603    1.300959
H      2.953375   -0.198344   -0.608571
H      2.236213    2.314971   -0.531692
H     -0.239175    2.245423    0.398405
H     -1.313803    0.229611   -0.174488
12

C      0.430052   -0.907205   -0.019224
C      1.684597   -0.729019    0.854398
C      2.118055    0.110965   -0.241017
C      1.632302    1.322982   -0.139423
C      0.274291    1.466054    0.054071
C     -0.392097    0.297082   -0.147480
H      0.259547   -1.817508   -0.550326
H      2.092785   -1.538040    1.475222
H      3.007027   -0.161183   -0.726558
H      2.273357    2.259272   -0.176750
H     -0.141139    2.360606    0.174372
H     -1.384368    0.095934    0.014304
12

C      0.471571   -0.880536   -0.222625
C      1.677904   -0.903737    0.651910
C      2.312526    0.075428   -0.128305
C      1.620849    1.421613   -0.161163
C      0.326439    1.506875    0.041564
C     -0.369943    0.229645    0.001360
H      0.370052   -1.736102   -0.840815
H      1.589684   -1.188390    1.700773
H      3.238298   -0.228387   -0.593834
H      2.226358    2.150784   -0.745778
H     -0.232462    2.301596    0.679337
H     -1.376867    0.011151    0.189166
12

C      0.405978   -1.038274   -0.439153
C      1.566612   -0.907199    0.474645
C      2.500858    0.249882   -0.033363
C      1.787261    1.388549   -0.052921
C      0.414527    1.362840    0.373107
C     -0.300329    0.110366    0.195140
H     -0.222732   -1.957591   -0.492282
H      1.755784   -1.144736    1.542825
H      3.248580    0.130194   -0.797195
H      2.164327    2.395984   -0.241826
H     -0.059054    2.034756   -0.217985
H     -1.407401    0.135170    0.260599
12

C      0.352316   -1.087947   -0.044083
C      1.771800   -1.187474    0.221640
C      2.489492    0.183085   -0.083126
C      1.710160    1.302373   -0.174219
C      0.432804    1.324979    0.244281
C     -0.288981    0.065225    0.054890
H     -0.309432   -1.869932   -0.291672
H      1.541728   -0.575151    1.234922
H      3.422588    0.311945   -0.504471
H      2.177032    2.075049   -0.468402
H     -0.148860    2.176972    0.596540
H     -1.296237    0.040815   -0.214710
12

C      0.372172   -1.106884   -0.253236
C      1.806802   -1.103273    0.147126
C      2.493820    0.102447   -0.211845
C      1.840070    1.294879   -0.183030
C      0.344104    1.258122    0.106052
C     -0.475713    0.103398    0.088578
H      0.014660   -2.102730   -0.510978
H      1.461906   -0.704706    1.051644
H      3.561281   -0.042787   -0.042088
H      2.107921    2.492385   -0.414219
H     -0.186808    2.185630    0.267103
H     -1.485803    0.383460    0.526483
12

C      0.534803   -0.865922   -0.074710
C      1.787469   -0.897948    0.724191
C      2.346627    0.102000   -0.230667
C      1.699742    1.393782    0.103519
C      0.220753    1.409236    0.155125
C     -0.315236    0.284086   -0.210211
H      0.002978   -1.833361   -0.372248
H      2.040529   -1.224356    1.647834
H      2.888191   -0.170862   -1.051744
H      2.354326    2.188940   -0.116762
H     -0.361346    2.236466    0.247645
H     -1.344426    0.137878   -0.250381
12

C      0.347577   -1.055852   -0.096901
C      1.879678   -1.130678    0.185656
C      2.563106    0.172464   -0.143741
C      1.788416    1.312564    0.079177
C      0.445570    1.184975    0.171573
C     -0.441933    0.083761    0.056506
H     -0.280885   -1.921863   -0.143915
H      1.533610   -0.748836    1.378065
H      3.435214    0.298498   -0.793238
H      2.183858    2.292594   -0.268213
H     -0.133700    2.081473    0.300571
H     -1.466101    0.190840   -0.153951
12

C      0.420341   -1.078948   -0.203429
C      1.692100   -0.830336    0.400761
C      2.276900    0.098337   -0.549736
C      1.660349    1.345237   -0.059488
C      0.270598    1.276393    0.107019
C     -0.326292    0.123413    0.058481
H      0.095459   -2.119012   -0.328128
H      1.652503   -0.490750    1.454334
H      3.322653   -0.102873   -0.864976
H      2.436721    2.040678    0.219901
H     -0.219102    2.350920    0.369639
H     -1.427820    0.146881   -0.032787
12

C      0.542783   -0.942570   -0.200291
C      1.719143   -0.971424    0.533732
C      2.586160    0.093480    0.088346
C      1.870120    1.395589   -0.076772
C      0.385524    1.441910    0.013465
C     -0.227386    0.201108   -0.067824
H     -0.058448   -1.939180   -0.344357
H      1.646803   -1.198636    1.684575
H      2.691975    0.118962   -1.100053
H      2.324688    2.295143   -0.155662
H     -0.329828    2.323981    0.262012
H     -1.297124   -0.058422   -0.065579
12

C      0.469519   -1.015087    0.096019
C      1.760272   -1.106289    0.780137
C      2.203453    0.052034   -0.077764
C      1.664819    1.448138   -0.052509
C      0.307520    1.397207    0.097764
C     -0.294816    0.228856    0.072987
H      0.194953   -1.661189   -0.735203
H      2.308236   -1.585864    1.630554
H      2.930134   -0.327044   -0.864898
H      1.921574    2.470019   -0.188989
H     -0.218401    2.429775   -0.059947
H     -1.392852    0.429385   -0.126562
12

C      0.339361   -1.102365   -0.200795
C      1.607455   -0.926867    0.561736
C      2.353750    0.182498    0.003634
C      1.743037    1.506503   -0.086104
C      0.426666    1.413706    0.149099
C     -0.184236    0.148743    0.187164
H      0.317018   -1.809815   -0.998239
H      1.750051   -1.125712    1.618936
H      2.988043   -0.370708   -0.633117
H      2.196874    2.313009   -0.553409
H     -0.382117    2.331649    0.246590
H     -1.301490    0.199299    0.276094
12

C      0.316460   -1.205242    0.020844
C      1.829894   -1.216552    0.229982
C      2.332240    0.183079   -0.219024
C      1.746320    1.399009   -0.091490
C      0.305919    1.335954    0.137916
C     -0.341056   -0.002132    0.146998
H     -0.138113   -2.027698   -0.393613
H      1.615786   -0.667324    1.383451
H      3.275536    0.226140   -0.670966
H      2.256669    2.268326   -0.158138
H     -0.002319    2.272128    0.304529
H     -1.342925    0.194250   -0.118899
12

C      0.251944   -1.051687   -0.353282
C      1.725602   -1.077104   -0.019156
C      2.584562    0.187467   -0.101433
C      1.738880    1.316661   -0.134015
C      0.302466    1.127443    0.050023
C     -0.394008    0.081774    0.092615
H     -0.304847   -1.981923   -0.542396
H      1.647088   -0.621185    1.219796
H      3.593657    0.191826    0.122114
H      2.033808    2.245381   -0.595495
H      0.029356    2.149191    0.360256
H     -1.354097    0.192097    0.472562
12

C      0.242532   -1.055694   -0.349492
C      1.739288   -1.065813   -0.007668
C      2.618070    0.224588   -0.088715
C      1.710426    1.288097   -0.162679
C      0.343506    1.177124    0.020579
C     -0.434593    0.070927    0.181961
H     -0.306663   -1.962487   -0.621413
H      1.561058   -0.707598    1.345416
H      3.726262    0.247221    0.042214
H      2.133195    2.309369   -0.679140
H      0.047543    2.161925    0.394621
H     -1.526213    0.072278    0.495906
12

C      0.503526   -1.001310   -0.453972
C      1.687535   -0.883187    0.526702
C      2.484479    0.179264    0.040625
C      1.756750    1.366115    0.027588
C      0.414542    1.470731   -0.028809
C     -0.209422    0.199009   -0.137035
H     -0.020862   -2.035388   -0.303326
H      1.756998   -1.190278    1.628149
H      3.011441   -0.209925   -0.921603
H      2.122417    2.368408   -0.273245
H     -0.333010    2.307620    0.412065
H     -1.319982    0.188882    0.054451
12

C      0.422986   -1.086831   -0.362643
C      1.490997   -0.718898    0.405285
C      2.438550    0.219172   -0.256404
C      1.907876    1.473240   -0.052880
C      0.459377    1.357209    0.073481
C     -0.213650    0.173242   -0.280306
H     -0.049073   -2.252790   -0.209769
H      1.477836   -0.648612    1.507846
H      3.207082   -0.320921   -0.878703
H      2.206114    2.443126   -0.126536
H     -0.225579    1.958817    0.763981
H     -1.268103    0.163186   -0.011762
12

C      0.466192   -1.098579   -0.299683
C      1.493387   -0.651806    0.508768
C      2.427325    0.126750   -0.199263
C      1.897819    1.411756   -0.061871
C      0.374806    1.255002    0.095767
C     -0.279674    0.078100   -0.321665
H     -0.010977   -1.878459   -0.260287
H      1.366211   -0.995137    1.510068
H      3.217121   -0.020022   -0.873561
H      2.270762    2.453003   -0.269054
H     -0.180511    2.016735    0.507680
H     -1.188050    0.062597    0.234690
12

C      0.409446   -1.068188   -0.072318
C      1.625549   -0.899700    0.619024
C      2.382065    0.029744    0.108731
C      1.727728    1.416717    0.036701
C      0.382878    1.443516    0.091937
C     -0.318934    0.221946    0.153832
H      0.182448   -1.715069   -0.735381
H      1.910650   -1.356632    1.554216
H      2.889612    0.029726   -0.900642
H      2.416445    2.343028   -0.375866
H     -0.365036    2.171203   -0.067490
H     -1.388441    0.143648    0.158846
12

C      0.305330   -1.061445    0.083496
C      1.721622   -0.922944    0.546409
C      2.386041   -0.118080   -0.406754
C      1.632208    1.240619   -0.197791
C      0.254175    1.379865    0.018544
C     -0.535779    0.148338    0.220542
H      0.290438   -1.381698   -0.912126
H      2.039180   -1.184052    1.565490
H      3.526190    0.047095   -0.433987
H      2.222009    2.189697   -0.227497
H     -0.193931    2.219552   -0.024278
H     -1.793072    0.202992    0.339543
12

C      0.515379   -0.885199   -0.120076
C      1.837837   -0.972018    0.563499
C      2.348094    0.168732   -0.231012
C      1.719626    1.387907   -0.016282
C      0.296489    1.486108    0.006808
C     -0.283192    0.238671    0.089485
H     -0.088137   -1.797773   -0.585881
H      1.880989   -1.193791    1.613657
H      3.141744   -0.214369   -0.926154
H      2.211183    2.210604    0.067310
H     -0.330926    2.347043   -0.069148
H     -1.394675   -0.015976    0.179383
12

C      0.326855   -1.165722   -0.126803
C      1.596562   -0.841455    0.630037
C      2.329917    0.107500   -0.207118
C      1.735625    1.478099   -0.099914
C      0.356464    1.332994   -0.116232
C     -0.345092    0.096815   -0.032134
H      0.003470   -1.858366   -0.788315
H      1.866625   -0.981843    1.681276
H      3.218945   -0.218597   -0.760684
H      2.289990    2.500505   -0.224384
H     -0.067626    2.371830    0.439236
H     -1.457324   -0.061820    0.176624
12

C      0.544096   -0.843227    0.044203
C      1.785092   -1.075082    0.990245
C      2.303975    0.049457    0.136468
C      1.611042    1.363511   -0.186114
C      0.255580    1.626466   -0.058282
C     -0.353366    0.324756    0.013737
H      0.107561   -1.506739   -0.586565
H      2.382051   -1.852340    1.237151
H      2.967634   -0.202763   -0.618519
H      2.155757    2.306111   -0.387888
H     -0.387753    2.490446    0.051759
H     -1.517256    0.079345   -0.064605
12

C      0.535791   -0.763911    0.102059
C      1.807880   -0.979990    0.953754
C      2.233619    0.045986    0.106428
C      1.548856    1.467823   -0.183574
C      0.176365    1.551164   -0.165602
C     -0.457505    0.429723    0.074530
H      0.132796   -1.597009   -0.621614
H      2.311970   -1.947867    1.281633
H      3.085516   -0.167704   -0.622140
H      2.368074    2.216682   -0.456409
H     -0.510517    2.389051    0.136178
H     -1.378434    0.115992   -0.033652
12

C      0.270300   -1.153957   -0.070415
C      1.822130   -1.070967    0.085558
C      2.468510    0.167326   -0.248754
C      1.756967    1.371650   -0.116001
C      0.452689    1.334336    0.286175
C     -0.345746    0.105581    0.249640
H     -0.217556   -2.051307   -0.517259
H      1.593527   -0.494692    1.152984
H      3.459333   -0.048825   -0.314316
H      2.200493    2.389170   -0.238237
H     -0.108608    2.115112    0.212535
H     -1.497629    0.096513    0.089680
12

C      0.324549   -1.145968   -0.029437
C      1.921924   -1.075434    0.123767
C      2.461839    0.170505   -0.316610
C      1.730534    1.443888   -0.100777
C      0.472621    1.364428    0.240763
C     -0.343291    0.106421    0.215379
H     -0.197774   -2.106198   -0.277236
H      1.453793   -0.808184    1.327380
H      3.427379    0.012257   -0.624217
H      2.145413    2.481393   -0.104792
H     -0.088142    2.149989    0.203291
H     -1.454435    0.166843   -0.085918
12

C      0.332800   -1.176555   -0.037639
C      1.842819   -1.074660    0.189575
C      2.436588    0.220520   -0.227209
C      1.821864    1.445020    0.111432
C      0.448100    1.260083    0.246739
C     -0.337111    0.056369    0.090051
H     -0.098519   -2.066022   -0.323459
H      1.337943   -0.851845    1.259171
H      3.464988    0.148922   -0.738425
H      2.225764    2.347219   -0.245066
H     -0.208188    2.247121    0.067754
H     -1.412637    0.203768    0.178666
12

C      0.255293   -1.064891   -0.154218
C      1.700845   -1.080146    0.134521
C      2.529234    0.164791    0.012837
C      1.857024    1.377507   -0.090948
C      0.377414    1.291166   -0.034232
C     -0.385851    0.081499    0.133051
H     -0.213334   -1.934061   -0.565038
H      1.709746   -0.603259    1.248848
H      3.512356    0.058154   -0.400411
H      2.317933    2.321575   -0.333620
H     -0.234508    2.063391    0.305026
H     -1.571742    0.084214    0.315775
12

C      0.437262   -1.147398   -0.276910
C      1.627213   -0.842804    0.603622
C      2.367001    0.184451    0.047376
C      1.732265    1.484602   -0.028803
C      0.396959    1.470085   -0.095431
C     -0.326381    0.186929    0.066448
H      0.210945   -2.167975   -0.487033
H      1.704540   -1.296151    1.548912
H      2.909003    0.110503   -0.918726
H      2.395622    2.213179   -0.269555
H     -0.166783    2.421967    0.247177
H     -1.433235    0.142553    0.134514
12

C      0.400434   -1.116669   -0.232581
C      1.622220   -0.864430    0.603439
C      2.330919    0.147447    0.104002
C      1.775645    1.470179    0.080845
C      0.413148    1.495861   -0.034250
C     -0.253498    0.165833    0.041007
H      0.097959   -2.107346   -0.469450
H      1.895585   -1.470112    1.580907
H      2.777616    0.174203   -0.877063
H      2.321809    2.321331   -0.370823
H     -0.146641    2.398612    0.122667
H     -1.380784    0.145032    0.022889
12

C      0.498670   -0.939251   -0.058975
C      1.682774   -0.772236    0.816261
C      2.323388    0.086781   -0.146146
C      1.625464    1.333550   -0.143084
C      0.301499    1.462506   -0.051854
C     -0.399856    0.330609    0.083815
H      0.054097   -1.866634   -0.556275
H      2.243353   -1.616099    1.439015
H      3.012349   -0.182939   -0.816765
H      2.060302    2.291383    0.095778
H     -0.147714    2.528966   -0.160879
H     -1.399914    0.103304    0.070698
12

C      0.491508   -0.932686   -0.183463
C      1.700182   -0.962577    0.662110
C      2.301654    0.068379   -0.256729
C      1.599608    1.328140   -0.169233
C      0.274190    1.537323   -0.054606
C     -0.374442    0.264435    0.012697
H     -0.043013   -1.956324   -0.593345
H      2.037718   -1.276221    1.623634
H      3.310240   -0.001128   -0.719515
H      2.147195    2.192138   -0.057552
H     -0.097852    2.460792    0.112947
H     -1.492577    0.037668    0.194645
12

C      0.535446   -0.904431    0.041350
C      1.750027   -1.038581    0.788576
C      2.015242    0.117713   -0.031534
C      1.635204    1.565188   -0.063605
C      0.322454    1.657730   -0.002022
C     -0.368309    0.306638    0.123519
H      0.256147   -1.700020   -0.561446
H      2.100554   -1.953423    1.232023
H      2.973556    0.043847   -0.525976
H      2.465337    2.201669   -0.406503
H     -0.367287    2.428104   -0.217222
H     -1.463960    0.035505    0.194432
12

C      0.301397   -0.946182   -0.190220
C      1.604720   -0.615403    0.567746
C      2.515268    0.094032   -0.438491
C      1.732957    1.292000   -0.135929
C      0.348032    1.258553    0.214908
C     -0.409855    0.170903   -0.047122
H      0.134435   -1.929484   -0.466976
H      1.771857   -0.909594    1.527148
H      3.478187   -0.239913   -0.772676
H      2.077756    2.217477   -0.085901
H     -0.106942    2.238041    0.399640
H     -1.593400    0.129510   -0.000538
12

C      0.506381   -1.023838   -0.145028
C      1.797107   -1.019455    0.711649
C      2.306315    0.033877   -0.255252
C      1.614375    1.396338   -0.321234
C      0.313808    1.369035    0.177082
C     -0.462211    0.207632    0.002148
H      0.113890   -1.909947   -0.593852
H      1.854902   -1.040773    1.752786
H      3.267548   -0.025803   -0.852886
H      2.352706    2.246216   -0.267258
H     -0.273051    2.179562    0.530418
H     -1.537360    0.347096   -0.166983
12

C      0.564098   -0.988179   -0.155433
C      1.878026   -1.097510    0.645769
C      2.283479    0.036569   -0.190471
C      1.595717    1.406891   -0.287602
C      0.218713    1.405864    0.203493
C     -0.453630    0.260423   -0.049283
H      0.028953   -1.870816   -0.532543
H      2.015542   -1.238013    1.767364
H      3.162246    0.038369   -0.781208
H      2.276828    2.153868   -0.236100
H     -0.177953    2.482488    0.332890
H     -1.537608    0.169987   -0.145284
12

C      0.208935   -0.947146   -0.031145
C      1.720410   -0.774838    0.549246
C      2.422787   -0.079958   -0.576370
C      1.650233    1.230094   -0.313073
C      0.322090    1.211909    0.439673
C     -0.535800    0.093535    0.021422
H      0.091229   -1.791333   -0.643402
H      1.811162   -0.428359    1.544927
H      3.494960   -0.125764   -0.726359
H      2.219472    2.188284    0.055095
H      0.006069    2.163226    0.380974
H     -1.557136    0.020290   -0.129399
12

C      0.284522   -0.904125   -0.022780
C      1.674905   -0.797945    0.490889
C      2.444026   -0.009990   -0.581515
C      1.649888    1.203689   -0.198147
C      0.350716    1.248218    0.368305
C     -0.488403    0.156440    0.019369
H      0.060880   -1.810535   -0.597704
H      1.972986   -0.427565    1.529717
H      3.504758   -0.245225   -0.701040
H      2.184801    2.008701    0.032507
H     -0.211304    2.282999    0.466796
H     -1.573364    0.055278   -0.234807
12

C      0.360488   -0.959203   -0.002696
C      1.638252   -0.816943    0.446184
C      2.401638    0.032011   -0.526707
C      1.634392    1.171605   -0.118459
C      0.294617    1.283158    0.261615
C     -0.488193    0.157928    0.027051
H      0.017523   -1.862510   -0.444970
H      1.958086   -0.570576    1.509666
H      3.469861   -0.131435   -0.723755
H      2.291479    2.112460   -0.064092
H     -0.221756    2.162092    0.540922
H     -1.501975    0.181352   -0.333170
12

C      0.291170   -1.145235    0.144329
C      1.808586   -0.883321    0.362007
C      2.489470    0.118896   -0.580659
C      1.619702    1.208690   -0.035882
C      0.257237    1.184069    0.026372
C     -0.488212    0.071418    0.138881
H     -0.090852   -1.917448   -0.598112
H      1.922808   -0.821779    1.513096
H      3.576922    0.193506   -0.577448
H      2.231391    2.058755   -0.012834
H     -0.168232    2.265929    0.184380
H     -1.595579    0.426458    0.007460
12

C      0.220812   -1.073741    0.089894
C      1.725464   -0.931115    0.456522
C      2.399935    0.040504   -0.539231
C      1.644149    1.162333   -0.112746
C      0.326858    1.323996    0.117645
C     -0.530940    0.147398    0.073711
H      0.035203   -1.760819   -0.581956
H      2.099202   -0.564690    1.396043
H      3.455278    0.041634   -0.650070
H      2.146270    1.939593    0.248235
H     -0.102794    2.225543    0.077616
H     -1.565026    0.209304   -0.004072
12

C      0.311270   -1.056554   -0.126271
C      1.790749   -1.051087    0.130353
C      2.392851    0.177753   -0.241675
C      1.747053    1.414090   -0.083403
C      0.375453    1.279450    0.250510
C     -0.353377    0.118076   -0.014621
H     -0.097924   -2.068626   -0.173870
H      1.353187   -0.624376    1.108932
H      3.546699   -0.069686   -0.501546
H      2.333518    2.455758   -0.289977
H     -0.177441    2.124431    0.458479
H     -1.367628    0.060711    0.054680
12

C      0.324985   -1.151510   -0.094196
C      1.715168   -0.991423    0.224051
C      2.450265    0.171726   -0.301932
C      1.763549    1.311806   -0.058162
C      0.339800    1.355513    0.214934
C     -0.443932    0.086367    0.092958
H     -0.210019   -2.150969   -0.227680
H      1.657101   -1.054166    1.371380
H      3.653682    0.256059   -0.543026
H      2.218728    2.384848   -0.352762
H     -0.150178    2.296459    0.308966
H     -1.464740    0.245228   -0.062941
12

C      0.298990   -1.089132   -0.267552
C      1.391936   -0.589767    0.520518
C      2.408754    0.262318   -0.152037
C      1.761196    1.458432   -0.217386
C      0.354352    1.284967    0.154444
C     -0.335292    0.098747   -0.184837
H     -0.021710   -2.112629   -0.527260
H      1.823536   -0.974509    1.493443
H      3.345439   -0.272239   -0.520405
H      2.312220    2.375066   -0.514102
H     -0.189543    2.190806    0.803986
H     -1.295467    0.127880   -0.017221
12

C      0.493812   -0.839311    0.006227
C      1.731543   -0.752376    0.805575
C      2.513551    0.081666   -0.200990
C      1.677445    1.355132   -0.130121
C      0.274563    1.478963   -0.159355
C     -0.415165    0.338534   -0.216004
H      0.038867   -1.915203   -0.064607
H      2.074567   -1.778834    1.416286
H      2.969847   -0.050848   -1.164254
H      1.970687    2.223195    0.475372
H     -0.123903    2.574035   -0.183238
H     -1.351404    0.044985   -0.013302
12

C      0.468443   -1.037393   -0.341853
C      1.491729   -0.682538    0.556265
C      2.414759    0.261786   -0.073234
C      1.952645    1.500235   -0.174717
C      0.510136    1.350519    0.378221
C     -0.287414    0.113197   -0.178622
H     -0.103443   -2.007814   -0.222295
H      1.623177   -1.279026    1.476477
H      3.187158   -0.031148   -0.718704
H      2.250863    2.452277   -0.531352
H     -0.275486    1.949997    0.507478
H     -1.378157    0.169848   -0.106074
12

C      0.480372   -1.100794   -0.441298
C      1.575314   -0.822625    0.563360
C      2.397690    0.287121   -0.096659
C      1.867881    1.484141   -0.069036
C      0.525818    1.328116    0.514800
C     -0.297541    0.111318   -0.123689
H      0.011101   -1.985090   -0.203730
H      1.534822   -1.241548    1.526947
H      3.177603    0.013846   -0.771931
H      2.220090    2.338597   -0.649219
H     -0.205517    2.283156    0.492478
H     -1.433223    0.063701   -0.170433
12

C      0.497010   -1.268952   -0.224589
C      1.635457   -0.905398    0.610115
C      2.414491    0.180811    0.040058
C      1.833126    1.522145    0.162222
C      0.495259    1.374227    0.181442
C     -0.030403    0.167289   -0.140500
H     -0.261937   -2.030649   -0.281390
H      1.691004   -1.206803    1.558878
H      2.794028    0.125131   -1.079586
H      2.024140    2.463693   -0.300165
H      0.002296    2.274572    0.209396
H     -1.240060    0.063874   -0.164291
12

C      0.366292   -1.064451   -0.001217
C      1.728088   -0.933814    0.751772
C      2.287494    0.140050   -0.226783
C      1.628124    1.375649    0.002136
C      0.249747    1.412717    0.087706
C     -0.430271    0.227756    0.054975
H      0.183398   -2.011300   -0.729458
H      2.277273   -1.163236    1.753874
H      2.906945   -0.323846   -1.068953
H      2.270694    2.349989    0.062629
H     -0.194968    2.406345    0.083626
H     -1.418405    0.344079   -0.198717
12

C      0.429769   -1.034770   -0.400801
C      1.553326   -0.842560    0.394857
C      2.405551    0.245849   -0.178154
C      1.772089    1.444347   -0.021750
C      0.393895    1.440631    0.057767
C     -0.231206    0.118078   -0.052339
H     -0.134432   -2.053279   -0.328294
H      1.443941   -0.968496    1.548960
H      3.396057    0.033641   -0.843085
H      2.278010    2.228360   -0.230253
H     -0.220487    2.162537    0.332915
H     -1.232103   -0.014399    0.291765
12

C      0.493537   -0.996603    0.024846
C      1.723252   -0.881303    0.770141
C      2.253066    0.088397   -0.114602
C      1.676843    1.279262    0.040791
C      0.339596    1.353168    0.094940
C     -0.402239    0.216713    0.013856
H      0.375325   -1.735175   -0.564044
H      2.003445   -1.275715    1.619034
H      2.720970    0.064196   -1.027509
H      2.199631    2.055813   -0.207667
H     -0.030918    2.384199    0.167934
H     -1.498097    0.206988   -0.246131
12

C      0.430368   -1.120760   -0.287680
C      1.553704   -0.744203    0.498526
C      2.559194    0.176905   -0.116085
C      1.731446    1.389233    0.013435
C      0.451125    1.302537    0.192954
C     -0.246551    0.112940   -0.165323
H     -0.183743   -1.912958   -0.290932
H      1.640497   -0.944157    1.557905
H      3.176080   -0.017262   -0.826372
H      2.048165    2.313131   -0.447928
H     -0.012103    2.187689    0.638618
H     -1.293771    0.016843   -0.195529
12

C      0.480027   -1.100263   -0.336855
C      1.533896   -0.712860    0.437852
C      2.466751    0.182815   -0.084734
C      1.775499    1.495298    0.032914
C      0.477644    1.310032    0.234411
C     -0.228142    0.142580   -0.233669
H     -0.177979   -2.017356   -0.063760
H      1.499075   -1.071195    1.596770
H      3.178738   -0.024659   -1.014632
H      2.137632    2.445524   -0.390457
H     -0.006080    2.179340    0.640503
H     -1.282651   -0.069316   -0.246753
12

C      0.247419   -0.919104    0.124880
C      1.675630   -0.752688    0.552781
C      2.270865    0.071258   -0.525726
C      1.794723    1.369075   -0.201310
C      0.156659    1.383549    0.239048
C     -0.552149    0.123082   -0.038264
H      0.275791   -1.953260   -0.414092
H      2.174327   -0.911272    1.604992
H      3.327798   -0.251461   -0.999562
H      2.546343    2.034388    0.272864
H     -0.480585    2.253281    0.305261
H     -1.582411    0.313093   -0.349282
12

C      0.405109   -1.243894   -0.184884
C      1.561909   -0.871229    0.630809
C      2.315925    0.130768   -0.091069
C      1.696847    1.516493    0.076631
C      0.406697    1.474528    0.107325
C     -0.206519    0.162605   -0.056774
H     -0.275027   -2.065773   -0.619953
H      1.969805   -1.147996    1.784204
H      3.061424    0.101439   -1.014675
H      2.303928    2.338754   -0.241084
H     -0.138265    2.388051    0.190175
H     -1.247422   -0.023806   -0.009114
12

C      0.297058   -1.093030   -0.058486
C      1.800246   -1.191429    0.160375
C      2.476380    0.132124   -0.243266
C      1.802198    1.298125    0.042555
C      0.408344    1.214202    0.181756
C     -0.323781    0.103422   -0.011596
H     -0.265312   -1.899107   -0.062264
H      1.564856   -0.724866    1.121989
H      3.517481    0.421293   -0.500212
H      2.292936    2.213014   -0.292558
H     -0.252678    2.126471    0.261341
H     -1.463317    0.159720   -0.028044
12

C      0.360888   -1.128148    0.122173
C      1.729106   -0.941119    0.629424
C      2.445989    0.212026    0.206100
C      1.912519    1.475242    0.035446
C      0.479684    1.539532   -0.084485
C     -0.266435    0.118999   -0.103139
H     -0.203305   -1.913291   -0.321663
H      2.306979   -1.492009    1.332032
H      2.327971    0.009043   -0.866576
H      2.460149    2.510922   -0.056126
H     -0.430143    2.281823    0.023150
H     -1.268991    0.086921   -0.344747
12

C      0.351241   -1.133456   -0.095797
C      1.717514   -1.230983    0.302601
C      2.383819    0.129532   -0.235097
C      1.802373    1.305096   -0.103079
C      0.353287    1.186560    0.132857
C     -0.400380   -0.019299    0.156156
H     -0.178996   -1.862872   -0.571650
H      1.730211   -0.672655    1.342138
H      3.517207    0.185053   -0.432892
H      2.152152    2.308095   -0.321629
H     -0.235336    2.163189    0.222056
H     -1.338681    0.401680    0.175925
12

C      0.392013   -1.070663   -0.106930
C      1.717446   -1.185995    0.309449
C      2.444063    0.170113   -0.182788
C      1.815665    1.339551   -0.150743
C      0.380965    1.289609    0.124484
C     -0.423406   -0.002389    0.203455
H     -0.257802   -1.893830   -0.578384
H      1.724230   -0.649599    1.228426
H      3.483660    0.244767   -0.291259
H      2.294130    2.240322   -0.430093
H     -0.174755    2.088082    0.304970
H     -1.541797    0.189971    0.141003
12

C      0.192009   -0.990893    0.376614
C      1.568067   -0.997350    0.688441
C      2.360931    0.038822   -0.040614
C      1.652858    1.203678   -0.231526
C      0.248371    1.272052    0.122106
C     -0.580965    0.205380    0.112141
H      0.547680   -1.265099   -0.796805
H      2.157378   -1.524911    1.469126
H      3.225953    0.310427   -0.614540
H      2.152936    2.025575   -0.545218
H      0.015964    2.272316    0.122273
H     -1.686771    0.209941   -0.090407
12

C      0.306807   -1.198512   -0.401750
C      1.505566   -0.898837    0.380883
C      2.401206    0.238409   -0.002339
C      1.703833    1.375249   -0.096725
C      0.430338    1.372313    0.049261
C     -0.244298    0.019268   -0.143295
H     -0.246797   -2.163558   -0.378472
H      1.583781   -0.945421    1.497289
H      3.258295    0.368378   -0.680859
H      2.383389    2.271180   -0.304919
H     -0.117979    2.272474    0.274282
H     -1.109729    0.048998    0.378234
12

C      0.317049   -1.145462   -0.042930
C      1.858754   -1.080161    0.097920
C      2.444746    0.175740   -0.259174
C      1.813456    1.372186    0.008164
C      0.373549    1.267367    0.103503
C     -0.324437    0.017317    0.212554
H     -0.250209   -2.012908   -0.254267
H      1.498113   -0.796783    1.206133
H      3.499360    0.333197   -0.564672
H      2.300020    2.263657   -0.106695
H     -0.202261    2.121108    0.016537
H     -1.473728    0.244681    0.154518
12

C      0.318166   -1.083091   -0.054658
C      1.687724   -1.183629    0.298714
C      2.486595    0.126146   -0.214624
C      1.780090    1.266368   -0.150886
C      0.380348    1.258744    0.211246
C     -0.455964    0.126443    0.021698
H     -0.116524   -2.053222   -0.406239
H      1.737104   -0.489813    1.163841
H      3.527912    0.009993   -0.452026
H      2.129391    2.338641   -0.276800
H     -0.095130    2.275789    0.485033
H     -1.525303    0.167570   -0.053710
12

C      0.492228   -0.877532    0.200671
C      1.660825   -0.919441    1.004082
C      2.177702    0.147063    0.063300
C      1.630008    1.499131    0.051317
C      0.278450    1.509140   -0.007154
C     -0.432739    0.308754    0.002803
H      0.387752   -1.811430   -0.358155
H      2.212137   -1.920254    0.963844
H      2.653204   -0.107402   -0.860794
H      2.346978    2.356699   -0.124475
H     -0.079501    2.540820   -0.269110
H     -1.472635    0.034392   -0.094740
12

C      0.476635   -0.857609   -0.020513
C      1.687574   -0.748829    0.832366
C      2.359693   -0.024844   -0.098093
C      1.751488    1.382719   -0.094311
C      0.291911    1.422743    0.168571
C     -0.363041    0.263857   -0.086553
H      0.385097   -1.641000   -0.803897
H      2.058273   -1.334991    1.629741
H      3.039591   -0.488836   -0.748712
H      1.989756    2.257856   -0.582429
H     -0.302522    2.238633    0.567244
H     -1.520044    0.290241   -0.191825
12

C      0.469997   -1.056100   -0.123390
C      1.812460   -0.985646    0.767229
C      2.205829    0.151217   -0.175025
C      1.768626    1.487781    0.210293
C      0.333650    1.484623    0.189856
C     -0.259806    0.271627   -0.108794
H      0.057766   -1.908956   -0.586870
H      2.014272   -1.287809    1.735937
H      2.794156   -0.159243   -0.973064
H      2.311884    2.259282   -0.399039
H     -0.368479    2.321627    0.262582
H     -1.285943    0.181536   -0.228125
12

C      0.380577   -1.109046   -0.503784
C      1.631994   -0.853584    0.464923
C      2.601349    0.272701    0.084364
C      1.791448    1.454302   -0.057186
C      0.380164    1.305560    0.205102
C     -0.254644    0.040681   -0.008085
H     -0.294777   -1.906971   -0.357747
H      1.631899   -1.160546    1.446138
H      3.281742   -0.004524   -0.634794
H      2.146172    2.428519   -0.546919
H     -0.164872    2.276827    0.320933
H     -1.276642    0.016020    0.158645
12

C      0.369436   -1.113140   -0.298248
C      1.554559   -0.889722    0.372822
C      2.295457    0.190999   -0.226385
C      1.667190    1.454821   -0.237152
C      0.352702    1.447906   -0.012660
C     -0.243906    0.043624    0.135529
H     -0.109184   -1.957806   -0.681367
H      1.584974   -1.203126    1.357628
H      3.328672    0.045911   -0.347872
H      2.347039    2.386834   -0.113473
H     -0.238367    2.382210   -0.184331
H     -1.054162   -0.028572    0.807097
12

C      0.427074   -0.930646   -0.167353
C      1.588573   -0.997935    0.610184
C      2.312802   -0.066909   -0.209704
C      1.612404    1.320799   -0.207584
C      0.280869    1.472879    0.081868
C     -0.370981    0.278999   -0.068977
H      0.451706   -1.898880   -0.703355
H      1.813603   -1.203074    1.699083
H      3.223855   -0.225988   -0.741586
H      2.118299    2.311745   -0.295853
H     -0.219236    2.535460    0.348087
H     -1.384556    0.163490    0.226780
12

C      0.523778   -0.874663    0.155999
C      1.755467   -1.047760    0.982908
C      2.259450    0.103861    0.031617
C      1.614133    1.479871   -0.083304
C      0.264497    1.566466    0.091613
C     -0.343237    0.325147    0.098589
H      0.235260   -1.474882   -0.575698
H      2.176312   -1.984149    1.464734
H      2.851829   -0.147477   -0.828858
H      2.155305    2.262014   -0.576846
H     -0.371010    2.415647    0.173912
H     -1.267374    0.135866   -0.363076
12

C      0.529972   -0.935112    0.161195
C      1.766103   -1.087586    0.970137
C      2.194596    0.056776   -0.112708
C      1.590307    1.456260   -0.067779
C      0.248301    1.588400    0.152799
C     -0.359371    0.345984    0.163635
H      0.177577   -1.552234   -0.530629
H      2.204431   -1.938706    1.443797
H      2.990259   -0.027906   -0.796138
H      2.201391    2.218478   -0.517292
H     -0.415816    2.437589    0.098062
H     -1.273338    0.197997   -0.393489
12

C      0.439759   -0.943958    0.127096
C      1.709099   -1.157281    0.782863
C      2.338007    0.012460   -0.107608
C      1.632094    1.397997   -0.186092
C      0.234080    1.546326   -0.013268
C     -0.353892    0.309512    0.120771
H      0.271889   -1.649465   -0.755715
H      2.105664   -1.670357    1.678798
H      3.152655   -0.122234   -0.886692
H      2.106316    2.334320   -0.240440
H     -0.344960    2.465845    0.023121
H     -1.436301    0.236773    0.028757
12

C      0.431017   -0.935992    0.072652
C      1.733368   -1.133699    0.674946
C      2.318025    0.015746   -0.148627
C      1.635852    1.390631   -0.192117
C      0.194485    1.541446   -0.032710
C     -0.347068    0.302524    0.054623
H      0.275676   -1.621197   -0.621498
H      2.106400   -1.531500    1.623485
H      3.071846   -0.237366   -0.859300
H      2.111594    2.326391   -0.051455
H     -0.351783    2.402406    0.009628
H     -1.325001    0.240550    0.041962
12

C      0.494623   -0.975877   -0.034620
C      1.811721   -1.032235    0.728587
C      2.205630    0.070857   -0.162531
C      1.744772    1.436377    0.115986
C      0.302556    1.502756    0.144998
C     -0.219214    0.259149   -0.100660
H      0.051300   -1.857918   -0.520392
H      1.999796   -1.436808    1.725461
H      2.925874   -0.032538   -0.988039
H      2.182878    2.259818   -0.326392
H     -0.323236    2.332911    0.168335
H     -1.322291    0.233449   -0.179143
12

C      0.373993   -1.139844   -0.011752
C      1.722950   -1.001712    0.716024
C      2.364833    0.155920    0.143536
C      1.875367    1.440084    0.106329
C      0.456165    1.483376    0.078931
C     -0.136967    0.219839   -0.085553
H     -0.104063   -2.094454   -0.410375
H      2.277996   -1.365099    1.539322
H      2.366356    0.217177   -0.945882
H      2.450949    2.278711   -0.266138
H     -0.499288    2.153396    0.129376
H     -1.293881    0.412545   -0.422228
12

C      0.433272   -1.022186   -0.310256
C      1.561077   -0.873832    0.693794
C      2.500157    0.086842   -0.107568
C      1.730445    1.366036   -0.112546
C      0.425423    1.322089    0.337566
C     -0.253791    0.222347   -0.038966
H     -0.049731   -1.778308   -0.783383
H      1.734471   -0.902748    1.787828
H      3.169170   -0.214146   -0.913810
H      2.140603    2.396370   -0.440725
H     -0.319549    1.974533    0.374460
H     -1.217135    0.182941    0.085197
12

C      0.471365   -1.118975    0.029794
C      1.777018   -0.944929    0.591399
C      2.523592    0.287443    0.238032
C      1.668683    1.602149   -0.006223
C      0.412134    1.554762   -0.112577
C     -0.275877    0.097386   -0.088679
H      0.004809   -2.142688   -0.184106
H      1.988810   -1.746780    1.183440
H      2.411197   -0.122087   -0.913823
H      2.286565    2.590262    0.056111
H     -0.136723    2.521194   -0.152070
H     -1.277164    0.182203   -0.069708
12

C      0.365933   -0.869310   -0.216658
C      1.641391   -0.884275    0.836223
C      2.259721    0.038906   -0.272417
C      1.691080    1.375562   -0.134292
C      0.327555    1.588787    0.125154
C     -0.298678    0.387987   -0.064997
H     -0.005277   -1.891653   -0.654327
H      2.072837   -1.352771    1.812231
H      3.236464   -0.117414   -0.857376
H      2.184361    2.190664   -0.281563
H     -0.341164    2.347310    0.315362
H     -1.279813   -0.053852   -0.035751
12

C      0.556294   -1.175626   -0.193384
C      1.706970   -0.885767    0.560891
C      2.549353    0.226611   -0.044720
C      1.802161    1.501041    0.059650
C      0.352395    1.478120    0.069728
C     -0.230163    0.176414   -0.073561
H     -0.106666   -2.028740   -0.458156
H      1.644162   -1.145505    1.656295
H      2.853459   -0.190361   -1.100262
H      2.297114    2.435807   -0.166165
H     -0.254458    2.400666    0.283439
H     -1.316210   -0.032719   -0.022167
12

C      0.390641   -1.100653   -0.018475
C      1.763585   -1.248069    0.209912
C      2.502416    0.236646   -0.236681
C      1.760756    1.378582    0.123047
C      0.413677    1.242936    0.206317
C     -0.373060    0.139220    0.304442
H     -0.262689   -2.058383   -0.307060
H      1.615268   -0.886032    1.430317
H      3.448809    0.327945   -0.713661
H      2.195025    2.273429   -0.419037
H     -0.154247    2.231296    0.247967
H     -1.445770    0.223024   -0.255497
12

C      0.355026   -1.101437   -0.066810
C      1.736132   -1.287271    0.236290
C      2.470734    0.175471   -0.212601
C      1.731342    1.404806    0.123045
C      0.292230    1.273114    0.211915
C     -0.353853    0.091041    0.147042
H     -0.151031   -2.030732   -0.111741
H      1.562558   -0.829722    1.175113
H      3.429873    0.307960   -0.700657
H      2.181000    2.252195   -0.267289
H     -0.121352    2.195173    0.145017
H     -1.278250    0.309342   -0.107734
12

C      0.332413   -1.156257   -0.023211
C      1.909363   -1.032303    0.199830
C      2.394195    0.123879   -0.207237
C      1.752982    1.395690   -0.077680
C      0.439811    1.409314    0.048132
C     -0.330825    0.138302   -0.206657
H     -0.328803   -1.934864   -0.081214
H      1.669959   -0.558634    1.172181
H      3.344788    0.029033   -0.748755
H      2.391008    2.235261    0.191603
H     -0.264327    2.250396    0.314330
H     -1.456153   -0.139876   -0.009731
12

C      0.481732   -0.898474    0.167118
C      1.793857   -0.968302    0.878383
C      2.247730    0.075866    0.075639
C      1.617694    1.523676    0.000563
C      0.202056    1.545143    0.060729
C     -0.457889    0.352405    0.185948
H      0.174850   -1.403040   -0.814070
H      2.436147   -1.723117    1.256506
H      2.811166   -0.414670   -0.639794
H      2.378302    2.360227   -0.353743
H     -0.374832    2.315574   -0.188230
H     -1.456403   -0.005349   -0.057458
12

C      0.315748   -1.132921    0.023003
C      1.826183   -1.163591    0.212513
C      2.363402    0.138215   -0.256056
C      1.787144    1.400748   -0.032579
C      0.382065    1.216050    0.158458
C     -0.381617    0.035398    0.212617
H     -0.100945   -1.981235   -0.246631
H      1.639578   -0.744020    1.385335
H      3.261525    0.189561   -0.760317
H      2.165278    2.336359   -0.103605
H     -0.018974    2.211022    0.265378
H     -1.384976    0.254354   -0.286526
12

C      0.449063   -0.944725    0.223388
C      1.825779   -0.992464    0.953495
C      2.213327    0.086663   -0.030052
C      1.649134    1.409619   -0.027234
C      0.135237    1.601780    0.042854
C     -0.458775    0.331956    0.266032
H      0.204104   -1.689569   -0.497531
H      2.365065   -1.778998    1.172189
H      2.793062   -0.132312   -0.906364
H      2.247943    2.247065   -0.033114
H     -0.217525    2.481921   -0.275631
H     -1.352004    0.139006   -0.316444
12

C      0.431043   -1.087622   -0.035738
C      1.712713   -1.002275    0.719282
C      2.236724    0.183759   -0.133873
C      1.594534    1.437233   -0.121490
C      0.237976    1.580375    0.020838
C     -0.356863    0.206318   -0.082665
H      0.268601   -2.025569   -0.690170
H      2.077950   -1.462390    1.739669
H      2.831338   -0.177988   -0.932031
H      2.380993    2.347031   -0.060977
H     -0.131103    2.696780    0.080249
H     -1.429497    0.064287    0.068497
12

C      0.464520   -1.010211    0.132113
C      1.742559   -0.977871    0.882942
C      2.208437    0.029907   -0.156419
C      1.543279    1.324552   -0.180426
C      0.170188    1.567732   -0.148582
C     -0.367153    0.340005    0.040260
H      0.153987   -1.877001   -0.544337
H      2.422085   -1.783667    1.423765
H      3.098053   -0.110020   -0.813346
H      2.111151    2.317136    0.081526
H     -0.232830    2.583667   -0.114611
H     -1.459867    0.355711   -0.031294
12

C      0.440075   -1.100999    0.015951
C      1.800042   -0.845996    0.902992
C      2.424688    0.186135    0.060550
C      1.649296    1.414949    0.102152
C      0.246304    1.476413   -0.091567
C     -0.257041    0.209137   -0.027469
H      0.089572   -1.768349   -0.741478
H      2.112283   -1.511656    1.559844
H      2.639287   -0.159615   -0.985598
H      2.167278    2.241679   -0.252443
H     -0.175340    2.430467    0.079683
H     -1.282035    0.187774   -0.051028
12

C      0.427971   -1.070463    0.023465
C      1.813656   -1.003176    0.747290
C      2.360893    0.141197   -0.034482
C      1.665385    1.452118    0.080392
C      0.313561    1.542307    0.054825
C     -0.554365    0.335734    0.148683
H      0.418739   -1.922013   -0.612188
H      2.209851   -1.628904    1.571676
H      2.720374   -0.180676   -1.008805
H      2.312478    2.314389   -0.097688
H     -0.275526    2.389240   -0.192356
H     -1.558608    0.390185   -0.109223
12

C      0.363445   -1.067835   -0.126122
C      1.811262   -0.899015    0.616487
C      2.349796    0.000484   -0.435913
C      1.657859    1.300291   -0.040442
C      0.306230    1.325323    0.166023
C     -0.397368    0.217455    0.120381
H     -0.013716   -1.888742   -0.764480
H      1.992861   -1.098824    1.672385
H      3.321338    0.100160   -0.659169
H      2.237369    2.230901   -0.108146
H     -0.235382    2.179056   -0.101194
H     -1.539283    0.360684    0.231779
12

C      0.304465   -1.176610   -0.002337
C      1.788898   -1.135356    0.139864
C      2.479142    0.194128   -0.213620
C      1.872690    1.461670    0.021974
C      0.362231    1.235194    0.201139
C     -0.380079    0.041499    0.137779
H     -0.260573   -2.117120   -0.432778
H      1.553922   -0.730200    1.200825
H      3.403811    0.186925   -0.505712
H      2.282061    2.450734   -0.197381
H     -0.088711    2.203609    0.017084
H     -1.463447    0.145466    0.204751
12

C      0.353923   -1.150447    0.026723
C      1.801457   -1.121805    0.193714
C      2.501459    0.204855   -0.254243
C      1.829545    1.472637   -0.000744
C      0.452250    1.310619    0.131205
C     -0.383940    0.018393    0.149120
H     -0.285908   -2.168902   -0.222477
H      1.413606   -0.890330    1.274032
H      3.487258    0.134621   -0.805960
H      2.220233    2.590126   -0.051187
H     -0.143408    2.168401    0.095565
H     -1.392065    0.191771    0.035844
12

C      0.319921   -1.089992   -0.072473
C      1.782266   -1.085002    0.116264
C      2.452677    0.088246   -0.163805
C      1.712773    1.306834   -0.117771
C      0.312817    1.227155    0.115758
C     -0.374835    0.074516    0.083495
H     -0.127206   -1.966414   -0.042938
H      1.575410   -0.637775    1.081442
H      3.563236    0.206185   -0.563411
H      2.177351    2.221198   -0.148650
H     -0.032735    2.272451    0.417057
H     -1.507264    0.142538   -0.133380
12

C      0.322416   -1.038414   -0.156219
C      1.800045   -1.109017    0.068730
C      2.513088    0.128458   -0.151283
C      1.762530    1.289721   -0.011706
C      0.312514    1.293012    0.184838
C     -0.383143    0.108595   -0.062033
H     -0.272221   -2.071544   -0.281453
H      1.640358   -0.560957    1.365049
H      3.433803    0.129350   -0.574685
H      2.264510    2.312180   -0.207976
H     -0.120495    2.201298    0.330603
H     -1.418996    0.077257    0.067723
12

C      0.311121   -1.065046   -0.109815
C      1.752966   -1.053425    0.231560
C      2.539412    0.188933   -0.157655
C      1.786109    1.333018    0.036157
C      0.364984    1.386301    0.193243
C     -0.405846    0.173003   -0.118720
H     -0.218893   -1.850977   -0.304563
H      1.747660   -0.971038    1.328030
H      3.593257    0.134429   -0.599236
H      2.222549    2.157856   -0.270218
H     -0.344558    2.288557    0.126067
H     -1.494350    0.038328    0.216741
12

C      0.266525   -1.116953   -0.057326
C      1.737776   -1.275538    0.259803
C      2.496783    0.140495   -0.214093
C      1.788276    1.340092   -0.281458
C      0.412367    1.323779    0.144446
C     -0.429688    0.053246    0.088805
H     -0.259049   -1.878626   -0.724550
H      1.727637   -0.656734    1.436915
H      3.560177    0.176605   -0.266372
H      2.220468    2.332165   -0.420570
H     -0.256894    2.153063    0.361595
H     -1.409967    0.168347    0.244394
12

C      0.238488   -1.169097   -0.047094
C      1.773194   -1.248877    0.266244
C      2.489896    0.093188   -0.238612
C      1.859758    1.324591   -0.234369
C      0.411507    1.281776    0.273045
C     -0.349258    0.044534    0.194418
H     -0.266566   -1.714096   -0.731099
H      1.744289   -0.524444    1.147613
H      3.570158    0.116591   -0.094079
H      2.163385    2.320777   -0.427553
H     -0.232483    2.172630    0.204108
H     -1.547957    0.062368    0.258966
12

C      0.348115   -1.050982   -0.222086
C      1.766979   -1.038504    0.087846
C      2.500592    0.158262   -0.030200
C      1.848143    1.265622   -0.153537
C      0.359947    1.267416   -0.061856
C     -0.368703    0.101795    0.155712
H      0.024780   -1.965025   -0.558231
H      1.321586   -0.826532    1.335900
H      3.503407    0.215763   -0.406423
H      2.167820    2.264948   -0.371815
H     -0.157029    2.178402    0.201644
H     -1.461226    0.188776    0.594635
12

C      0.509586   -0.968618    0.010403
C      1.726429   -0.887467    0.531213
C      2.518156    0.142439    0.200624
C      1.856402    1.560687    0.199034
C      0.368481    1.508497    0.076890
C     -0.261792    0.152167   -0.041639
H      0.016483   -1.965169   -0.245864
H      1.822076   -1.575573    1.289414
H      2.408614   -0.033573   -0.934362
H      2.430358    2.532897   -0.319846
H     -0.217312    2.437907    0.010389
H     -1.323072   -0.144253   -0.204667
12

C      0.473434   -0.985215   -0.058984
C      1.707713   -0.955430    0.570220
C      2.490763    0.093399    0.099889
C      1.795990    1.513453    0.210641
C      0.368089    1.512017    0.035036
C     -0.271291    0.222986   -0.156553
H     -0.086681   -1.826496   -0.177422
H      2.135011   -1.434008    1.542418
H      2.374273    0.179376   -1.008131
H      2.391494    2.151289   -0.186808
H     -0.274744    2.360325    0.092640
H     -1.249643   -0.071756   -0.391355
12

C      0.478338   -0.804746    0.088899
C      1.752202   -1.021513    0.933640
C      2.258309    0.086417    0.004261
C      1.737748    1.495803    0.166644
C      0.164713    1.521252   -0.147385
C     -0.287916    0.312658    0.009576
H      0.052259   -1.764621   -0.285896
H      2.152962   -2.025933    1.119092
H      2.881770   -0.030530   -0.891419
H      2.117977    2.490064   -0.099500
H     -0.099678    2.519905   -0.379318
H     -1.354273   -0.018816    0.052997
12

C      0.313903   -1.163929   -0.111589
C      1.584297   -0.844209    0.620377
C      2.244974    0.120915   -0.180760
C      1.721970    1.383974   -0.287908
C      0.380522    1.505246   -0.307855
C     -0.321789    0.144241    0.329539
H      0.058437   -1.841372   -0.906456
H      1.988246   -1.330295    1.544882
H      3.328711   -0.042273   -0.551349
H      2.362840    2.425287   -0.057939
H     -0.310982    2.224557   -0.017794
H     -1.496719    0.177798    0.498442
12

C      0.488759   -1.105213   -0.208705
C      1.706158   -0.969951    0.653986
C      2.241106    0.153407   -0.196140
C      1.728918    1.414379   -0.003460
C      0.325495    1.367101    0.264362
C     -0.144189    0.120119    0.038730
H      0.044404   -1.730444   -0.860736
H      1.706280   -1.010156    1.844784
H      3.043079   -0.229421   -0.951767
H      2.195537    2.345864   -0.348131
H     -0.288770    2.213389    0.189962
H     -1.192367    0.190863    0.148705
12

C      0.574884   -1.139957   -0.267143
C      1.785434   -0.939586    0.688087
C      2.449569    0.202058   -0.062615
C      1.744244    1.501556   -0.087305
C      0.358701    1.386336    0.042474
C     -0.168247    0.156746    0.198692
H     -0.022585   -1.856535   -0.906648
H      1.393182   -0.965406    1.765249
H      3.057623   -0.253469   -1.002359
H      2.213738    2.401933   -0.396223
H     -0.303457    2.067680    0.364092
H     -1.228676    0.198583    0.235289
12

C      0.386491   -1.019956   -0.300303
C      1.553053   -1.012597    0.554983
C      2.457256    0.112301    0.076596
C      1.764951    1.468722   -0.164897
C      0.387039    1.444447   -0.025918
C     -0.419955    0.199025    0.158586
H      0.247868   -2.114253   -0.819665
H      1.497499   -0.995204    1.574224
H      3.064246    0.037287   -0.792400
H      2.313980    2.321153   -0.372811
H     -0.018767    2.467456    0.235525
H     -1.379251   -0.148440    0.447670
12

C      0.520575   -1.047430   -0.191224
C      1.719198   -0.999855    0.629070
C      2.450328    0.128101   -0.057851
C      1.783982    1.496425   -0.051970
C      0.298706    1.574067   -0.055702
C     -0.168119    0.283086   -0.110369
H      0.123886   -2.067657   -0.458126
H      1.874048   -1.284709    1.630467
H      2.628550   -0.351111   -1.056272
H      2.403933    2.494089    0.102305
H     -0.513597    2.381574    0.095919
H     -1.267080    0.153359    0.095344
12

C      0.517630   -1.052524   -0.191238
C      1.658469   -1.013718    0.593268
C      2.368445    0.098313   -0.094547
C      1.899538    1.479255   -0.045250
C      0.380759    1.601406   -0.013544
C     -0.087769    0.286535   -0.101097
H      0.021965   -2.039549   -0.283678
H      1.865467   -1.181155    1.612927
H      2.580553   -0.280634   -1.101745
H      2.385999    2.546153    0.134474
H     -0.512018    2.248120    0.192586
H     -1.224628    0.067737   -0.130565
12

C      0.325965   -1.184454   -0.240735
C      1.571809   -0.749276    0.524557
C      2.467251    0.303227    0.005977
C      1.693781    1.457203   -0.084034
C      0.297943    1.398204    0.274750
C     -0.324253    0.062557    0.037571
H      0.001549   -2.114869   -0.867523
H      1.722608   -1.090152    1.645390
H      3.155246    0.140533   -0.778910
H      2.372993    2.055782   -0.382924
H     -0.126567    2.306848    0.026058
H     -1.303914    0.174337    0.411413
12

C      0.404688   -1.251552   -0.305718
C      1.555505   -0.845452    0.495717
C      2.532228    0.275431    0.056996
C      1.771863    1.417783   -0.053482
C      0.306219    1.291399    0.350506
C     -0.303075    0.004349    0.039417
H     -0.099722   -2.107773   -0.550740
H      1.632869   -0.982795    1.484269
H      3.143152    0.071738   -0.868494
H      2.494970    2.432845   -0.401409
H     -0.177345    2.334371    0.175944
H     -1.406941    0.119596    0.148585
12

C      0.350507   -1.009747    0.182132
C      1.686934   -0.756782    0.601240
C      2.312571   -0.065685   -0.340754
C      1.668121    1.207623   -0.072151
C      0.317008    1.290370    0.096920
C     -0.551365    0.185871    0.408406
H      0.067221   -1.460161   -0.736203
H      2.069762   -1.126892    1.472973
H      3.407850    0.073206   -0.745570
H      2.278522    2.097105   -0.181673
H     -0.353253    2.139365    0.043539
H     -1.399467    0.185666   -0.157270
12

C      0.353226   -1.059304    0.176954
C      1.827371   -0.901248    0.702464
C      2.536956    0.202591    0.180713
C      1.757867    1.500925    0.043205
C      0.452675    1.435343    0.044792
C     -0.219161    0.242836   -0.198810
H      0.030405   -2.059748   -0.073439
H      2.140151   -1.781194    1.245779
H      2.176641    0.129090   -0.989032
H      2.251782    2.374758   -0.018855
H     -0.199277    2.515453   -0.060519
H     -1.254225    0.160439   -0.481662
12

C      0.363924   -0.987195    0.146694
C      1.655282   -0.781876    0.663796
C      2.237951    0.002790   -0.286755
C      1.615631    1.226127   -0.125754
C      0.278177    1.302252    0.156211
C     -0.595763    0.302195    0.285156
H      0.595192   -1.573670   -0.813438
H      2.087724   -1.300371    1.531009
H      3.161454   -0.206954   -0.598995
H      2.069878    2.181707   -0.445371
H      0.045698    2.392199    0.314894
H     -1.660736    0.202736   -0.255858
12

C      0.408323   -1.082928    0.111466
C      1.879463   -0.948495    0.699634
C      2.201578    0.138148   -0.289036
C      1.635922    1.453698   -0.048785
C      0.239992    1.387354    0.216887
C     -0.349526    0.249594    0.108967
H      0.207713   -1.780410   -0.654226
H      2.077187   -1.189222    1.627801
H      2.932106   -0.244262   -0.960986
H      2.436588    2.308983   -0.062288
H     -0.159682    2.346994    0.114351
H     -1.655255    0.120485   -0.292195
12

C      0.554200   -1.189414   -0.396775
C      1.653604   -0.906667    0.523479
C      2.487229    0.217060    0.008890
C      1.894784    1.368984   -0.168403
C      0.466893    1.380886    0.538391
C     -0.162477    0.119002   -0.120175
H     -0.071451   -1.991647   -0.549431
H      1.492094   -0.871052    1.570127
H      3.104667   -0.107029   -0.713607
H      2.048477    2.328330   -0.655988
H     -0.226077    2.245836    0.554485
H     -1.387533    0.165650   -0.019404
12

C      0.451367   -1.160593   -0.052092
C      1.695652   -1.038308    0.768654
C      2.412895   -0.065119   -0.202229
C      1.699631    1.352809   -0.268810
C      0.434554    1.351267    0.361106
C     -0.291239    0.143463    0.031982
H      0.372118   -1.655840   -0.908672
H      1.546287   -0.570523    1.668745
H      3.052525   -0.336560   -0.954178
H      2.156087    2.415056   -0.390582
H     -0.185677    2.128304    0.647013
H     -1.489789    0.195985   -0.129348
12

C      0.410154   -1.048182   -0.014982
C      1.622376   -0.927421    0.719381
C      2.296679   -0.056754   -0.133970
C      1.617609    1.381852   -0.330928
C      0.427593    1.367097    0.174202
C     -0.298566    0.176130    0.117644
H      0.742399   -1.588242   -1.100655
H      1.507104   -0.901565    1.894547
H      2.902274   -0.399433   -0.995536
H      2.086359    2.256453   -0.398534
H     -0.172176    2.295134    0.575145
H     -1.287394    0.204871    0.065277
12

C      0.415327   -1.034685   -0.437080
C      1.565902   -0.823822    0.487479
C      2.291552    0.271327   -0.101488
C      1.774072    1.504445   -0.295212
C      0.549184    1.416515    0.484518
C     -0.239786    0.157800    0.003766
H      0.025733   -2.153149   -0.674346
H      1.351059   -1.093787    1.640931
H      3.315609   -0.072431   -0.561904
H      2.225689    2.313346   -0.709788
H     -0.223960    2.319215    0.487090
H     -1.195970   -0.044834    0.247624
12

C      0.505909   -1.021327   -0.120491
C      1.631716   -0.811025    0.825151
C      2.335779    0.209905    0.021266
C      1.751205    1.407753   -0.058708
C      0.331321    1.392306    0.096217
C     -0.355934    0.062469    0.333858
H      0.364443   -1.462178   -1.294886
H      1.909712   -1.310430    1.778755
H      2.779572   -0.255702   -0.824555
H      2.289278    2.105100   -0.475468
H     -0.241897    2.451839   -0.053394
H     -1.446693   -0.008769    0.343844
12

C      0.352883   -1.017170    0.219479
C      1.716646   -0.942025    0.688317
C      2.512500    0.111733    0.168945
C      1.784821    1.543825    0.136981
C      0.357348    1.365068    0.125976
C     -0.285923    0.174887   -0.244927
H      0.116413   -2.081827    0.046811
H      2.240190   -1.823186    1.050814
H      2.056385    0.247246   -0.735999
H      2.266185    2.537778   -0.240897
H      0.028365    2.305604   -0.038473
H     -1.291404    0.338005   -0.605437
12

C      0.358544   -1.088614   -0.441319
C      1.656425   -0.909103    0.500263
C      2.421557    0.215245   -0.154951
C      1.750879    1.516478   -0.014752
C      0.385877    1.448915    0.092451
C     -0.253729    0.174262    0.163715
H     -0.101530   -1.992949   -0.342873
H      1.535232   -1.417285    1.460085
H      3.323319    0.157508   -0.752774
H      2.254280    2.400016   -0.196568
H     -0.111256    2.357335   -0.170938
H     -1.365185   -0.101867    0.429250
12

C      0.332232   -1.136495   -0.136710
C      1.483743   -0.654317    0.775462
C      2.436581    0.218752   -0.062119
C      1.683015    1.468784   -0.208435
C      0.344104    1.396325    0.057905
C     -0.428020    0.129991    0.103245
H      0.262542   -1.901753   -0.861219
H      1.740152   -1.248473    1.552787
H      3.234987   -0.296721   -0.820921
H      2.259752    2.427567   -0.403658
H     -0.031752    2.339608    0.392485
H     -1.462924    0.016671    0.182769
12

C      0.294279   -1.146864   -0.228254
C      1.441363   -0.759918    0.739371
C      2.426731    0.290347   -0.001014
C      1.852739    1.520098   -0.015541
C      0.511702    1.356474    0.301834
C     -0.341635    0.149663    0.197620
H      0.364883   -1.937727   -0.972592
H      1.751608   -1.361831    1.640787
H      3.080291   -0.227233   -0.689644
H      2.046232    2.390389   -0.813618
H     -0.085646    2.248903    0.299626
H     -1.488138    0.237639    0.113014
12

C      0.492570   -0.937624   -0.191937
C      1.686870   -1.210766    0.573224
C      2.322354    0.198039   -0.012997
C      1.647443    1.546474   -0.058470
C      0.302281    1.578288    0.051081
C     -0.323377    0.236550    0.174538
H      0.018100   -1.780712   -0.619651
H      2.116543   -1.438602    1.694097
H      2.885593   -0.172718   -0.871686
H      2.314041    2.358148   -0.089906
H     -0.178143    2.535646   -0.175897
H     -1.429863   -0.152783    0.099193
12

C      0.437258   -1.326890   -0.122882
C      1.533606   -0.852394    0.545628
C      2.497491    0.138832   -0.039548
C      1.819360    1.352774    0.075555
C      0.429162    1.220928    0.346811
C     -0.290261    0.153191   -0.213181
H      0.007260   -2.208306   -0.403657
H      1.786588   -0.798955    1.666235
H      2.892163    0.074202   -1.118167
H      2.228364    2.408723   -0.341365
H     -0.094876    2.188309    0.536926
H     -1.391705    0.409525   -0.360764
12

C      0.453979   -0.864039   -0.197666
C      1.740948   -1.031228    0.546425
C      2.292404    0.054616   -0.237324
C      1.603453    1.353420   -0.315120
C      0.238416    1.464909   -0.159120
C     -0.360152    0.328515   -0.152672
H      0.154639   -1.888386   -0.542997
H      1.908394   -1.255375    1.667829
H      3.181366   -0.095674   -0.719044
H      2.272763    2.200822    0.150905
H     -0.307033    2.353217    0.070989
H     -1.324767    0.139141    0.459385
12

C      0.239395   -1.116156   -0.353931
C      1.495102   -0.751860    0.422545
C      2.379672    0.351640   -0.118002
C      1.762906    1.590597   -0.087249
C      0.418315    1.454913   -0.014362
C     -0.250944    0.123123    0.264705
H     -0.207579   -2.221176   -0.539667
H      1.747636   -1.503707    1.166832
H      3.447066    0.118635   -0.318204
H      2.475749    2.392772   -0.254879
H     -0.292459    2.375485   -0.290152
H     -1.360446   -0.054327    0.693953
12

C      0.394453   -1.104088   -0.076739
C      1.710449   -1.056034    0.736297
C      2.316110    0.177880    0.131113
C      1.726528    1.666656    0.069600
C      0.361584    1.554000   -0.117396
C     -0.265229    0.310127    0.032319
H      0.332067   -1.996937   -0.594432
H      2.085476   -1.779031    1.581922
H      2.434291   -0.169460   -0.894686
H      2.453581    2.538148   -0.268108
H     -0.348070    2.361107   -0.071241
H     -1.346829    0.257571    0.042939
12

C      0.389460   -0.955070   -0.045632
C      1.757588   -0.854876    0.400273
C      2.346813    0.060459   -0.524292
C      1.633768    1.196586   -0.055255
C      0.233484    1.388820    0.185534
C     -0.470356    0.157177    0.205764
H     -0.067891   -1.991137   -0.424313
H      1.885774   -0.760344    1.374344
H      3.364529    0.109590   -0.623920
H      2.301745    2.061181    0.075125
H     -0.013066    2.336215    0.096041
H     -1.507438    0.011340   -0.092078
12

C      0.332475   -1.088671    0.088171
C      1.685207   -0.822968    0.472703
C      2.488928    0.018374   -0.483188
C      1.611951    1.265923   -0.211420
C      0.267404    1.292552    0.150478
C     -0.453868    0.151110    0.335721
H     -0.037251   -1.737194   -0.836765
H      2.104659   -0.924494    1.407980
H      3.562424   -0.071073   -0.393883
H      2.193371    2.046779   -0.108307
H     -0.383550    2.308648    0.078157
H     -1.517340    0.320955    0.071942
12

C      0.201203   -1.061930    0.085812
C      1.580737   -0.722287    0.535735
C      2.429263    0.004089   -0.468982
C      1.747433    1.342105   -0.211213
C      0.264922    1.192196    0.133686
C     -0.525716    0.130019   -0.025027
H      0.078757   -1.915732   -0.546080
H      1.991394   -0.777016    1.631936
H      3.543946   -0.018106   -0.774824
H      2.384281    2.164560   -0.148432
H     -0.203709    2.288313    0.672743
H     -1.638100    0.133729   -0.313763
12

C      0.285363   -0.995277    0.129217
C      1.667402   -0.753081    0.491446
C      2.382959   -0.052754   -0.547082
C      1.673886    1.199832   -0.130973
C      0.383877    1.263760    0.168952
C     -0.532654    0.051230    0.174099
H      0.139499   -1.876544   -0.667272
H      1.914104   -0.572928    1.434471
H      3.405320   -0.075309   -0.703932
H      2.161516    2.112562    0.071692
H     -0.064457    2.281865    0.301797
H     -1.562405    0.176585   -0.150824
12

C      0.349515   -1.010772    0.010750
C      1.730738   -0.855548    0.362059
C      2.334590   -0.021002   -0.591366
C      1.647039    1.121743   -0.096626
C      0.392107    1.285642    0.187840
C     -0.504838    0.020273    0.216926
H      0.098117   -1.797029   -0.569204
H      1.893399   -0.564554    1.533468
H      3.460807   -0.091298   -0.725452
H      2.109907    2.084922    0.151213
H     -0.111216    2.472135    0.214430
H     -1.545755    0.115428   -0.122447
12

C      0.304287   -1.125843    0.043727
C      1.673232   -0.731669    0.406472
C      2.380396    0.055169   -0.397691
C      1.639417    1.258460   -0.097072
C      0.315070    1.324068    0.188282
C     -0.388452    0.127732    0.333218
H     -0.002754   -1.706393   -0.700907
H      1.841667   -0.940040    1.523135
H      3.460256   -0.085716   -0.715739
H      2.301251    2.245308   -0.105160
H     -0.238523    2.315845    0.103667
H     -1.431435    0.023020   -0.010342
12

C      0.429902   -0.941691    0.145918
C      1.874517   -1.092246    0.565796
C      2.256624    0.079466   -0.162526
C      1.608912    1.306988   -0.027172
C      0.174943    1.512411   -0.186179
C     -0.379902    0.280803    0.221950
H      0.054496   -1.484208   -0.679696
H      2.113156   -1.412624    1.533740
H      3.038111   -0.075847   -0.833608
H      2.347884    2.268050    0.092273
H     -0.295219    2.319706   -0.273366
H     -1.369015   -0.000869    0.174459
12

C      0.562075   -0.810196    0.041814
C      1.768175   -1.034224    0.926373
C      2.186996    0.097880    0.209303
C      1.532516    1.380377   -0.000637
C      0.243444    1.598196   -0.128948
C     -0.369652    0.342502    0.064541
H      0.113738   -1.666023   -0.541926
H      2.270988   -1.907423    1.029397
H      2.955918   -0.035937   -0.620632
H      2.160093    2.194540   -0.340169
H     -0.263837    2.452975   -0.260482
H     -1.306042    0.147272    0.192956
12

C      0.309455   -1.110721   -0.045094
C      1.673304   -1.154300    0.180786
C      2.418643    0.150930   -0.207075
C      1.699894    1.347944   -0.222658
C      0.346022    1.296337    0.179622
C     -0.370823    0.117229    0.333883
H     -0.238330   -1.752373   -0.883927
H      1.913742   -0.635587    1.242679
H      3.482691   -0.017489   -0.071434
H      2.139070    2.289541   -0.313252
H     -0.063098    2.192325    0.011431
H     -1.456158    0.036102    0.366630
12

C      0.294596   -1.178784   -0.064615
C      1.844987   -1.084239    0.046378
C      2.481204    0.121277   -0.251769
C      1.791345    1.297318   -0.069977
C      0.387658    1.209144    0.086063
C     -0.377195   -0.003321    0.021664
H     -0.296412   -2.019872   -0.155542
H      1.656631   -0.558821    1.212663
H      3.489195    0.298982   -0.529795
H      2.169500    2.214266    0.028713
H     -0.197265    1.993987    0.183686
H     -1.389833    0.470004    0.064121
12

C      0.457428   -0.967941   -0.053626
C      1.732246   -1.024247    0.755397
C      2.211680    0.058834   -0.119192
C      1.566654    1.346515   -0.112378
C      0.243911    1.625179   -0.072956
C     -0.337710    0.305365    0.100450
H     -0.096104   -1.707939   -0.729855
H      2.351149   -1.591399    1.601603
H      3.135359   -0.022920   -0.714429
H      2.307818    2.231712   -0.085918
H     -0.317277    2.594448   -0.182763
H     -1.400743   -0.087668    0.185256
12

C      0.412937   -0.881480   -0.107085
C      1.809566   -1.074032    0.684654
C      2.248553    0.025331   -0.088222
C      1.689970    1.408842   -0.135636
C      0.158298    1.576529    0.070300
C     -0.309752    0.259973   -0.094213
H      0.211994   -1.783700   -0.648019
H      2.144718   -1.416228    1.805366
H      3.043841   -0.240806   -0.855679
H      2.467037    2.272807   -0.324412
H     -0.620825    2.368958    0.317680
H     -1.401927    0.243746   -0.053144
12

C      0.312978   -1.024191   -0.072637
C      1.856818   -1.119257    0.273944
C      2.447186    0.116253   -0.173993
C      1.826365    1.370196    0.050764
C      0.422825    1.285854    0.121669
C     -0.427506    0.127254   -0.114163
H     -0.079845   -2.033733   -0.336511
H      1.516502   -0.702862    1.402712
H      3.437260    0.030319   -0.802778
H      2.226408    2.375141   -0.222519
H     -0.231018    2.175342    0.361481
H     -1.453562    0.159624    0.083621
12

C      0.343250   -1.130232    0.002305
C      1.766686   -1.172384    0.139984
C      2.424240    0.094150   -0.284581
C      1.816109    1.364341   -0.092580
C      0.420416    1.289822    0.362576
C     -0.303171    0.012546    0.322752
H     -0.278596   -1.909673   -0.310576
H      1.646215   -0.621121    1.233788
H      3.442621    0.065194   -0.575969
H      2.131492    2.398753   -0.169901
H     -0.166860    2.303428    0.197184
H     -1.387990    0.065116   -0.253391
12

C      0.483777   -0.995947    0.099209
C      1.881826   -1.084116    0.728839
C      2.266589    0.081831   -0.114811
C      1.704729    1.415978   -0.035564
C      0.267592    1.503150    0.043605
C     -0.347528    0.295970   -0.052073
H      0.052976   -1.692224   -0.610880
H      2.132796   -1.430678    1.715942
H      2.852021   -0.112454   -0.984926
H      2.292087    2.255888   -0.148826
H     -0.365013    2.448696    0.124530
H     -1.367440    0.073845   -0.193455
12

C      0.471291   -1.178712   -0.025176
C      1.912711   -1.149353    0.298207
C      2.441210    0.173461   -0.144529
C      1.807429    1.350446   -0.150280
C      0.345205    1.311460    0.301176
C     -0.395684    0.015098    0.214716
H     -0.321327   -1.999073   -0.542703
H      1.430195   -0.845867    1.377483
H      3.449537    0.401121   -0.529402
H      2.282309    2.224679   -0.546069
H     -0.162345    2.362062    0.325138
H     -1.406121    0.094617   -0.006971
12

C      0.247503   -0.835502    0.405156
C      1.665528   -1.150359    0.697685
C      2.465910   -0.041182   -0.132386
C      1.686722    1.308114    0.020290
C      0.259423    1.426247    0.131243
C     -0.458100    0.254251    0.214949
H      0.580562   -1.290524   -0.717234
H      2.064390   -1.555907    1.459882
H      3.223333   -0.122164   -0.959299
H      2.094919    2.164123   -0.337437
H     -0.461269    2.324899   -0.071133
H     -1.514510    0.277945   -0.140125
12

C      0.460378   -1.072278   -0.356254
C      1.572569   -0.841935    0.449361
C      2.569024    0.107901   -0.024253
C      1.790198    1.451374    0.149950
C      0.446357    1.372691    0.204582
C     -0.243678    0.186281   -0.124606
H     -0.065500   -1.864362   -0.142136
H      1.715908   -0.997810    1.352897
H      3.086717   -0.098726   -0.943467
H      2.230224    2.289729   -0.195671
H     -0.348146    2.148379    0.191387
H     -1.359642    0.078696    0.009801
12

C      0.445898   -1.167093   -0.334993
C      1.617990   -0.744397    0.482847
C      2.562915    0.186103   -0.069496
C      1.858953    1.592952    0.115160
C      0.396360    1.292121    0.095532
C     -0.157989    0.160110   -0.183021
H     -0.227567   -2.099830   -0.070709
H      1.814769   -1.331143    1.670375
H      2.774475   -0.164757   -1.112677
H      2.160061    2.662007   -0.021440
H     -0.158858    2.215774    0.204213
H     -1.232596    0.158094   -0.204201
12

C      0.468356   -0.874014   -0.073594
C      1.727471   -0.991492    0.862294
C      2.162188    0.088878   -0.195308
C      1.689869    1.452610   -0.089589
C      0.233605    1.516447   -0.026366
C     -0.381537    0.169929    0.254386
H      0.050647   -1.682465   -0.517187
H      2.247918   -1.656760    1.438329
H      3.122576   -0.178955   -0.754024
H      2.418912    2.419061   -0.186651
H     -0.450325    2.326319   -0.010741
H     -1.435268    0.170381   -0.129958
12

C      0.339078   -0.907758    0.074851
C      1.788868   -0.835722    0.794235
C      2.241265    0.050283   -0.374535
C      1.680239    1.258678   -0.067375
C      0.229599    1.387639    0.210849
C     -0.544869    0.274334    0.009363
H      0.339429   -1.799995   -0.561600
H      2.185697   -1.515102    1.678000
H      3.119566   -0.217133   -0.887333
H      2.137050    2.391042   -0.147382
H     -0.157375    2.298854    0.119115
H     -1.504135    0.374819   -0.276599
12

C      0.514916   -0.958968    0.034816
C      1.704261   -0.833561    0.908847
C      2.287907    0.049902   -0.177710
C      1.596065    1.466228   -0.076441
C      0.163372    1.481351    0.145270
C     -0.448175    0.337033    0.095309
H      0.004305   -1.807183   -0.395084
H      2.488206   -1.685923    1.134328
H      3.180474   -0.207278   -0.683421
H      2.427428    2.258496   -0.091478
H     -0.485677    2.395599   -0.121978
H     -1.578671    0.264243   -0.200869
12

C      0.500722   -0.935528    0.017337
C      1.733805   -0.866490    0.892729
C      2.219591    0.065906   -0.185087
C      1.574543    1.516366   -0.015264
C      0.092835    1.575833    0.209281
C     -0.401337    0.298347    0.100541
H      0.044482   -1.778257   -0.456795
H      2.321071   -1.628444    1.152157
H      3.162745   -0.298950   -0.680021
H      2.336206    2.234166   -0.227617
H     -0.352710    2.452721   -0.039807
H     -1.377542    0.124269   -0.195865
12

C      0.534721   -0.823120    0.124253
C      1.679644   -0.980560    1.085603
C      2.213404    0.251895    0.161176
C      1.604361    1.578553   -0.007558
C      0.265951    1.646805    0.062168
C     -0.345255    0.289724    0.001344
H      0.371299   -1.788773   -0.467563
H      2.110916   -1.906273    0.968631
H      2.699763   -0.164316   -0.751651
H      2.299837    2.117846   -0.485230
H     -0.214373    2.446888    0.036854
H     -1.365857    0.091272   -0.156437
12

C      0.519509   -0.853731   -0.092111
C      1.750126   -1.039741    0.566501
C      2.361224    0.037703   -0.222948
C      1.699032    1.360784    0.060584
C      0.239914    1.465723   -0.041686
C     -0.439043    0.302831   -0.155962
H      0.236784   -2.001485   -0.214862
H      1.853211   -1.277139    1.696311
H      3.124665   -0.114328   -1.194570
H      2.203466    2.324942    0.047983
H     -0.127311    2.452949    0.247183
H     -1.567166    0.101431   -0.124833
12

C      0.246226   -1.081921    0.043007
C      1.720584   -0.751094    0.525018
C      2.438681   -0.038595   -0.525663
C      1.758977    1.180697   -0.087095
C      0.265266    1.283382    0.211090
C     -0.570887    0.028620   -0.054813
H      0.000087   -1.982089   -0.437289
H      2.058249   -0.700049    1.474473
H      3.480245    0.014625   -0.704827
H      2.352927    2.275761   -0.036146
H     -0.185314    2.219014    0.454514
H     -1.710632    0.311587   -0.290681
12

C      0.165990   -0.944000    0.060611
C      1.754689   -0.828639    0.530034
C      2.377666    0.044712   -0.603480
C      1.772231    1.251082   -0.085740
C      0.226448    1.269085    0.230933
C     -0.572165    0.124606   -0.106170
H     -0.101802   -1.942470   -0.294938
H      2.080432   -0.906981    1.667728
H      3.456610    0.239445   -0.850423
H      2.324912    2.059197    0.074327
H     -0.103942    2.325758    0.330125
H     -1.526657    0.068144   -0.381418
12

C      0.354058   -0.965157    0.329031
C      1.722674   -1.016200    0.570215
C      2.270052   -0.061833   -0.518261
C      1.620779    1.110381   -0.050562
C      0.238944    1.315286    0.109916
C     -0.563336    0.184771    0.060803
H      0.206179   -1.637687   -0.456002
H      2.353449   -1.139132    1.377029
H      3.326034    0.010749   -0.647060
H      2.149199    2.237044    0.059370
H     -0.165167    2.311151    0.045821
H     -1.658455    0.410566   -0.308712
12

C      0.443366   -1.127218   -0.129921
C      1.728470   -1.027965    0.660428
C      2.459430    0.124726   -0.291991
C      1.777932    1.398694   -0.097073
C      0.316029    1.379897   -0.070270
C     -0.293486    0.141778    0.034451
H     -0.078180   -1.899304   -0.579464
H      1.921177   -1.104627    1.695015
H      3.115088   -0.107238   -1.095586
H      2.209477    2.424545    0.350099
H     -0.333445    2.239764   -0.170259
H     -1.411448    0.316888    0.266162
12

C      0.472191   -1.093551   -0.168364
C      1.657919   -1.037693    0.679899
C      2.464327    0.125152   -0.208851
C      1.767916    1.519640   -0.162983
C      0.360609    1.342169   -0.044082
C     -0.303350    0.176588    0.022032
H     -0.041051   -2.012004   -0.495885
H      1.902143   -1.242246    1.711314
H      3.025572   -0.061024   -1.109264
H      2.074042    2.429840    0.287999
H     -0.200899    2.223694   -0.115889
H     -1.325008    0.389373    0.175664
12

C      0.462044   -1.153251   -0.409683
C      1.539608   -0.837394    0.512886
C      2.382636    0.148743   -0.093662
C      1.834253    1.471028   -0.046566
C      0.397339    1.353867    0.202539
C     -0.280098    0.101715   -0.233510
H     -0.000487   -2.002871   -0.158478
H      1.534848   -0.917520    1.529159
H      3.028278   -0.039982   -0.862776
H      2.487284    2.464401   -0.431565
H     -0.260729    2.146396    0.711213
H     -1.270566    0.024808   -0.147968
12

C      0.497109   -0.881525   -0.105768
C      1.846955   -1.085873    0.585855
C      2.356936    0.035889   -0.242520
C      1.653898    1.289355   -0.232756
C      0.218114    1.412269    0.034909
C     -0.438709    0.174643    0.037610
H      0.151220   -1.755528   -0.613408
H      1.959529   -1.164652    1.801613
H      3.301830   -0.095679   -0.908974
H      2.222390    2.092423   -0.057966
H     -0.458092    2.382932    0.231395
H     -1.456768    0.355686    0.041602
12

C      0.503127   -1.057422   -0.174612
C      1.759285   -0.999038    0.660949
C      2.323358    0.130145   -0.307216
C      1.644919    1.393090   -0.201270
C      0.308183    1.458792    0.040896
C     -0.320780    0.134969    0.135429
H     -0.078883   -1.906724   -0.760017
H      1.882083   -1.341271    1.755668
H      3.292642    0.016875   -0.775152
H      2.270534    2.247002   -0.079609
H     -0.341758    2.560645   -0.036685
H     -1.388298    0.122876    0.313209
12

C      0.323859   -1.025397   -0.068251
C      1.820088   -1.173621    0.263331
C      2.360896    0.096416   -0.293389
C      1.749872    1.316465   -0.053179
C      0.316658    1.346938    0.225434
C     -0.378053    0.136002    0.027427
H     -0.007201   -2.002376   -0.405705
H      1.706633   -0.532753    1.498626
H      3.484537   -0.003686   -0.834948
H      2.228651    2.186965   -0.045414
H     -0.216033    2.124377    0.306964
H     -1.535496    0.290610   -0.049306
12

C      0.407415   -1.045758    0.005853
C      1.864529   -1.168733    0.287899
C      2.419125    0.080336   -0.273079
C      1.716073    1.272816   -0.173712
C      0.377773    1.251701    0.204788
C     -0.394838    0.059155    0.033371
H     -0.141802   -1.862616   -0.382293
H      1.714250   -0.567090    1.325000
H      3.342509   -0.009217   -0.623456
H      2.188734    2.308401   -0.067905
H     -0.143210    2.344651    0.355708
H     -1.496148    0.096296   -0.120585
12

C      0.269085   -0.989709   -0.083548
C      1.694257   -1.194122    0.327316
C      2.440118    0.116637   -0.125533
C      1.733499    1.228425   -0.297850
C      0.359964    1.228261    0.222733
C     -0.470809    0.101170    0.221612
H      0.066285   -1.905967   -0.734035
H      1.624502   -0.698688    1.239202
H      3.464117    0.223578   -0.069118
H      2.179641    2.191708   -0.799876
H     -0.086264    2.314813    0.593721
H     -1.419984    0.143833    0.076967
12

C      0.249505   -1.100311   -0.214128
C      1.734143   -1.093623    0.091342
C      2.508048    0.185096   -0.077262
C      1.832788    1.362802   -0.125052
C      0.388106    1.265492    0.206650
C     -0.409441    0.096901    0.095001
H     -0.020382   -2.071759   -0.410492
H      1.498055   -0.688641    1.056762
H      3.768396    0.155492   -0.146063
H      2.103099    2.183850   -0.633612
H     -0.231865    1.987960    0.423458
H     -1.566042    0.476681    0.304986
12

C      0.584630   -0.886246    0.115386
C      1.835283   -0.842698    0.834953
C      2.366463    0.108567   -0.091653
C      1.668093    1.441862    0.090384
C      0.253893    1.485870    0.070331
C     -0.324753    0.331847   -0.012462
H      0.197131   -1.705142   -0.406222
H      2.104393   -1.680669    1.399799
H      2.747313   -0.301323   -1.074010
H      2.124890    2.301426   -0.025515
H     -0.214269    2.325368   -0.108271
H     -1.488656    0.181079   -0.221130
12

C      0.296877   -1.142196   -0.105490
C      1.803492   -1.060093    0.054244
C      2.497803    0.192141   -0.202751
C      1.848316    1.365489    0.167980
C      0.378591    1.256930    0.035472
C     -0.336543    0.075108   -0.000013
H     -0.247083   -2.040573    0.013026
H      1.622240   -0.669297    1.221888
H      3.353746    0.135551   -0.759458
H      2.227841    2.368515    0.025388
H     -0.048838    2.216421    0.204649
H     -1.542033    0.061943   -0.083344
12

C      0.353081   -0.928876    0.008182
C      1.707265   -0.814356    0.642807
C      2.364802   -0.034405   -0.277686
C      1.578156    1.161174   -0.360845
C      0.171048    1.331877    0.141671
C     -0.611573    0.118300    0.161273
H      0.470376   -1.578365   -0.888325
H      1.956963   -1.027962    1.728444
H      3.321309    0.047624   -0.615873
H      2.352833    1.969273   -0.404851
H     -0.122315    2.245913    0.479826
H     -1.687534    0.269743   -0.043033
12

C      0.399564   -0.893648    0.052875
C      1.709787   -0.771825    0.650817
C      2.467870   -0.022857   -0.316184
C      1.591013    1.226029   -0.279463
C      0.216710    1.237577    0.221863
C     -0.592792    0.089871    0.255012
H      0.203257   -1.411827   -0.856861
H      1.891727   -1.087129    1.620339
H      3.530246   -0.028085   -0.673062
H      2.247023    2.041608   -0.385692
H     -0.180554    2.318254    0.312579
H     -1.629440    0.061972   -0.030633
12

C      0.355401   -0.870820    0.065884
C      1.673296   -0.762013    0.581291
C      2.524317   -0.003361   -0.389963
C      1.661082    1.254305   -0.195571
C      0.312227    1.280766    0.260416
C     -0.513696    0.173074    0.289954
H      0.036138   -1.385615   -0.833842
H      1.919613   -1.187934    1.620326
H      3.521417   -0.194490   -0.627205
H      2.055641    2.322786   -0.313394
H     -0.142486    2.178730    0.118571
H     -1.548539   -0.045487   -0.004876
12

C      0.509422   -1.048297   -0.225794
C      1.641075   -0.930364    0.669160
C      2.354526    0.045606   -0.155664
C      1.684397    1.407788    0.060904
C      0.281531    1.525304    0.123187
C     -0.348580    0.212325   -0.157392
H      0.074415   -1.967676   -0.468055
H      2.063864   -1.004355    1.620466
H      3.068946   -0.174979   -1.000755
H      2.375184    2.117452   -0.134019
H     -0.391703    2.465805    0.328220
H     -1.458666    0.111331   -0.088668
12

C      0.524499   -1.151429   -0.290883
C      1.730924   -0.896716    0.638791
C      2.511565    0.173712    0.135302
C      1.766185    1.488757   -0.033378
C      0.407304    1.450996    0.356105
C     -0.204744    0.149545   -0.007058
H     -0.174793   -1.936765   -0.327260
H      1.907755   -1.436462    1.543276
H      2.729992   -0.033768   -0.926712
H      2.171989    2.429371   -0.379439
H     -0.210534    2.482829    0.139076
H     -1.305732    0.039872   -0.276230
12

C      0.422622   -1.000895   -0.017518
C      1.724795   -0.958599    0.481754
C      2.629219    0.318282    0.131424
C      1.890090    1.537804    0.069201
C      0.453258    1.431390   -0.187230
C     -0.191612    0.147440   -0.155600
H     -0.249954   -2.109422    0.055463
H      1.985294   -1.668814    1.249576
H      2.371696    0.009797   -0.935435
H      2.284383    2.655010    0.184686
H     -0.225623    2.376770   -0.142283
H     -1.239756    0.021177   -0.162449
12

C      0.198908   -1.058202   -0.006770
C      1.691298   -0.739790    0.452909
C      2.553399    0.091414   -0.413677
C      1.762854    1.270943   -0.098902
C      0.252539    1.228716    0.022741
C     -0.612831    0.135775    0.133908
H     -0.034997   -2.092923   -0.294033
H      1.920879   -0.958140    1.472500
H      3.525483    0.145802   -0.943317
H      2.301175    2.280492    0.250964
H     -0.007963    2.310380    0.109042
H     -1.696334    0.145473   -0.113777
12

C      0.436695   -0.904347    0.003205
C      1.534057   -0.932206    0.951009
C      2.096954    0.154458    0.037500
C      1.661124    1.567435    0.051837
C      0.319550    1.566866   -0.074882
C     -0.398699    0.284192   -0.134074
H      0.320477   -2.052602   -0.465571
H      2.173093   -1.680010    0.907999
H      3.012690   -0.126586   -0.587875
H      2.376724    2.283060   -0.313644
H     -0.197555    2.475172   -0.048014
H     -1.480702    0.124509    0.244101
12

C      0.501982   -0.908195   -0.011198
C      1.710545   -0.922514    0.865985
C      2.230515    0.150405   -0.034248
C      1.661149    1.491660   -0.069894
C      0.331844    1.498068   -0.077434
C     -0.327402    0.212218   -0.072028
H      0.215179   -1.952011   -0.637403
H      1.881627   -1.747802    1.346327
H      3.028264   -0.069024   -0.818905
H      2.244375    2.372534   -0.166951
H     -0.277013    2.340561   -0.193979
H     -1.346654    0.294041    0.441316
12

C      0.584859   -1.078886   -0.111710
C      1.753353   -0.930438    0.738155
C      2.288065   -0.009329   -0.160377
C      1.716255    1.242507   -0.085944
C      0.484885    1.228353    0.304083
C     -0.348801    0.094636    0.021183
H      0.447672   -1.459047   -1.080962
H      1.522859   -0.650434    1.830658
H      2.750018   -0.322063   -0.967426
H      2.029648    2.339020   -0.406988
H      0.030968    2.214161    0.395293
H     -1.405371    0.091460    0.095626
12

C      0.269003   -1.111548   -0.017952
C      1.787880   -1.135012    0.021020
C      2.527823    0.211326   -0.199205
C      1.769875    1.329828    0.090685
C      0.377638    1.282398    0.081247
C     -0.481883    0.035527    0.140003
H     -0.252021   -2.005459   -0.188854
H      1.710652   -0.723929    1.180973
H      3.508836    0.259440   -0.631148
H      2.400082    2.188204    0.006709
H     -0.258908    2.399090   -0.020498
H     -1.504567    0.030075    0.108608
12

C      0.257795   -1.194482   -0.067165
C      1.797117   -1.160206    0.108220
C      2.564187    0.257787   -0.254347
C      1.754936    1.326702    0.048376
C      0.324833    1.257774    0.021696
C     -0.436588    0.064260    0.102790
H     -0.290563   -2.138507   -0.126122
H      1.613674   -0.639700    1.155989
H      3.579355    0.369348   -0.691726
H      2.351474    2.223886    0.109288
H     -0.101035    2.166471    0.004019
H     -1.560774    0.226607    0.160573
12

C      0.253444   -1.200557   -0.078526
C      1.855270   -1.261774    0.107837
C      2.543403    0.190840   -0.265230
C      1.822316    1.299524   -0.023691
C      0.322617    1.217346   -0.034912
C     -0.398647    0.100863    0.085187
H     -0.337319   -2.140199   -0.251536
H      1.724495   -0.745561    1.201068
H      3.514771    0.332922   -0.442548
H      2.161732    2.357858    0.032733
H     -0.186221    2.203726   -0.022493
H     -1.421452    0.404952    0.263701
12

C      0.247384   -1.196399   -0.054518
C      1.842651   -1.224873    0.184389
C      2.520895    0.159106   -0.256296
C      1.806400    1.297018   -0.069485
C      0.414658    1.255975    0.004000
C     -0.347720    0.086898    0.141196
H     -0.359991   -1.996186   -0.236225
H      1.622193   -0.753211    1.034426
H      3.668116    0.315347   -0.400392
H      2.082544    2.293036   -0.062664
H     -0.237048    2.295833    0.049006
H     -1.405672    0.227394    0.238153
12

C      0.355846   -1.086202    0.090119
C      1.562180   -0.889561    0.826798
C      2.231357    0.073084   -0.074062
C      1.726958    1.419002   -0.096544
C      0.418686    1.407895    0.164547
C     -0.282094    0.228745    0.045535
H      0.471900   -1.690702   -0.890029
H      1.931115   -1.411476    1.756893
H      2.789591   -0.193786   -0.941057
H      2.087883    2.350466   -0.473215
H     -0.203730    2.221506    0.297267
H     -1.235280    0.330968   -0.134662
12

C      0.398549   -0.954319   -0.049084
C      1.640592   -0.909608    0.828154
C      2.320274    0.055305   -0.093907
C      1.675880    1.328167   -0.004148
C      0.323026    1.450961    0.093221
C     -0.363273    0.211537    0.015821
H      0.268820   -1.789738   -0.911734
H      2.025341   -1.316129    1.750682
H      3.061790   -0.094408   -0.958477
H      2.216891    2.167501   -0.352081
H     -0.284744    2.465428    0.122161
H     -1.428735    0.145243    0.130983
12

C      0.472114   -0.948810    0.052705
C      1.592213   -0.814366    0.859461
C      2.192840    0.026315   -0.192621
C      1.620236    1.412381   -0.189640
C      0.269451    1.528191   -0.066501
C     -0.259727    0.340521   -0.040067
H      0.253401   -1.812437   -0.400637
H      2.325366   -1.546797    1.296254
H      3.061243   -0.228740   -0.805755
H      2.242649    2.145614    0.070153
H     -0.431081    2.306589    0.104895
H     -1.484294    0.351477   -0.116656
12

C      0.284283   -1.131676   -0.055212
C      1.701184   -1.169254    0.311703
C      2.485076    0.043843   -0.183164
C      1.774056    1.294854   -0.100847
C      0.383702    1.338602    0.050028
C     -0.349822    0.158966    0.059150
H     -0.047354   -2.008780   -0.569828
H      1.773707   -0.467103    1.143877
H      3.447797    0.013815   -0.313371
H      2.110367    2.245830   -0.360827
H     -0.210302    2.118701    0.496988
H     -1.498282    0.322142    0.093092
12

C      0.284884   -1.127172   -0.137254
C      1.705327   -1.212719    0.233707
C      2.428131    0.115209   -0.323740
C      1.771826    1.274378   -0.177603
C      0.388746    1.328834    0.116286
C     -0.364948    0.096876    0.115913
H     -0.307647   -1.927984   -0.561523
H      1.784866   -0.458635    1.166333
H      3.637928    0.073372   -0.081203
H      2.179474    2.279562   -0.400008
H     -0.264070    2.165210    0.463811
H     -1.390105    0.153009    0.156870
12

C      0.468247   -1.077410    0.022516
C      1.674311   -0.761700    0.849754
C      2.325125    0.094284   -0.020084
C      1.571865    1.479157   -0.127406
C      0.256620    1.393519    0.124544
C     -0.306892    0.232614   -0.056806
H      0.473607   -1.772094   -0.856395
H      1.972542   -1.375536    1.637419
H      2.896451   -0.457964   -0.825003
H      2.166066    2.292998   -0.591241
H     -0.251410    2.226977    0.597796
H     -1.392121    0.485093   -0.183504
12

C      0.423237   -1.099855   -0.076105
C      1.727110   -1.210259    0.260368
C      2.466165    0.211478   -0.323767
C      1.694300    1.409146   -0.190008
C      0.473932    1.243066    0.200987
C     -0.431562    0.025726    0.204246
H     -0.208180   -1.842730   -0.322637
H      1.537291   -0.621535    1.298249
H      3.468290    0.047939   -0.572168
H      2.095684    2.327023   -0.158466
H     -0.009847    2.204066    0.366385
H     -1.382009    0.065873   -0.115494
12

C      0.321310   -1.055172   -0.171104
C      1.685854   -1.231478    0.250405
C      2.450795    0.188823   -0.298147
C      1.746175    1.325765   -0.171079
C      0.465523    1.229685    0.225648
C     -0.401937    0.100154    0.142570
H     -0.281907   -2.065429   -0.262365
H      1.624629   -0.510636    1.282266
H      3.528702    0.139878   -0.481404
H      2.153256    2.452593   -0.257621
H      0.083999    2.174731    0.487790
H     -1.521987    0.011026   -0.175370
12

C      0.235449   -1.080364   -0.240385
C      1.730599   -1.207708    0.350460
C      2.423349    0.057734   -0.139184
C      1.806721    1.202690   -0.186651
C      0.309527    1.255112    0.156836
C     -0.411388    0.057991    0.015134
H     -0.057060   -1.819826   -0.723114
H      1.754656   -0.496820    1.208773
H      3.458506    0.201100   -0.029157
H      2.199740    2.170082   -0.644918
H     -0.227653    2.146835    0.462961
H     -1.368034    0.273115    0.340835
12

C      0.530529   -0.952825   -0.366292
C      1.600151   -0.854371    0.607007
C      2.390375    0.214849   -0.105925
C      1.727157    1.473804   -0.066309
C      0.385523    1.404217    0.094483
C     -0.238780    0.113727   -0.250157
H     -0.056529   -1.999768   -0.429912
H      1.491716   -1.172595    1.614389
H      3.137302   -0.015947   -0.892970
H      2.385162    2.271564   -0.309169
H     -0.318185    2.328655    0.334798
H     -1.180010   -0.051372    0.341646
12

C      0.419644   -0.874688    0.057716
C      1.569926   -0.781709    0.773065
C      2.290436    0.028880   -0.156653
C      1.534441    1.251135   -0.072033
C      0.257426    1.420255    0.259147
C     -0.410644    0.266646   -0.015392
H      0.558699   -1.677510   -0.928718
H      2.008760   -1.273778    1.605250
H      3.205722   -0.455190   -0.832822
H      2.083862    2.213949   -0.450905
H     -0.193158    2.396831    0.285545
H     -1.470703    0.245119    0.047390
12

C      0.389562   -1.000211    0.065511
C      1.706572   -0.908802    0.671344
C      2.327788   -0.054087   -0.354709
C      1.629255    1.270709   -0.172276
C      0.281998    1.419601    0.159152
C     -0.453424    0.194534    0.087002
H      0.253204   -1.797438   -0.834838
H      1.884128   -0.875639    1.772457
H      3.258914   -0.124374   -0.987217
H      2.128780    2.151781   -0.069607
H     -0.019553    2.461346    0.316849
H     -1.532812    0.022518   -0.082077
12

C      0.310417   -1.002745    0.101261
C      1.685421   -0.917231    0.739730
C      2.299144   -0.069811   -0.202447
C      1.552743    1.153659   -0.075161
C      0.210825    1.390676    0.184904
C     -0.422834    0.190042    0.062711
H      0.332823   -1.352674   -0.909634
H      2.138339   -1.248056    1.653311
H      3.163151   -0.002112   -0.698751
H      2.090449    2.108745   -0.409596
H     -0.069600    2.409159    0.107823
H     -1.436467    0.100287    0.017439
12

C      0.243551   -1.114497   -0.059191
C      1.596699   -0.684373    0.481021
C      2.514404   -0.021724   -0.329192
C      1.636888    1.226159   -0.280790
C      0.391711    1.213815    0.316538
C     -0.463772    0.059745    0.102831
H      0.030612   -1.826596   -0.941379
H      1.733534   -0.731690    1.558259
H      3.479191    0.099053   -0.365794
H      2.133576    2.211993   -0.511151
H      0.036705    2.225336    0.445214
H     -1.478689    0.102720    0.155223
12

C      0.397975   -1.055715   -0.390813
C      1.632782   -0.890199    0.448816
C      2.532894    0.201526   -0.004675
C      1.806895    1.523070   -0.093739
C      0.454164    1.414735    0.043760
C     -0.168797    0.169139    0.132040
H     -0.222192   -2.074008   -0.389904
H      1.733681   -1.241884    1.406252
H      3.273435   -0.268092   -0.813158
H      2.041465    2.572322   -0.025025
H     -0.370188    2.178118   -0.064550
H     -1.257705    0.230928    0.322584
12

C      0.380125   -1.144109   -0.185931
C      1.530723   -0.928707    0.583197
C      2.383354    0.307014   -0.020768
C      1.903065    1.587647    0.085072
C      0.457630    1.463506    0.182933
C     -0.228330    0.145154    0.048668
H      0.228849   -2.202353   -0.577836
H      1.583569   -1.330403    1.639303
H      2.694889   -0.053271   -0.964040
H      2.212319    2.430889   -0.410492
H     -0.092939    2.376146    0.170078
H     -1.198845    0.108427    0.021406
12

C      0.319734   -1.049788   -0.163450
C      1.888431   -1.183512    0.231517
C      2.470811    0.086879   -0.250166
C      1.778210    1.335220    0.010993
C      0.322499    1.389872    0.101734
C     -0.326133    0.050354    0.058908
H     -0.179652   -1.914905   -0.397970
H      1.588457   -0.589450    1.297997
H      3.377669    0.080898   -0.537596
H      2.265416    2.207803   -0.184359
H     -0.226433    2.403346    0.255482
H     -1.424598   -0.056777    0.148501
12

C      0.263319   -1.182570   -0.287548
C      1.672667   -1.059368    0.016496
C      2.627306    0.151783   -0.051435
C      1.784558    1.349008   -0.117012
C      0.315675    1.318570    0.063285
C     -0.407694    0.108724    0.082680
H     -0.314456   -2.079493   -0.441059
H      1.814289   -0.610014    1.069493
H      3.571267    0.153058   -0.002052
H      2.239623    2.186730   -0.429709
H     -0.247273    2.248380    0.305535
H     -1.464868    0.175131    0.362919
12

C      0.355102   -1.107840   -0.376427
C      1.716824   -1.126893   -0.091442
C      2.506588    0.102971   -0.235700
C      1.797913    1.320851   -0.231889
C      0.346316    1.285622    0.074423
C     -0.331790    0.136064    0.199589
H     -0.075831   -2.081657   -0.241719
H      1.466726   -0.633495    1.032792
H      3.515336    0.091501   -0.008003
H      2.158555    2.289936   -0.196532
H     -0.213765    2.312758    0.182668
H     -1.387564    0.170120    0.463830
12

C      0.460382   -1.098737   -0.270892
C      1.652255   -0.836246    0.614771
C      2.363831    0.285391    0.042437
C      1.803741    1.579687    0.092094
C      0.505034    1.377193    0.233121
C     -0.107906    0.128786    0.049677
H     -0.234333   -1.989842   -0.505887
H      1.787777   -1.431243    1.517387
H      2.965575    0.096736   -0.835447
H      2.270236    2.328816   -0.434622
H     -0.253010    2.258029   -0.032482
H     -1.359172    0.061370    0.101434
12

C      0.427752   -1.122248   -0.254830
C      1.599456   -0.867086    0.631976
C      2.366379    0.317889    0.050719
C      1.850289    1.574546    0.131764
C      0.511117    1.406461    0.240142
C     -0.114610    0.146528    0.067068
H     -0.028859   -2.025814   -0.527364
H      1.662736   -1.406183    1.507609
H      2.844105    0.020315   -0.903558
H      2.291609    2.422227   -0.472809
H     -0.173872    2.297548    0.010835
H     -1.381691   -0.004244    0.090039
12

C      0.290426   -1.106087   -0.008412
C      1.788599   -1.198859    0.305065
C      2.404368    0.122829   -0.240820
C      1.719959    1.334333    0.015284
C      0.343462    1.274007    0.353368
C     -0.387736    0.171927    0.079827
H     -0.194473   -2.026874   -0.367845
H      1.773540   -0.500380    1.285980
H      3.473930   -0.064407   -0.669257
H      2.098054    2.338542   -0.310716
H     -0.117296    2.203147    0.470731
H     -1.338420    0.211761   -0.341617
12

C      0.278113   -0.996094   -0.209205
C      1.852880   -1.090044    0.193853
C      2.397203    0.151939   -0.230770
C      1.806940    1.327214    0.062792
C      0.361620    1.335333    0.147197
C     -0.389926    0.098621   -0.043598
H     -0.086810   -2.135323   -0.129600
H      1.408778   -0.660224    1.280492
H      3.425191    0.163691   -0.716507
H      2.285557    2.291745   -0.172156
H     -0.061461    2.315133    0.326902
H     -1.423675   -0.042052    0.062192
12

C      0.426178   -1.180178   -0.322664
C      1.725184   -0.906964    0.500493
C      2.424271    0.157961   -0.042127
C      1.789705    1.425012   -0.028750
C      0.384691    1.441610   -0.139566
C     -0.336013    0.206761   -0.031334
H     -0.129884   -2.105578   -0.415631
H      1.691387   -1.161896    1.559333
H      3.147259    0.034229   -0.987739
H      2.155208    2.380981    0.115329
H     -0.182159    2.327850   -0.045515
H     -1.241416    0.140153    0.409760
12

C      0.410508   -1.116047   -0.305415
C      1.676895   -0.954560    0.523488
C      2.580492    0.309855    0.016234
C      1.750205    1.508343    0.046283
C      0.368923    1.443282   -0.181683
C     -0.239634    0.175211   -0.109323
H     -0.243381   -2.064656   -0.359372
H      1.842168   -1.251704    1.673792
H      2.788156    0.140882   -1.020128
H      2.534887    2.319264    0.044655
H     -0.309062    2.254756    0.011509
H     -1.305747   -0.004686    0.231550
12

C      0.369178   -1.155990   -0.145651
C      1.825778   -1.089279    0.035281
C      2.530061    0.204711   -0.250997
C      1.769046    1.366942    0.046634
C      0.271950    1.284358    0.233570
C     -0.312502    0.146414   -0.007085
H     -0.249278   -1.983822    0.023395
H      1.460705   -0.621310    1.178716
H      3.462037    0.155866   -0.682421
H      2.357172    2.191245   -0.076278
H     -0.211188    2.273121    0.264294
H     -1.418549   -0.012317   -0.047866
12

C      0.385157   -1.114044   -0.183488
C      1.774178   -1.097872    0.201871
C      2.425098    0.162198   -0.209263
C      1.723970    1.414223   -0.085189
C      0.383331    1.252546    0.322057
C     -0.377111    0.111476    0.049318
H     -0.069720   -2.077242   -0.202533
H      1.431257   -0.552060    1.129753
H      3.456639   -0.020043   -0.565946
H      2.276195    2.353515   -0.270031
H     -0.067264    2.279644    0.424688
H     -1.487318    0.047597   -0.039647
12

C      0.394455   -1.062039   -0.212603
C      1.796974   -1.101115    0.259716
C      2.351597    0.217544   -0.169663
C      1.725942    1.437048   -0.119275
C      0.411120    1.269315    0.351391
C     -0.417993    0.155582    0.006781
H      0.043677   -2.071494   -0.184043
H      1.335886   -0.586280    1.179828
H      3.344365   -0.093109   -0.672085
H      2.354867    2.427370   -0.277312
H     -0.009540    2.192222    0.471669
H     -1.476937   -0.025105   -0.062814
12

C      0.362585   -1.069414   -0.080139
C      1.837316   -0.997538    0.592370
C      2.414532    0.110464   -0.098996
C      1.745666    1.368659   -0.144049
C      0.391276    1.323507    0.175522
C     -0.322091    0.046639   -0.119753
H     -0.225086   -1.904145   -0.473711
H      1.642784   -0.996803    1.616343
H      3.330247    0.240822   -0.773003
H      2.146520    2.296945   -0.574539
H     -0.151506    2.041020    0.663692
H     -1.317832    0.299784   -0.212149
12

C      0.328596   -1.132053   -0.049330
C      1.922482   -1.073483    0.241205
C      2.413204    0.097165   -0.284555
C      1.763263    1.360881   -0.036962
C      0.333620    1.244361    0.222965
C     -0.489211    0.040841    0.066419
H     -0.270446   -2.020944   -0.094823
H      1.757376   -0.636064    1.437037
H      3.298490    0.125701   -0.896590
H      2.351059    2.343568    0.042901
H     -0.195039    2.166522    0.355071
H     -1.358984    0.243445   -0.431749
12

C      0.424285   -1.144017   -0.003269
C      1.875916   -1.177392    0.260479
C      2.492110    0.076205   -0.153200
C      1.811545    1.432044    0.107539
C      0.388805    1.323104    0.082542
C     -0.200748    0.058754   -0.227867
H     -0.253470   -1.877727    0.127323
H      1.446338   -0.894693    1.243736
H      3.120385    0.066702   -1.032269
H      2.079326    2.555048    0.110720
H     -0.166808    2.216468    0.176726
H     -1.163274    0.125443   -0.120870
12

C      0.355782   -1.183950   -0.154432
C      1.565653   -0.930287    0.660101
C      2.295740    0.093796   -0.015308
C      1.645026    1.483304   -0.001514
C      0.361243    1.478422    0.020096
C     -0.395162    0.182912    0.156093
H      0.230478   -1.772088   -0.902761
H      1.900839   -1.440859    1.605686
H      3.151775    0.108306   -0.682651
H      2.179305    2.209975   -0.460461
H     -0.059739    2.428431   -0.087242
H     -1.376530    0.101977    0.433983
12

C      0.458230   -1.103382    0.173982
C      1.801844   -0.867144    0.616285
C      2.327959    0.017256   -0.327848
C      1.584496    1.258976   -0.146187
C      0.139947    1.398599    0.199716
C     -0.502729    0.226793    0.165282
H      0.086519   -1.711808   -0.769508
H      2.131141   -1.198949    1.604915
H      3.319182   -0.169768   -0.790107
H      2.064316    2.209007   -0.099665
H     -0.072462    2.474697    0.099167
H     -1.484032    0.225662   -0.154441
12

C      0.567348   -0.705094   -0.087315
C      1.661574   -0.830275    0.769695
C      2.311782    0.010273   -0.243841
C      1.594768    1.291091   -0.207838
C      0.170048    1.489052   -0.074786
C     -0.458912    0.273982    0.023510
H      0.220323   -1.687850   -0.474281
H      2.092126   -1.540047    1.402851
H      3.251409   -0.116566   -0.553729
H      2.222642    2.097807   -0.287221
H     -0.270037    2.341180    0.296793
H     -1.508661    0.136386    0.007754
12

C      0.451333   -1.158604   -0.474083
C      1.625123   -0.963267    0.548102
C      2.343737    0.284442   -0.189291
C      1.742507    1.593959   -0.219821
C      0.360714    1.453475    0.038962
C     -0.161593    0.075165   -0.088573
H     -0.199100   -2.077189   -0.382180
H      1.687783   -1.077690    1.621244
H      3.161920   -0.086402   -0.625852
H      2.406325    2.425291   -0.294568
H     -0.244375    2.209090    0.517543
H     -1.319965    0.081671    0.120107
12

C      0.366973   -1.078290    0.098620
C      1.699369   -0.892568    0.733360
C      2.501618   -0.004587   -0.219815
C      1.630334    1.278499   -0.146048
C      0.253245    1.445288    0.156812
C     -0.494050    0.212593    0.143914
H      0.164274   -1.780680   -0.841968
H      1.981524   -0.838870    1.763722
H      3.083798   -0.205924   -1.144216
H      2.235191    2.153349   -0.058897
H     -0.208247    2.410468    0.376411
H     -1.359619    0.060661   -0.290306
12

C      0.380911   -1.004592    0.021450
C      1.742073   -0.828187    0.670875
C      2.427416   -0.030066   -0.316456
C      1.650700    1.280873    0.020686
C      0.320050    1.359685    0.208250
C     -0.364651    0.248532    0.053410
H      0.317509   -1.735115   -0.755426
H      1.871523   -0.710301    1.748514
H      2.953310   -0.345955   -1.162547
H      2.270358    2.197168   -0.018653
H     -0.201688    2.268134    0.338818
H     -1.513101    0.059762   -0.237330
12

C      0.510648   -0.981617   -0.055100
C      1.765266   -0.856331    0.636041
C      2.215039   -0.000116   -0.441290
C      1.796744    1.243954    0.147772
C      0.333842    1.212213    0.227168
C     -0.327110    0.058679   -0.161921
H      0.351760   -1.770586   -0.551500
H      1.732691   -0.492570    1.636170
H      2.842886   -0.296973   -1.198416
H      2.257272    2.189656    0.186306
H     -0.176178    2.157681    0.230200
H     -1.448449    0.295950   -0.083840
12

C      0.226004   -1.144714   -0.044216
C      1.805656   -1.115099    0.081042
C      2.539404    0.232497   -0.123792
C      1.858463    1.395758    0.013072
C      0.389104    1.333226    0.132197
C     -0.338859    0.144533    0.282077
H     -0.290490   -2.184339   -0.221758
H      1.560532   -0.724467    1.148913
H      3.428888    0.184636   -0.701855
H      2.246007    2.333235   -0.021573
H     -0.159095    2.273021    0.024981
H     -1.411204    0.031651    0.002503
12

C      0.324729   -1.062209   -0.058425
C      1.637668   -1.144100    0.253911
C      2.403226    0.013958   -0.222735
C      1.715899    1.323243   -0.130982
C      0.300392    1.282472    0.152566
C     -0.495530    0.210550    0.203424
H     -0.167527   -1.884964   -0.752834
H      2.032295   -0.677489    1.239041
H      3.485544    0.181848   -0.159296
H      2.377789    2.188820   -0.309182
H     -0.218928    2.272271    0.029522
H     -1.541146    0.055540    0.326580
12

C      0.330867   -1.097823   -0.082553
C      1.827963   -1.069060    0.106449
C      2.554132    0.225152   -0.112871
C      1.751509    1.291173   -0.215171
C      0.318862    1.340906   -0.112728
C     -0.317574    0.108080    0.453509
H     -0.233977   -1.774205   -0.710158
H      1.432649   -1.038067    1.252085
H      3.626265    0.230738   -0.231860
H      2.260848    2.284579   -0.351955
H     -0.328394    2.166065   -0.046854
H     -1.368741    0.092401    0.623697
12

C      0.179301   -1.043561    0.316287
C      1.664482   -1.002786    0.586985
C      2.256410    0.093114   -0.293556
C      1.589931    1.284843   -0.074683
C      0.214457    1.364255    0.008932
C     -0.634244    0.180556    0.099369
H      0.558638   -1.381278   -0.685999
H      2.239441   -1.447810    1.286817
H      3.423963    0.040113   -0.516212
H      2.455080    2.049441   -0.216850
H     -0.391826    2.176597   -0.119194
H     -1.701223    0.446455    0.179694
12

C      0.438639   -0.902189    0.056928
C      1.703044   -0.874292    0.908671
C      2.195550    0.097700   -0.184894
C      1.684633    1.438208   -0.118676
C      0.292022    1.405024   -0.035658
C     -0.414883    0.207928   -0.046261
H      0.324599   -1.845623   -0.633844
H      1.951043   -1.659186    1.542772
H      3.118235   -0.015383   -0.825117
H      2.220642    2.306487   -0.337598
H     -0.143496    2.289816    0.203491
H     -1.515616    0.311450    0.041775
12

C      0.351383   -1.027268    0.108740
C      1.750612   -0.963895    0.631759
C      2.277482    0.019040   -0.360388
C      1.587323    1.289844   -0.018187
C      0.256443    1.402758    0.243968
C     -0.433367    0.298863    0.156123
H      0.187512   -1.703376   -0.721776
H      2.122350   -1.129105    1.543659
H      3.226612   -0.246913   -0.767962
H      2.323883    2.254721   -0.188802
H     -0.440524    2.315363    0.098339
H     -1.355300    0.249908   -0.153885
12

C      0.453084   -1.142593   -0.119110
C      1.708975   -0.962355    0.666962
C      2.272950    0.192376    0.012414
C      1.772665    1.464849   -0.026391
C      0.356203    1.363583    0.119166
C     -0.237707    0.215933   -0.058917
H      0.078959   -1.948236   -0.800435
H      1.742580   -0.993093    1.748206
H      2.554613    0.032014   -0.935843
H      2.370476    2.272656   -0.335265
H     -0.017746    2.317061    0.281162
H     -1.200642   -0.052257    0.019642
12

C      0.379892   -1.155848   -0.087239
C      1.615619   -0.946469    0.715475
C      2.255000    0.217841    0.108623
C      1.710292    1.448474    0.032529
C      0.432398    1.402921    0.099645
C     -0.229799    0.190168   -0.028511
H      0.107514   -1.909500   -0.950993
H      1.799432   -0.985833    1.715624
H      2.769648   -0.077762   -0.967817
H      2.329232    2.301899   -0.482351
H     -0.052004    2.349054    0.331909
H     -1.262814   -0.075006    0.084696
12

C      0.375181   -1.022463    0.011100
C      1.725953   -0.870932    0.587760
C      2.258359    0.093985   -0.366040
C      1.644202    1.317891    0.027637
C      0.341253    1.397793    0.293885
C     -0.380314    0.228714    0.051352
H      0.244793   -1.678481   -0.826969
H      2.190898   -0.997460    1.643112
H      3.129721   -0.387398   -0.802583
H      2.062955    2.200349    0.007085
H     -0.113881    2.215274   -0.103712
H     -1.624709    0.262669    0.048962
12

C      0.364865   -1.046636   -0.176897
C      1.749526   -1.125585    0.238547
C      2.408525    0.200944   -0.106345
C      1.813794    1.363295   -0.103611
C      0.452560    1.290672    0.293868
C     -0.368827    0.096345   -0.045715
H     -0.110105   -2.068027   -0.185171
H      1.446021   -0.577949    1.104432
H      3.455977    0.080966   -0.439922
H      2.352229    2.298740   -0.575766
H     -0.278512    2.099758    0.711737
H     -1.431641    0.147416   -0.143568
12

C      0.425444   -1.091664   -0.154678
C      1.840765   -1.130324    0.360739
C      2.462026    0.125147   -0.117012
C      1.828343    1.436862   -0.069399
C      0.395898    1.267490    0.320876
C     -0.398324    0.079099   -0.012728
H     -0.334780   -1.938561   -0.374162
H      1.639280   -0.478702    1.268097
H      3.444196    0.043937   -0.435794
H      1.930694    2.244331   -0.671686
H      0.072808    2.014676    0.824850
H     -1.451940    0.187647   -0.367515
12

C      0.481118   -0.882812   -0.060375
C      1.575732   -0.841222    0.893781
C      2.322520    0.151190   -0.019679
C      1.697927    1.403400   -0.091996
C      0.350332    1.447013    0.177846
C     -0.297386    0.224091   -0.015827
H      0.541218   -1.778557   -0.583659
H      1.832761   -1.611034    1.512427
H      2.678124   -0.262038   -1.037285
H      2.435479    2.363532   -0.292735
H     -0.424410    2.381454    0.092367
H     -1.339006    0.164923   -0.003274
12

C      0.469268   -0.889938    0.269369
C      1.664170   -0.918658    0.973265
C      2.248256    0.112394    0.059196
C      1.628731    1.386436   -0.025823
C      0.280446    1.484636    0.088134
C     -0.355739    0.296494    0.014691
H      0.501558   -1.540612   -0.584469
H      2.192676   -1.818419    1.306843
H      2.607346    0.009385   -1.025607
H      2.408855    2.078796   -0.164594
H     -0.327596    2.390983   -0.240330
H     -1.463561    0.168443   -0.099087
12

C      0.439167   -1.157252   -0.317398
C      1.585277   -0.769498    0.475772
C      2.498880    0.218529   -0.175603
C      1.793733    1.440659   -0.077752
C      0.445891    1.317520    0.155804
C     -0.278902    0.064895    0.018870
H     -0.019295   -2.113747   -0.604972
H      1.525427   -1.048878    1.421746
H      3.309052   -0.210310   -0.527822
H      1.796824    2.418654   -0.429109
H     -0.011599    2.266430    0.344376
H     -1.230044    0.332938    0.287678
12

C      0.384225   -1.002006    0.135385
C      1.798424   -0.837697    0.372452
C      2.357764    0.055013   -0.497550
C      1.752256    1.218303   -0.150513
C      0.191642    1.432482    0.109187
C     -0.467926    0.059686    0.068806
H     -0.137829   -1.737629   -0.442885
H      2.139205   -0.661772    1.369429
H      3.385303   -0.082266   -0.760132
H      2.117297    1.883097    0.464000
H     -0.153594    2.330279   -0.001084
H     -1.512355    0.102450   -0.095504
12

C      0.266089   -1.034958   -0.068826
C      1.833211   -1.113368    0.238813
C      2.485761    0.131759   -0.176266
C      1.764395    1.401967   -0.008033
C      0.292355    1.310454    0.255187
C     -0.481294    0.139666    0.025171
H     -0.255065   -1.984520   -0.427521
H      1.795400   -0.499101    1.123183
H      3.417188    0.090052   -0.519362
H      2.414566    2.196902   -0.081707
H     -0.069433    2.282993    0.060075
H     -1.608763   -0.161905    0.150875
12

C      0.539749   -1.065253   -0.248611
C      1.705258   -0.917758    0.782364
C      2.428528    0.124702    0.015158
C      1.842042    1.536089   -0.018565
C      0.463111    1.473497    0.328999
C     -0.280684    0.169481    0.018937
H      0.255328   -1.526777   -1.069828
H      1.449105   -1.215569    1.733611
H      3.057869   -0.211450   -0.744344
H      1.975821    2.159350   -0.912722
H     -0.241302    2.232694    0.368621
H     -1.340412    0.000936    0.317972
12

C      0.482551   -1.153229   -0.334999
C      1.458104   -0.933915    0.620315
C      2.379945    0.077432   -0.034622
C      1.729339    1.283334   -0.033536
C      0.336056    1.359077    0.107724
C     -0.251695    0.142537    0.177960
H      0.576198   -1.927991   -0.879140
H      1.389275   -0.670840    1.546196
H      2.848484   -0.033690   -0.957054
H      2.381588    2.146399   -0.284884
H     -0.124419    2.356932    0.183025
H     -1.351015    0.113894    0.460605
12

C      0.428837   -1.066299    0.026763
C      1.790487   -0.748260    0.666271
C      2.459189    0.068517   -0.387560
C      1.675578    1.303371   -0.234812
C      0.315552    1.410994    0.123825
C     -0.475926    0.101792    0.050870
H      0.415478   -1.738547   -0.934928
H      1.641822   -1.076976    1.688437
H      3.462973   -0.306550   -0.817191
H      2.124807    2.147555   -0.206842
H     -0.347006    2.212508    0.317918
H     -1.637382    0.451835    0.278838
12

C      0.395167   -1.112757   -0.121796
C      1.503699   -0.741874    0.736368
C      2.482476    0.190072    0.008593
C      1.794508    1.387240   -0.152201
C      0.304729    1.537445    0.036132
C     -0.260117    0.108935   -0.308709
H      0.075486   -2.297127   -0.553935
H      1.914746   -1.003692    1.678089
H      2.644776   -0.116687   -1.006651
H      2.349076    2.334447   -0.206391
H     -0.030203    2.479514    0.690716
H     -1.319932   -0.005576   -0.228627
12

C      0.179006   -0.977781   -0.122936
C      1.587026   -0.831529    0.474169
C      2.376421    0.184990   -0.139179
C      1.734340    1.390786   -0.092841
C      0.350326    1.349170    0.167975
C     -0.386251    0.182997   -0.112794
H     -0.269157   -1.953881   -0.142590
H      2.206081   -1.245710    1.172446
H      3.540249   -0.084072   -0.409378
H      2.217516    2.377084   -0.402676
H     -0.242983    2.377976    0.476187
H     -1.438163   -0.010091   -0.296793
12

C      0.450200   -1.041552   -0.124249
C      1.665895   -1.127133    0.701456
C      2.365096    0.144713   -0.094288
C      1.663218    1.445035   -0.166769
C      0.308897    1.517095    0.069498
C     -0.458209    0.163370    0.041742
H      0.266623   -1.888148   -0.821357
H      1.814606   -1.157742    1.708919
H      3.274584   -0.012119   -0.946465
H      2.589313    2.177051   -0.276866
H     -0.417226    2.472318    0.182086
H     -1.668586    0.067051    0.297883
12

C      0.361012   -0.871962    0.014352
C      1.742874   -1.091908    0.606878
C      2.214873    0.108487   -0.008433
C      1.640136    1.392016   -0.106289
C      0.258950    1.548653   -0.050116
C     -0.381971    0.279666    0.222124
H      0.209839   -1.475186   -0.795128
H      2.124933   -1.304104    1.717338
H      2.779083   -0.099141   -0.851888
H      2.356387    2.141858   -0.154689
H     -0.096625    2.464658    0.000847
H     -1.355081   -0.333097   -0.023409
12

C      0.244651   -1.061976   -0.166379
C      1.486345   -0.646095    0.478321
C      2.407832    0.113267   -0.097806
C      1.772914    1.393818    0.021426
C      0.362699    1.402173    0.261114
C     -0.342435    0.203747    0.145116
H      0.034490   -1.905001   -0.672675
H      1.826434   -1.001875    1.520181
H      3.266271   -0.082679   -0.761327
H      2.228168    2.258042   -0.412974
H      0.005252    2.316097    0.244950
H     -1.438213   -0.229578    0.011645
12

C      0.291817   -1.103172   -0.107435
C      1.777068   -1.075732    0.046065
C      2.439803    0.160417   -0.260687
C      1.814839    1.394580   -0.044863
C      0.357925    1.247258    0.145308
C     -0.308605    0.032839    0.250560
H     -0.242051   -1.997687   -0.367960
H      1.532694   -0.662975    1.144219
H      3.504294    0.317936   -0.419773
H      2.428234    2.142497   -0.074297
H     -0.330245    2.150741   -0.094869
H     -1.411362    0.153237    0.355322
12

C      0.337753   -1.118252   -0.061053
C      1.764117   -1.126402    0.179634
C      2.488617    0.201587   -0.236368
C      1.738820    1.284986   -0.122941
C      0.355824    1.265974    0.062511
C     -0.286612    0.051860    0.112530
H     -0.263316   -2.052355   -0.388016
H      1.552086   -0.536562    1.249081
H      3.493631    0.013118   -0.524640
H      2.060896    2.386429   -0.145316
H     -0.003344    2.279734    0.408381
H     -1.384061    0.109824    0.037786
12

C      0.303636   -1.100320   -0.054858
C      1.769562   -1.166532    0.236141
C      2.485989    0.127924   -0.152759
C      1.788160    1.288375   -0.078940
C      0.389219    1.312049    0.142141
C     -0.343614    0.119959    0.020436
H     -0.275962   -1.844307   -0.372608
H      1.674986   -0.508063    1.188835
H      3.527358    0.053666   -0.446163
H      2.018612    2.257801   -0.360816
H     -0.086458    2.159501    0.526895
H     -1.397077    0.059886   -0.076714
12

C      0.330759   -1.134702   -0.072033
C      1.736503   -1.171289    0.327075
C      2.458720    0.033865   -0.095787
C      1.789434    1.282637   -0.241008
C      0.377048    1.274954    0.149766
C     -0.432916    0.128974    0.027137
H     -0.110094   -1.980150   -0.690855
H      1.598085   -0.603891    1.214986
H      3.557016    0.144231   -0.182444
H      2.043589    2.403609   -0.651787
H     -0.022086    2.143445    0.578290
H     -1.471646    0.238256    0.208249
12

C      0.415027   -0.856909    0.284549
C      1.774673   -1.037834    0.998156
C      2.300840    0.193534    0.037678
C      1.571978    1.543664   -0.098700
C      0.100528    1.593559   -0.136266
C     -0.406737    0.323214    0.173961
H      0.339975   -1.472079   -0.559120
H      2.270807   -2.002446    1.156217
H      2.854739   -0.223505   -0.852256
H      2.416556    2.150836   -0.160251
H     -0.449970    2.460834   -0.173052
H     -1.334006    0.087071   -0.099326
12

C      0.334844   -1.134815   -0.058087
C      1.749100   -1.121426    0.154931
C      2.573263    0.193253   -0.210629
C      1.875968    1.335909   -0.160802
C      0.303576    1.131994    0.200794
C     -0.493469    0.033971   -0.025971
H     -0.386886   -1.909861   -0.166827
H      1.831524   -0.441832    1.008791
H      3.619397    0.003255   -0.397569
H      2.296048    2.375627   -0.082505
H     -0.273546    2.016873    0.371864
H     -1.575407    0.276992   -0.062399
12

C      0.517427   -0.876103   -0.002788
C      1.626541   -1.115779    0.839735
C      2.207645    0.032307    0.056489
C      1.557001    1.336554    0.008578
C      0.260270    1.600142   -0.190937
C     -0.442453    0.304365    0.086603
H      0.252171   -1.821779   -0.471359
H      2.453464   -1.729182    1.081116
H      3.005609   -0.036376   -0.587079
H      2.098975    2.241134   -0.135147
H     -0.105164    2.616641   -0.247208
H     -1.577075    0.208016    0.133587
12

C      0.482234   -0.863818    0.219928
C      1.641824   -0.751192    0.989738
C      2.320994    0.146005   -0.044914
C      1.671417    1.409193   -0.082112
C      0.319784    1.419100   -0.061762
C     -0.389889    0.242761   -0.147966
H      0.461274   -1.681230   -0.447426
H      2.054695   -1.760113    1.220323
H      2.709501   -0.376373   -0.940464
H      2.073895    2.438390   -0.109493
H     -0.043177    2.381966    0.132041
H     -1.448141    0.155252   -0.156302
12

C      0.393585   -1.070417   -0.128088
C      1.774087   -1.223737    0.289168
C      2.425448    0.115957   -0.139816
C      1.699550    1.240064   -0.235658
C      0.303865    1.389871    0.199496
C     -0.379278    0.148514    0.186284
H     -0.214212   -1.793852   -0.851888
H      1.737348   -0.725670    1.304131
H      3.532857    0.105458   -0.268563
H      2.103991    2.197352   -0.282133
H     -0.134417    2.403396   -0.066156
H     -1.388414   -0.026996    0.564813
12

C      0.345420   -0.877028   -0.031627
C      1.723233   -0.674627    0.493517
C      2.611312    0.090701   -0.276309
C      1.741110    1.206449   -0.338250
C      0.151352    1.258226    0.158030
C     -0.607817    0.083962   -0.064676
H      0.117123   -1.899788   -0.384216
H      1.740922   -0.701486    1.501477
H      3.439754   -0.018323   -0.929433
H      2.383605    1.966776    0.039724
H     -0.144419    2.254691    0.584440
H     -1.647185    0.070387   -0.181088
12

C      0.320842   -0.818590   -0.157828
C      1.708906   -0.654120    0.426923
C      2.591854    0.099162   -0.392005
C      1.681576    1.221644   -0.336563
C      0.172491    1.244919    0.233192
C     -0.596127    0.185163   -0.118330
H      0.051214   -1.854796   -0.247094
H      1.824641   -0.496576    1.600276
H      3.499479   -0.178969   -0.911241
H      2.442756    1.958925    0.058940
H     -0.179484    2.032803    0.806615
H     -1.663737    0.020374   -0.391295
12

C      0.285827   -1.129980   -0.013309
C      1.648329   -0.769474    0.548357
C      2.333124   -0.091119   -0.593640
C      1.723687    1.237306   -0.189146
C      0.393049    1.218998    0.341925
C     -0.358398    0.063255   -0.072410
H     -0.008787   -2.008834   -0.552487
H      1.806865   -0.752778    1.613622
H      3.367842    0.117074   -0.501245
H      2.005570    2.316220   -0.362071
H      0.040767    2.272139    0.667832
H     -1.383463    0.287133   -0.315837
12

C      0.495902   -1.159670    0.003596
C      2.021517   -1.065659    0.507307
C      2.300307    0.176251   -0.167937
C      1.716574    1.306559   -0.047928
C      0.359655    1.292255    0.286297
C     -0.271288    0.022283    0.009834
H     -0.120945   -1.921824   -0.344914
H      1.338497   -0.724471    1.378718
H      3.131665    0.198358   -0.892489
H      2.268839    2.233489   -0.405918
H     -0.084874    2.217969    0.573371
H     -1.301439    0.184399   -0.328347
12

C      0.387793   -1.080276    0.000390
C      1.964782   -1.037478    0.468726
C      2.380990    0.128295   -0.185741
C      1.684038    1.356664   -0.072796
C      0.437344    1.335996    0.281322
C     -0.318504    0.102065   -0.023166
H     -0.057424   -2.127598   -0.309512
H      1.267107   -0.746789    1.338898
H      3.271909    0.235461   -0.805975
H      2.104002    2.201262   -0.488342
H      0.047101    2.241833    0.684107
H     -1.314728    0.150505   -0.316321
12

C      0.298189   -0.968856   -0.178164
C      1.778218   -1.181466    0.353793
C      2.435310    0.038739   -0.215551
C      1.801900    1.369837   -0.196609
C      0.368853    1.295267    0.342652
C     -0.437167    0.083737   -0.050747
H     -0.011436   -2.111855   -0.311413
H      1.644581   -0.420815    1.295015
H      3.463654   -0.118792   -0.630016
H      2.147592    2.333953   -0.274026
H     -0.171657    2.209613    0.654471
H     -1.463626    0.230576   -0.217814
12

C      0.337193   -0.994783   -0.166877
C      1.811642   -1.169258    0.306020
C      2.476373    0.093556   -0.238811
C      1.820460    1.378969   -0.211221
C      0.349227    1.254825    0.335470
C     -0.439158    0.066101   -0.022077
H     -0.136613   -2.043909   -0.275620
H      1.654684   -0.424742    1.257783
H      3.473664   -0.072158   -0.557920
H      2.240712    2.314176   -0.254041
H     -0.225449    2.154898    0.615202
H     -1.508324    0.202263   -0.216319
12

C      0.326125   -1.075685    0.071408
C      1.805206   -1.126720    0.594485
C      2.228986   -0.062033   -0.372534
C      1.542063    1.210110   -0.171155
C      0.290925    1.465394    0.180750
C     -0.403151    0.234770   -0.023410
H      0.454626   -1.681108   -0.827126
H      1.875618   -1.073063    1.763455
H      3.234747   -0.012576   -0.647590
H      1.997796    2.194410   -0.351168
H      0.032694    2.429445    0.326913
H     -1.531224    0.256995    0.027561
12

C      0.251394   -1.039159    0.179990
C      1.661280   -0.864839    0.605346
C      2.214522   -0.045845   -0.361413
C      1.723823    1.362198   -0.253237
C      0.380078    1.386699    0.212176
C     -0.372168    0.261874    0.174282
H      0.282934   -1.472785   -0.883613
H      1.776687   -1.103143    1.651954
H      3.282343   -0.000657   -0.690200
H      2.300859    2.197052   -0.326179
H     -0.244936    2.143881    0.239490
H     -1.402404   -0.065336    0.022994
12

C      0.352607   -1.147634    0.131561
C      1.717770   -0.941239    0.487660
C      2.226264   -0.039191   -0.401821
C      1.616444    1.350171   -0.212055
C      0.305487    1.370036    0.299758
C     -0.354201    0.156761    0.192880
H      0.258965   -1.571895   -0.891517
H      1.894682   -0.929325    1.604654
H      3.218424   -0.103381   -0.553413
H      2.369524    2.163255   -0.298364
H     -0.288704    2.384192    0.232601
H     -1.462850    0.068191   -0.020355
12

C      0.500643   -0.879904   -0.019707
C      1.638251   -0.927482    0.927958
C      2.125632    0.057419    0.141890
C      1.704998    1.527813   -0.170665
C      0.280729    1.586536   -0.086032
C     -0.329514    0.383048    0.010431
H      0.284271   -1.851529   -0.370158
H      2.038454   -1.940688    0.910213
H      3.018402   -0.181771   -0.592518
H      2.329953    2.485044   -0.317885
H     -0.380964    2.397698   -0.065696
H     -1.356446    0.103756    0.203758
12

C      0.249251   -1.063956   -0.240061
C      1.512613   -0.593563    0.393400
C      2.360977    0.138426   -0.409862
C      1.735678    1.338538   -0.168854
C      0.352535    1.273880    0.251525
C     -0.375533    0.153239   -0.117776
H     -0.051304   -2.036764   -0.312352
H      1.778891   -0.774935    1.602082
H      3.590364   -0.079258   -0.745456
H      2.214342    2.202004   -0.157739
H     -0.059457    2.121323    0.622434
H     -1.453947    0.081005   -0.145751
12

C      0.291645   -1.030525   -0.220495
C      1.508305   -0.581312    0.398198
C      2.362728    0.091785   -0.387185
C      1.749617    1.300530   -0.169155
C      0.364723    1.257358    0.260795
C     -0.365401    0.203084   -0.117673
H     -0.021828   -2.102922   -0.305612
H      1.763179   -0.817663    1.552145
H      3.518177   -0.087390   -0.666725
H      2.229651    2.327992   -0.264591
H     -0.061857    2.077089    0.683687
H     -1.484529    0.121913   -0.191798
12

C      0.567717   -0.999194   -0.102915
C      1.763076   -1.004638    0.695294
C      2.379745    0.117080   -0.098687
C      1.729048    1.364614    0.048549
C      0.288260    1.417763    0.232319
C     -0.282144    0.170459   -0.061713
H      0.178921   -1.837271   -0.740368
H      1.620552   -0.950305    1.891936
H      2.931835   -0.148261   -1.215675
H      2.271664    2.238355   -0.412353
H     -0.205329    2.280293    0.469594
H     -1.388935    0.111043   -0.134390
12

C      0.473107   -0.923136   -0.068978
C      1.685316   -1.009639    0.815062
C      2.312249    0.130429   -0.001195
C      1.681705    1.459943    0.085376
C      0.230338    1.524469    0.276787
C     -0.301492    0.240761    0.088986
H      0.349154   -1.594787   -0.823451
H      2.069975   -1.350974    1.884669
H      2.645654   -0.250502   -1.122308
H      2.214726    2.063700   -0.471259
H     -0.228884    2.442365    0.210936
H     -1.277438    0.027308   -0.303033
12

C      0.209282   -1.012928    0.026593
C      1.703390   -0.751148    0.585314
C      2.350795    0.007434   -0.495689
C      1.636994    1.260223   -0.326039
C      0.278286    1.293938    0.404295
C     -0.528339    0.134363    0.160683
H      0.097590   -1.718773   -0.745170
H      1.876305   -0.880252    1.754567
H      3.640292    0.030280   -0.709910
H      2.181697    2.088309   -0.313120
H     -0.021920    2.251178    0.497451
H     -1.569961    0.057315   -0.267384
12

C      0.262450   -1.057614    0.112118
C      1.732405   -0.818884    0.607871
C      2.413566   -0.065190   -0.441637
C      1.649495    1.193923   -0.353081
C      0.269801    1.293067    0.320407
C     -0.511018    0.148668    0.167836
H      0.002120   -1.687626   -0.820707
H      2.056275   -0.852292    1.661174
H      3.337059    0.038400   -0.632727
H      2.308798    2.170060   -0.145326
H     -0.200943    2.353803    0.314910
H     -1.465597    0.043624   -0.219246
12

C      0.419964   -1.254156   -0.357270
C      1.544009   -0.952312    0.461171
C      2.437364    0.177763   -0.077833
C      1.913196    1.512874    0.028451
C      0.505572    1.426796    0.192398
C     -0.230512    0.118460   -0.137138
H     -0.183270   -2.120707   -0.231813
H      1.693815   -0.981353    1.643071
H      3.033265    0.045102   -0.999529
H      2.127246    2.436776   -0.197420
H     -0.173531    2.204385    0.350941
H     -1.232708    0.146311   -0.103441
12

C      0.312991   -1.034836    0.158973
C      1.717869   -0.863019    0.610483
C      2.404511   -0.115300   -0.322267
C      1.642657    1.131246   -0.152673
C      0.291054    1.362246    0.069216
C     -0.591766    0.282974    0.100376
H      0.248587   -1.385198   -0.836873
H      2.077380   -1.236135    1.636321
H      3.351727    0.200726   -0.530506
H      2.163411    2.089318   -0.389062
H     -0.081297    2.308966    0.184004
H     -1.682714    0.018952    0.043597
12

C      0.232659   -1.037724    0.208999
C      1.685681   -0.894112    0.684711
C      2.379924   -0.203011   -0.297355
C      1.633495    1.192262   -0.182724
C      0.282880    1.335253   -0.000299
C     -0.610043    0.326860    0.217565
H      0.452833   -1.346424   -0.923046
H      2.046891   -1.261660    1.578570
H      3.463613    0.008492   -0.574750
H      2.055422    2.193355   -0.431811
H     -0.111058    2.377539    0.269114
H     -1.657888    0.069108    0.022615
12

C      0.391137   -1.118362   -0.074200
C      1.816271   -1.179329    0.246291
C      2.418959    0.142920   -0.225090
C      1.754602    1.338549   -0.103841
C      0.371920    1.304030    0.155080
C     -0.360149    0.016797    0.176480
H     -0.173904   -2.025075   -0.433216
H      1.469036   -0.799765    1.257804
H      3.578903    0.208429   -0.502198
H      2.173622    2.283535   -0.340958
H     -0.240080    2.341872    0.257105
H     -1.345905    0.246340    0.158333
12

C      0.300371   -1.023459   -0.032837
C      1.672062   -0.962896    0.210368
C      2.381695    0.174304   -0.250425
C      1.746456    1.414254   -0.267041
C      0.345014    1.381912    0.101179
C     -0.379363    0.186211    0.255394
H     -0.166705   -1.884997   -0.590572
H      2.188051   -0.122002    1.440154
H      3.566499    0.176235   -0.373031
H      2.378558    2.236119   -0.455573
H     -0.375211    2.307880    0.294684
H     -1.342703   -0.020493    0.110378
12

C      0.287510   -1.028697   -0.048019
C      1.680154   -0.948591    0.178600
C      2.398058    0.192770   -0.242731
C      1.726150    1.417522   -0.270135
C      0.315634    1.357813    0.107468
C     -0.372783    0.157961    0.228686
H     -0.075982   -1.859024   -0.613265
H      2.163955   -0.150440    1.440615
H      3.494215    0.123027   -0.329332
H      2.301357    2.217281   -0.431075
H     -0.285704    2.303587    0.249747
H     -1.341934    0.051421    0.172582
12

C      0.325523   -1.136485   -0.509281
C      1.477403   -0.890321    0.285003
C      2.342045    0.226147   -0.003547
C      1.728024    1.480861   -0.232972
C      0.460958    1.395788   -0.121388
C     -0.144441    0.063334    0.000053
H     -0.249876   -1.994223   -0.274697
H      1.602993   -1.348606    1.214814
H      3.287762    0.260362   -0.178579
H      2.145593    2.445820   -0.308965
H     -0.059600    2.244651    0.023908
H     -1.061974    0.012612    0.677242
12

C      0.409925   -0.901468    0.161553
C      1.576510   -0.873813    1.052413
C      2.187946    0.150244    0.023972
C      1.611380    1.429947   -0.087489
C      0.312711    1.490389   -0.082078
C     -0.368738    0.273367   -0.087583
H      0.372277   -1.823146   -0.379074
H      2.167431   -1.814379    0.969714
H      3.030565   -0.167864   -0.825954
H      2.226333    2.346003   -0.167943
H     -0.225374    2.369764    0.002111
H     -1.446555    0.280895   -0.008053
12

C      0.549006   -0.837542    0.163519
C      1.738576   -1.039170    0.910699
C      2.200262    0.010044   -0.092835
C      1.662833    1.370399   -0.098960
C      0.273322    1.473571    0.138656
C     -0.321459    0.258271   -0.001569
H      0.264476   -1.624440   -0.348978
H      2.153562   -1.923155    1.224136
H      2.917447   -0.021917   -0.716546
H      2.021807    2.389312   -0.319087
H     -0.144077    2.472967   -0.058210
H     -1.461344    0.231601   -0.229235
12

C      0.606607   -0.786045    0.151108
C      1.826458   -0.965222    0.804931
C      2.176164    0.046569   -0.118282
C      1.580480    1.481305   -0.045395
C      0.148030    1.558298    0.260519
C     -0.426029    0.369288    0.088487
H     -0.003875   -1.628405   -0.495061
H      2.151932   -1.816671    1.427287
H      3.202863   -0.159626   -0.803305
H      2.271006    2.201031   -0.471621
H     -0.403842    2.450802    0.092097
H     -1.275384    0.008614   -0.319175
12

C      0.411154   -1.226474    0.101435
C      1.686921   -0.867679    0.637507
C      2.419927    0.210651    0.152739
C      1.744465    1.493837    0.051218
C      0.377758    1.567418   -0.040931
C     -0.243424    0.119629   -0.014043
H     -0.006127   -2.044949   -0.387513
H      2.152775   -1.361648    1.377771
H      2.344553    0.064301   -0.910213
H      2.512931    2.262758   -0.197842
H     -0.241459    2.484028    0.259922
H     -1.305062    0.058068   -0.458460
12

C      0.456104   -0.901601    0.154739
C      1.600390   -0.904894    0.963085
C      2.271106    0.025369   -0.082633
C      1.708020    1.516262   -0.101953
C      0.299479    1.432607   -0.104507
C     -0.377998    0.199533    0.131211
H      0.375594   -1.576884   -0.527400
H      2.065441   -1.744421    0.976795
H      3.202011   -0.367012   -0.739637
H      2.130686    2.486907   -0.130304
H     -0.361481    2.291889   -0.127249
H     -1.514942    0.302184    0.159443
12

C      0.457643   -0.958313    0.002524
C      1.733637   -1.025746    0.960883
C      2.290332    0.018230    0.017235
C      1.698155    1.401443   -0.197879
C      0.238915    1.523287   -0.165513
C     -0.331904    0.274361    0.004974
H     -0.047834   -1.786477   -0.607858
H      2.370002   -1.837324    1.229900
H      3.081324   -0.074279   -0.645274
H      2.202292    2.449247   -0.036372
H     -0.456792    2.564210   -0.286395
H     -1.381359    0.211299    0.295367
12

C      0.369931   -1.140757    0.002723
C      1.767356   -1.322487    0.269859
C      2.524685    0.280611   -0.204209
C      1.782836    1.301378   -0.034194
C      0.462321    1.255138    0.162531
C     -0.250008    0.132634    0.229488
H     -0.263036   -1.773150   -0.500075
H      1.532934   -0.911813    1.396869
H      3.404707    0.340246   -0.639287
H      2.122177    2.318882   -0.246873
H     -0.151434    2.173295   -0.067578
H     -1.448058    0.105963    0.202335
12

C      0.285110   -1.125493   -0.001994
C      1.719964   -1.292036    0.359881
C      2.381921    0.117610   -0.191478
C      1.827858    1.333505   -0.069154
C      0.322324    1.326465    0.093039
C     -0.394797    0.057141    0.188654
H     -0.168504   -1.902876   -0.791384
H      1.867544   -0.669582    1.452123
H      3.409125    0.156987   -0.567631
H      2.194054    2.280554   -0.192436
H     -0.205553    2.254117    0.034031
H     -1.384636    0.223548    0.257939
12

C      0.375970   -1.033909   -0.050852
C      1.848097   -1.065618    0.232277
C      2.357811    0.109071   -0.296397
C      1.734545    1.414772    0.006485
C      0.400252    1.359679    0.209709
C     -0.420438    0.098427    0.078125
H     -0.063323   -2.085785   -0.115639
H      1.640991   -0.601812    1.236714
H      3.237455    0.018060   -0.733765
H      2.448019    2.236128   -0.087661
H     -0.202951    2.291324    0.439893
H     -1.502016    0.019603   -0.347300
12

C      0.314095   -1.043493   -0.080681
C      1.677275   -1.124366    0.267763
C      2.399669    0.060074   -0.125655
C      1.709725    1.309598   -0.217748
C      0.313423    1.247078    0.249959
C     -0.440489    0.121474    0.086583
H      0.170260   -2.058273   -0.549221
H      1.616911   -0.570882    1.304958
H      3.412111   -0.030982   -0.449913
H      2.059435    2.316992   -0.456596
H      0.047667    2.215818    0.574196
H     -1.425672    0.316901   -0.032054
12

C      0.492447   -0.916362    0.195048
C      1.752198   -0.962425    0.931553
C      2.195603    0.148133   -0.026983
C      1.622114    1.444008   -0.153627
C      0.257807    1.529079   -0.032895
C     -0.345811    0.268873   -0.022433
H      0.351597   -1.454298   -0.642831
H      2.301242   -1.745995    1.351531
H      2.845831   -0.395757   -0.708239
H      2.286890    2.286256   -0.333953
H     -0.418138    2.341080    0.208555
H     -1.487369    0.217347   -0.194136
12

C      0.402996   -1.180656   -0.095737
C      1.824483   -1.195594    0.209883
C      2.487096    0.136075   -0.174065
C      1.796843    1.318740   -0.154584
C      0.338850    1.254321    0.236105
C     -0.304503    0.094257    0.146138
H     -0.323081   -2.105692   -0.470129
H      1.433770   -0.787575    1.335877
H      3.466353    0.512658   -0.369380
H      2.137651    2.257621   -0.515426
H     -0.066867    2.165629    0.286677
H     -1.339181    0.290156    0.136230
12

C      0.354130   -1.153306   -0.115581
C      1.799827   -1.192739    0.230743
C      2.468966    0.157115   -0.146882
C      1.767381    1.356899   -0.101435
C      0.329445    1.229361    0.118031
C     -0.362999    0.088340    0.138510
H     -0.096366   -2.177151   -0.415054
H      1.429815   -0.858798    1.183234
H      3.484001    0.289225   -0.406555
H      2.124381    2.372248   -0.389216
H     -0.079356    2.268826    0.200160
H     -1.364814    0.379920    0.275635
12

C      0.237769   -1.072999   -0.179346
C      1.748478   -1.027432    0.053402
C      2.490207    0.144847   -0.188541
C      1.838335    1.371308    0.033658
C      0.418899    1.276908   -0.070840
C     -0.443090    0.064018    0.202109
H     -0.323037   -1.908585   -0.446512
H      1.791335   -0.577799    1.236772
H      3.556611    0.003184   -0.527909
H      2.337801    2.338025    0.135878
H     -0.265276    2.203172   -0.122215
H     -1.533622   -0.054707    0.445133
12

C      0.256141   -1.105554   -0.117055
C      1.740396   -1.020386    0.059546
C      2.473900    0.128405   -0.164749
C      1.850937    1.352795    0.035736
C      0.367748    1.248903   -0.052177
C     -0.429320    0.022506    0.223531
H     -0.457667   -1.808144   -0.350664
H      1.858009   -0.606863    1.041538
H      3.641527    0.149271   -0.437187
H      2.315471    2.288741    0.131699
H     -0.210019    2.175420   -0.211112
H     -1.552712   -0.065153    0.412484
12

C      0.495928   -0.865438   -0.117303
C      1.620944   -0.906554    0.807839
C      2.266249    0.063655    0.019872
C      1.649432    1.494813   -0.050621
C      0.282028    1.550590   -0.044922
C     -0.267342    0.293277    0.128953
H      0.398621   -1.843896   -0.549496
H      1.959431   -1.868316    1.211057
H      2.964743   -0.317876   -0.628094
H      2.040153    2.448412   -0.351037
H     -0.279201    2.407417   -0.108110
H     -1.276576    0.303856    0.253452
12

C      0.456894   -0.898605   -0.092578
C      1.586496   -0.895626    0.929900
C      2.253647    0.049298    0.051223
C      1.640692    1.478410   -0.096711
C      0.263388    1.577803   -0.032646
C     -0.348759    0.368604    0.046852
H      0.258977   -1.851116   -0.524856
H      2.112837   -1.832412    1.159717
H      3.115438   -0.157998   -0.673788
H      2.312260    2.363328   -0.350677
H     -0.375230    2.471120   -0.050772
H     -1.422230    0.087134    0.205926
12

C      0.485126   -1.201785   -0.225364
C      1.668814   -0.953378    0.715977
C      2.342160    0.155321   -0.054237
C      1.724756    1.502439    0.018642
C      0.401542    1.549781   -0.008539
C     -0.330199    0.157008   -0.119378
H     -0.069850   -2.098848   -0.624804
H      1.857461   -1.338242    1.693855
H      2.954782    0.021615   -0.931148
H      2.233848    2.444104   -0.224858
H     -0.028084    2.580227    0.128463
H     -1.385946   -0.058302    0.202981
12

C      0.308818   -1.144930   -0.104231
C      1.711110   -1.149417    0.149860
C      2.476519    0.097518   -0.152967
C      1.816195    1.328440   -0.045315
C      0.320629    1.281195    0.236772
C     -0.403693    0.099387   -0.042116
H     -0.172439   -1.933084   -0.565198
H      1.805524   -0.464990    1.379793
H      3.496307    0.025616   -0.440905
H      2.154490    2.248465   -0.340752
H     -0.145102    2.173652    0.363943
H     -1.513948    0.198087    0.132707
12

C      0.362793   -1.143958   -0.073623
C      1.785157   -1.128684    0.104374
C      2.504580    0.214725   -0.107520
C      1.733826    1.286386   -0.132485
C      0.377976    1.278777    0.002967
C     -0.325115    0.135792    0.282781
H     -0.329850   -1.935501   -0.606836
H      1.704846   -0.781263    1.318703
H      3.578295    0.088314   -0.405671
H      2.192289    2.286990   -0.231121
H     -0.386896    2.171483    0.102148
H     -1.343490    0.286879    0.317873
12

C      0.342013   -1.153941   -0.105778
C      1.746785   -1.113925   -0.001540
C      2.511100    0.249494   -0.105570
C      1.730087    1.302507   -0.099478
C      0.362352    1.327697    0.046894
C     -0.318975    0.117429    0.241866
H     -0.333230   -1.774864   -0.726949
H      1.797631   -0.838743    1.458850
H      3.557738    0.035776   -0.283007
H      2.301557    2.305575   -0.334036
H     -0.409620    2.157476    0.034920
H     -1.433028    0.145460    0.445417
12

C      0.452924   -0.791296    0.182935
C      1.657383   -0.815962    0.971887
C      2.440262    0.113677    0.003190
C      1.603951    1.451198   -0.105925
C      0.264848    1.442972   -0.112162
C     -0.360857    0.329898   -0.068663
H      0.398454   -1.539644   -0.623742
H      2.104985   -1.847862    1.300939
H      2.865934   -0.342349   -0.855028
H      2.118435    2.260051   -0.208332
H     -0.283903    2.375283    0.024914
H     -1.408006    0.123974    0.061578
12

C      0.507990   -1.104266   -0.398067
C      1.582359   -0.862012    0.516596
C      2.512578    0.287896   -0.013017
C      1.833084    1.433686   -0.093896
C      0.499808    1.339749    0.396632
C     -0.195165    0.086214   -0.084011
H     -0.191746   -2.021524   -0.423083
H      1.516191   -1.053879    1.676055
H      3.215328    0.121601   -0.840919
H      2.151056    2.288548   -0.616128
H     -0.116813    2.161597    0.497347
H     -1.460261    0.082331   -0.045919
12

C      0.544226   -1.136654   -0.430279
C      1.627191   -0.847164    0.498299
C      2.465673    0.302987   -0.009735
C      1.766875    1.490996   -0.141092
C      0.523710    1.362424    0.412760
C     -0.195690    0.068265   -0.054772
H     -0.281202   -2.021802   -0.478179
H      1.493296   -1.164467    1.731226
H      3.251741    0.160056   -0.753110
H      2.137835    2.269382   -0.692927
H     -0.162977    2.102136    0.467653
H     -1.316269    0.173779    0.021746
12

C      0.349441   -0.993752   -0.394204
C      1.525500   -1.001951    0.512475
C      2.275673    0.151183   -0.113258
C      1.734957    1.441074   -0.250751
C      0.399194    1.530974    0.066066
C     -0.229923    0.116466    0.092567
H      0.017057   -1.985792   -0.741421
H      1.644363   -1.068470    1.523019
H      3.331736    0.030869   -0.398883
H      2.290031    2.294572   -0.500555
H     -0.150602    2.410239    0.308695
H     -1.333016   -0.165473    0.467841
12

C      0.313703   -1.165309   -0.273226
C      1.489261   -0.951830    0.351136
C      2.237395    0.130188   -0.267173
C      1.765858    1.450768   -0.055897
C      0.361014    1.460996    0.117641
C     -0.410561    0.081629   -0.035399
H      0.128755   -2.020638   -0.680343
H      1.492235   -0.955516    1.463654
H      3.483058   -0.090069   -0.623776
H      2.305198    2.427795   -0.148828
H     -0.263000    2.302587   -0.053699
H     -1.048505    0.089337    0.777501
12

C      0.379445   -1.084335    0.051758
C      1.831968   -1.157579    0.055482
C      2.451354    0.287225   -0.360466
C      1.776949    1.364293   -0.162503
C      0.385936    1.287894    0.314704
C     -0.273646    0.052071    0.388687
H     -0.479091   -1.683463   -0.281247
H      1.536965   -0.834502    1.217720
H      3.624735    0.055666   -0.448779
H      2.232045    2.399889   -0.180537
H     -0.293579    2.130556    0.093586
H     -1.318671   -0.057776   -0.116814
12

C      0.309656   -1.149136   -0.061050
C      1.725487   -1.173858    0.104586
C      2.535425    0.103777   -0.154536
C      1.767919    1.347948   -0.220992
C      0.371466    1.226516    0.119397
C     -0.376271    0.083864    0.327566
H     -0.253179   -1.720359   -0.739917
H      1.789587   -0.805709    1.267372
H      3.598269    0.190672   -0.042268
H      2.157339    2.286169   -0.490909
H     -0.277428    2.116886    0.112543
H     -1.493861    0.253170    0.349798
12

C      0.349994   -1.090499    0.003477
C      1.729554   -0.922249    0.960515
C      2.138220    0.106581    0.077265
C      1.641025    1.480120   -0.155543
C      0.204515    1.602330    0.044182
C     -0.352722    0.248180   -0.045076
H      0.580811   -1.654117   -0.831104
H      2.161756   -1.843279    1.417290
H      2.863978   -0.282380   -0.508195
H      2.184823    2.303415   -0.722842
H     -0.221395    2.504265    0.308095
H     -1.426150    0.307574    0.023525
12

C      0.366704   -0.989099    0.135312
C      1.651482   -0.937347    0.993361
C      2.115809    0.041195   -0.024918
C      1.623593    1.427216   -0.254286
C      0.264794    1.581672   -0.084923
C     -0.413585    0.300040   -0.047577
H      0.530118   -1.583746   -0.786021
H      2.091919   -1.833011    1.367043
H      3.183362   -0.176550   -0.540357
H      2.121247    2.247652   -0.642800
H     -0.242316    2.473207    0.399316
H     -1.438715    0.208714    0.057439
12

C      0.468172   -1.141736   -0.157711
C      1.627459   -0.899961    0.508397
C      2.554491    0.090355    0.036345
C      1.905049    1.520795    0.017336
C      0.426182    1.344081    0.147865
C     -0.230158    0.228009   -0.153423
H     -0.065280   -2.019266   -0.184022
H      1.664263   -1.243557    1.625179
H      2.520762    0.175090   -1.066069
H      2.260945    2.547324   -0.192885
H      0.017561    2.242665    0.254580
H     -1.295034   -0.083859   -0.264001
12

C      0.291127   -1.087468   -0.371962
C      1.537310   -0.950534    0.380639
C      2.406272    0.229895   -0.173761
C      1.700724    1.568917   -0.246055
C      0.413560    1.414866    0.013360
C     -0.197654    0.136014    0.279306
H     -0.085660   -2.100136   -0.481503
H      1.571199   -1.233187    1.394276
H      3.579031    0.061963   -0.543826
H      2.298314    2.348451   -0.189471
H     -0.271557    2.321928    0.020423
H     -1.388256    0.049228    0.490164
12

C      0.408561   -1.171600   -0.459356
C      1.607908   -0.848287    0.328417
C      2.496492    0.199477   -0.049646
C      1.865835    1.441504   -0.008975
C      0.401156    1.379016    0.000494
C     -0.297516    0.122913    0.147391
H     -0.206812   -2.075320   -0.392466
H      1.362762   -1.013975    1.358743
H      3.483732    0.231308   -0.686110
H      2.352412    2.321938   -0.291722
H     -0.237978    2.208084    0.072226
H     -1.382141   -0.035117    0.552595
12

C      0.402948   -0.874169   -0.038075
C      1.743542   -0.824517    0.572814
C      2.375841   -0.023220   -0.563693
C      1.574356    1.348938   -0.143952
C      0.269063    1.281773    0.203073
C     -0.500042    0.136575    0.164629
H      0.229101   -1.664340   -0.648445
H      1.819301   -0.546303    1.579957
H      3.465418   -0.250163   -0.922757
H      2.377865    1.883274    0.124816
H     -0.224468    2.357181    0.335379
H     -1.678513   -0.065089   -0.092155
12

C      0.349853   -0.941585    0.058804
C      1.821738   -0.992118    0.602793
C      2.406433   -0.209788   -0.525243
C      1.652770    1.053494   -0.168475
C      0.261377    1.306036    0.204330
C     -0.504191    0.090016    0.133332
H      0.127502   -1.682572   -0.592578
H      2.036573   -0.537041    1.538604
H      3.452905    0.093725   -0.811431
H      2.140813    1.942983    0.075857
H     -0.215141    2.417651    0.320525
H     -1.676222    0.219138   -0.264928
12

C      0.436834   -0.978270   -0.048590
C      1.821071   -1.184658    0.652517
C      2.407004    0.089103   -0.009671
C      1.613548    1.330303    0.165461
C      0.284296    1.421999   -0.212305
C     -0.394941    0.269041   -0.024509
H      0.092570   -1.858394   -0.523551
H      2.112096   -1.380145    1.650102
H      3.006975    0.006500   -1.007430
H      2.119362    2.298012   -0.146652
H     -0.250069    2.335672    0.037637
H     -1.394335    0.410776    0.038579
12

C      0.465175   -1.052732    0.057463
C      1.780547   -1.035640    0.651129
C      2.305485    0.090427   -0.256835
C      1.740077    1.461988    0.247508
C      0.280032    1.444404    0.097469
C     -0.289716    0.222995    0.068106
H      0.164276   -1.723556   -0.800397
H      1.920730   -1.142001    1.708727
H      2.913780   -0.260682   -1.063952
H      2.227815    2.308286   -0.123805
H     -0.292896    2.264977   -0.081654
H     -1.360895    0.181473    0.067831
12

C      0.439643   -1.104917   -0.276083
C      1.560311   -0.780066    0.546253
C      2.302141    0.259060   -0.061952
C      1.796130    1.537312   -0.018833
C      0.410196    1.338425    0.116191
C     -0.272987    0.085880   -0.128776
H      0.195923   -1.947289   -0.686495
H      1.624222   -1.125354    1.705277
H      2.986232   -0.216565   -0.770734
H      2.244133    2.360179   -0.510815
H     -0.066375    2.278731    0.467211
H     -1.365159    0.074544    0.190347
12

C      0.503801   -1.100414   -0.377432
C      1.602852   -0.823058    0.648221
C      2.369288    0.299948    0.049421
C      1.837558    1.580190    0.113088
C      0.376985    1.416526    0.161433
C     -0.197580    0.109265   -0.164931
H     -0.033821   -2.191211   -0.557732
H      1.526518   -1.179376    1.563206
H      2.913205   -0.034514   -0.838907
H      2.295296    2.310407   -0.621820
H     -0.165406    2.269404    0.415376
H     -1.174286    0.102774    0.181668
12

C      0.221507   -1.083742    0.185023
C      1.638678   -0.819343    0.594957
C      2.417714    0.011362   -0.393058
C      1.647625    1.231485   -0.162898
C      0.242473    1.347277    0.251829
C     -0.503729    0.141091    0.162062
H      0.177690   -1.550850   -0.926048
H      2.066238   -1.082644    1.597314
H      3.445298    0.025450   -0.463616
H      2.180144    2.049194   -0.520705
H     -0.230894    2.277972    0.361224
H     -1.448333    0.212688   -0.114496
12

C      0.489894   -1.105714   -0.197964
C      1.680097   -0.950478    0.666007
C      2.530544    0.111003    0.074476
C      1.729781    1.382687    0.088449
C      0.389223    1.554224    0.083274
C     -0.153706    0.215264   -0.092150
H     -0.128407   -1.894598   -0.363516
H      1.936901   -1.379511    1.605247
H      2.670162    0.101520   -1.066099
H      2.324891    2.342659   -0.180705
H     -0.306259    2.432041    0.044055
H     -1.308711   -0.049156   -0.089483
12

C      0.363964   -1.179758   -0.247270
C      1.507545   -0.804712    0.569478
C      2.438741    0.229169   -0.180289
C      1.729543    1.384234   -0.111131
C      0.375311    1.429284    0.220216
C     -0.279090    0.093731    0.011386
H     -0.098600   -2.202114   -0.663286
H      1.715145   -0.975970    1.561159
H      3.320567   -0.020687   -0.790202
H      2.261546    2.326764   -0.258507
H     -0.169200    2.356665    0.243721
H     -1.311062    0.123336    0.216315
12

C      0.429093   -1.171533   -0.288176
C      1.549748   -0.856656    0.530543
C      2.331063    0.199817   -0.058358
C      1.880970    1.534598   -0.122071
C      0.547336    1.324839    0.167878
C     -0.231037    0.140076   -0.011504
H     -0.024438   -2.123579   -0.498306
H      1.570327   -0.990122    1.536007
H      3.070267   -0.113927   -0.859205
H      2.323695    2.601932   -0.278199
H     -0.179639    2.132078    0.343983
H     -1.412974    0.082416    0.108998
12

C      0.354288   -1.007684    0.155724
C      1.736923   -0.937530    0.633553
C      2.246219   -0.041396   -0.319029
C      1.649190    1.357947   -0.354041
C      0.339844    1.287688    0.044134
C     -0.496025    0.198779    0.141626
H      0.335295   -1.621986   -0.895546
H      1.953084   -0.903512    1.675340
H      3.173002   -0.234086   -0.773112
H      2.214512    2.256812   -0.036655
H     -0.163467    2.167180    0.336181
H     -1.488455    0.237728   -0.036585
12

C      0.367560   -0.971569    0.150823
C      1.763481   -0.966336    0.603308
C      2.234228   -0.025560   -0.323958
C      1.627672    1.352844   -0.294291
C      0.284230    1.298301    0.039590
C     -0.512952    0.147210    0.109513
H      0.400167   -1.474874   -0.884374
H      1.997986   -1.001088    1.767589
H      3.138355   -0.226563   -0.749862
H      2.175806    2.179757   -0.130360
H     -0.105656    2.232662    0.357868
H     -1.516467    0.215155   -0.074256
12

C      0.301173   -1.043233   -0.003589
C      1.752768   -0.862382    0.506970
C      2.536882    0.088568   -0.483998
C      1.653069    1.231303   -0.130577
C      0.176644    1.352938   -0.078973
C     -0.486788    0.153849    0.259198
H     -0.056635   -1.651783   -0.794269
H      2.055251   -1.302401    1.479709
H      3.573435    0.116936   -0.441222
H      2.246313    2.101728    0.068602
H     -0.290873    2.470491   -0.343332
H     -1.606829    0.103925    0.533072
12

C      0.338902   -1.033441    0.298645
C      1.734483   -0.987197    0.671878
C      2.254943    0.136789   -0.152655
C      1.597962    1.296999   -0.149250
C      0.252679    1.363246    0.089435
C     -0.545826    0.110761    0.082182
H      0.613325   -1.211947   -0.677874
H      2.125543   -1.633975    1.502839
H      3.159041   -0.099475   -0.718737
H      2.289875    2.096019   -0.385921
H     -0.292816    2.448773    0.126181
H     -1.673701    0.273386   -0.115134
12

C      0.343339   -1.197570    0.023594
C      1.745007   -0.976044   -0.003849
C      2.432274    0.196063   -0.337116
C      1.898729    1.388618    0.068688
C      0.453794    1.300684    0.119929
C     -0.291257    0.036848    0.068635
H     -0.207078   -1.994882    0.039968
H      1.475969   -0.773429    1.051460
H      3.398806    0.076921   -0.583504
H      2.197203    2.367693    0.008417
H     -0.229540    2.253133    0.194437
H     -1.362835    0.081906   -0.079069
12

C      0.498669   -1.051786   -0.208406
C      1.743994   -0.922990    0.607981
C      2.099347    0.101589   -0.237874
C      1.624966    1.388027   -0.026687
C      0.230475    1.493429    0.160294
C     -0.295526    0.141189   -0.062328
H      0.202310   -1.881916   -0.672175
H      1.943345   -1.222761    1.605338
H      3.235302   -0.193012   -0.635373
H      2.256688    2.134241   -0.388258
H     -0.292678    2.547563    0.270011
H     -1.392481    0.226365    0.159067
12

C      0.528523   -1.082063   -0.339081
C      1.780449   -0.999393    0.707951
C      2.534242    0.209656    0.076750
C      1.772106    1.490024    0.167909
C      0.368619    1.488163    0.162411
C     -0.284571    0.250971   -0.026423
H     -0.044458   -1.985662   -0.571814
H      1.839067   -1.437600    1.601766
H      2.833983   -0.107876   -0.896175
H      2.111059    2.410587   -0.448125
H     -0.181250    2.424765    0.014004
H     -1.403358    0.098367    0.122416
12

C      0.403057   -1.028515    0.084605
C      1.873987   -1.086634    0.582414
C      2.184548   -0.058055   -0.421310
C      1.548537    1.329064   -0.110662
C      0.210058    1.400642    0.217865
C     -0.454068    0.220507    0.435897
H      0.042523   -1.493043   -0.710938
H      2.105314   -1.054960    1.676468
H      3.196968   -0.064175   -0.716636
H      2.271837    2.159902   -0.225194
H     -0.286035    2.274076    0.180614
H     -1.242315    0.161131   -0.421533
12

C      0.250812   -1.090239   -0.043823
C      1.698589   -1.102894    0.224288
C      2.473552    0.096071   -0.168466
C      1.761946    1.275419   -0.215999
C      0.399908    1.211096    0.157578
C     -0.507492    0.132583    0.022805
H     -0.100448   -2.048399   -0.412053
H      1.721049   -0.418249    1.196736
H      3.582747    0.028616   -0.410694
H      2.079988    2.343861   -0.310498
H     -0.009769    2.032432    0.619099
H     -1.496471    0.299644   -0.087383
12

C      0.312826   -1.088583    0.006251
C      1.764738   -1.082676    0.192480
C      2.490260    0.060670   -0.263892
C      1.763249    1.223895   -0.180017
C      0.390402    1.215280    0.083766
C     -0.466607    0.074600    0.086648
H      0.002039   -1.958676   -0.324884
H      1.697425   -0.481077    1.277123
H      3.419018    0.132583   -0.594379
H      2.214576    2.152328   -0.045488
H     -0.177615    2.259093    0.442297
H     -1.555899    0.252503   -0.108316
12

C      0.317907   -0.988769   -0.011096
C      1.823701   -1.026554    0.188097
C      2.463411    0.131382   -0.306929
C      1.711790    1.275621   -0.057329
C      0.295650    1.277778    0.114875
C     -0.483717    0.095256    0.200934
H     -0.135751   -2.025367   -0.387603
H      1.500446   -0.573875    1.232230
H      3.565022    0.245977   -0.625792
H      2.411281    2.143900   -0.086016
H     -0.115738    2.155270    0.183160
H     -1.499590    0.049321    0.127058
12

C      0.335800   -1.143090   -0.317473
C      1.487537   -0.765348    0.408665
C      2.497711    0.224473   -0.216293
C      1.868489    1.346847   -0.159681
C      0.436891    1.309261    0.226308
C     -0.224881    0.113184    0.086825
H     -0.049688   -2.034220   -0.571993
H      1.479821   -0.834044    1.368438
H      3.300454   -0.127812   -0.552992
H      2.275881    2.461995   -0.302207
H     -0.351566    2.023152    0.264973
H     -1.202037    0.185541    0.337020
12

C      0.333307   -1.188555   -0.456001
C      1.569187   -0.822242    0.284082
C      2.430148    0.241725   -0.126760
C      1.771637    1.530873   -0.148342
C      0.449373    1.351506    0.156969
C     -0.273206    0.062233   -0.119488
H     -0.216319   -2.164125   -0.140145
H      1.451767   -0.934213    1.452958
H      3.344417    0.011144   -0.719282
H      2.245329    2.484468   -0.182311
H     -0.001957    2.285235    0.407676
H     -1.249274   -0.098109    0.162234
12

C      0.342035   -1.028323    0.239014
C      1.755841   -0.973844    0.591605
C      2.457387   -0.110119   -0.318451
C      1.526856    1.161168   -0.101848
C      0.178886    1.344153   -0.015148
C     -0.448887    0.249266    0.250806
H      0.038022   -1.336468   -0.970836
H      2.186347   -1.276186    1.486334
H      3.460556    0.052065   -0.536593
H      2.112040    2.104662   -0.126950
H     -0.365229    2.375081   -0.256414
H     -1.389443    0.198483    0.330072
12

C      0.339795   -1.057217    0.131166
C      1.840453   -0.955772    0.586823
C      2.490526   -0.125012   -0.368816
C      1.565256    1.158335   -0.071481
C      0.143599    1.389848    0.017161
C     -0.413737    0.225430    0.277549
H      0.262481   -1.300371   -0.862180
H      1.917941   -1.310178    1.670611
H      3.531236    0.192152   -0.722385
H      2.179862    1.968619   -0.247264
H     -0.383027    2.276734   -0.096141
H     -1.619975    0.297372    0.256547
12

C      0.495250   -1.137283   -0.089743
C      1.666362   -0.914944    0.842719
C      2.427250    0.201146   -0.014853
C      1.746073    1.539382    0.014221
C      0.335995    1.569433    0.233729
C     -0.083905    0.188002   -0.128825
H      0.102111   -1.990681   -0.576676
H      1.938985   -1.511357    1.696944
H      2.642859   -0.167220   -0.963931
H      2.325795    2.347570   -0.554459
H     -0.423443    2.399838    0.442864
H     -1.318922    0.236054   -0.330400
12

C      0.554581   -0.846922    0.087283
C      1.734067   -0.910229    0.928702
C      2.412669   -0.036171   -0.046088
C      1.649047    1.495767    0.040198
C      0.162442    1.498307    0.080223
C     -0.302137    0.289674   -0.126563
H      0.128250   -1.786835   -0.353608
H      2.071732   -1.844855    1.461831
H      2.674700   -0.098658   -1.035993
H      2.220344    2.395393   -0.243167
H     -0.196256    2.691493    0.070584
H     -1.255028   -0.087025   -0.291813
12

C      0.390930   -1.102913   -0.156912
C      1.707992   -0.987731    0.072138
C      2.536639    0.095850   -0.166005
C      1.745402    1.368727   -0.257263
C      0.424925    1.251979    0.146573
C     -0.368812    0.028679    0.009003
H     -0.299957   -1.997095   -0.405719
H      1.584805   -0.431104    1.106901
H      3.554660   -0.008735   -0.168059
H      2.045313    2.255118   -0.318033
H      0.034828    2.366895    0.571308
H     -1.502313   -0.079731    0.137659
12

C      0.503870   -0.882790   -0.132871
C      1.597888   -0.915740    0.935545
C      2.212722    0.142335    0.119817
C      1.680467    1.609605    0.053150
C      0.125712    1.481374   -0.059769
C     -0.316442    0.220834   -0.013558
H      0.184899   -1.903527   -0.376951
H      2.206637   -1.691180    1.003295
H      2.894404   -0.202415   -0.728218
H      2.461321    2.327672   -0.254152
H     -0.342835    2.314328   -0.093666
H     -1.354234    0.259444    0.118967
12

C      0.501940   -0.879716    0.202726
C      1.742523   -0.984498    1.013922
C      2.166732    0.057030   -0.142518
C      1.464727    1.273682   -0.240073
C      0.266395    1.589589    0.124541
C     -0.458676    0.312781    0.138176
H      0.413843   -1.521956   -0.565997
H      2.247007   -1.977440    1.315626
H      3.060947    0.060209   -0.631348
H      2.135564    2.051606   -0.445202
H     -0.132002    2.725261    0.079809
H     -1.554590    0.053393   -0.278074
12

C      0.482708   -0.895369    0.212348
C      1.723925   -0.999038    1.032257
C      2.141487    0.049212   -0.147446
C      1.437735    1.262723   -0.241835
C      0.207363    1.560260    0.118809
C     -0.493104    0.279083    0.126922
H      0.469867   -1.491787   -0.568738
H      2.189875   -1.933283    1.346119
H      3.045013    0.148280   -0.674816
H      2.151923    2.028231   -0.461352
H     -0.025920    2.648185    0.109032
H     -1.476461    0.103441   -0.279711
12

C      0.458426   -1.063015   -0.332038
C      1.671709   -0.871772    0.575979
C      2.486167    0.255579    0.154114
C      1.897407    1.510159    0.066946
C      0.490830    1.406017    0.254858
C     -0.107328    0.134788   -0.103056
H     -0.116242   -1.901260   -0.473506
H      1.641433   -1.530372    1.691810
H      2.859585    0.035140   -0.883061
H      2.087831    2.441050   -0.628713
H     -0.277108    2.210071    0.165822
H     -1.238298    0.133555    0.082434
12

C      0.488032   -1.037015   -0.318500
C      1.654242   -0.861195    0.602506
C      2.457344    0.249702    0.174918
C      1.852146    1.531651    0.035674
C      0.488478    1.420503    0.242961
C     -0.109462    0.133241   -0.097683
H     -0.120487   -1.946188   -0.525903
H      1.660465   -1.550378    1.724730
H      2.936221    0.061587   -0.933338
H      2.118026    2.370739   -0.616918
H     -0.309342    2.209220    0.155451
H     -1.261252    0.178072    0.127692
12

C      0.454943   -1.141363   -0.213856
C      1.650690   -0.889062    0.576752
C      2.522661    0.179637    0.153555
C      1.819803    1.474620    0.043912
C      0.475477    1.371676    0.311409
C     -0.190253    0.177390   -0.089055
H     -0.081996   -2.036796   -0.692782
H      1.628292   -1.242119    1.723448
H      3.059794    0.103886   -0.980333
H      2.036556    2.290252   -0.608428
H     -0.174011    2.274916    0.215288
H     -1.347546    0.196905    0.131681
12

C      0.537127   -1.005252   -0.272956
C      1.698456   -0.936012    0.672829
C      2.331690    0.253247   -0.006286
C      1.748783    1.525412   -0.190345
C      0.352352    1.476659    0.163029
C     -0.216472    0.175965    0.087937
H      0.242375   -2.061287   -0.692696
H      1.549425   -1.114769    1.715441
H      2.956737   -0.305083   -0.979965
H      2.298666    2.291410   -0.430906
H     -0.281478    2.279306    0.531969
H     -1.363250    0.180342   -0.026462
12

C      0.453712   -0.848863    0.075244
C      1.618415   -0.941128    1.034541
C      2.328076    0.088809    0.266339
C      1.664580    1.432997   -0.076786
C      0.254283    1.487781   -0.102791
C     -0.389436    0.275323    0.064677
H      0.358692   -1.678785   -0.639765
H      2.333967   -1.911809    1.014104
H      2.943600   -0.201140   -0.702075
H      2.117528    2.312406   -0.335029
H     -0.261885    2.469582   -0.195403
H     -1.567123    0.274765    0.168533
12

C      0.332982   -1.167481   -0.091189
C      1.865541   -1.137966    0.155553
C      2.477401    0.196103   -0.129355
C      1.842765    1.389059   -0.008701
C      0.395191    1.407313    0.181673
C     -0.381604    0.007366    0.078468
H     -0.235522   -2.033982   -0.406321
H      1.571263   -0.677127    1.214688
H      3.362224    0.056323   -0.396232
H      2.285232    2.362663   -0.449542
H     -0.225501    2.273564    0.414154
H     -1.435562    0.084105    0.008394
12

C      0.233276   -1.159378   -0.076900
C      1.829955   -1.162014    0.205089
C      2.380211    0.177599   -0.214996
C      1.761211    1.378914   -0.049051
C      0.382144    1.344614    0.251268
C     -0.369679    0.096957    0.108051
H     -0.315589   -2.010181   -0.334100
H      1.631641   -0.602989    1.069089
H      3.629144    0.208545   -0.380827
H      2.282189    2.237946   -0.320229
H     -0.126820    2.277179    0.261442
H     -1.463272   -0.027253    0.052752
12

C      0.383125   -1.108771   -0.035492
C      1.851589   -1.215544    0.364783
C      2.397834    0.082409   -0.256160
C      1.752344    1.321155   -0.077224
C      0.400866    1.253418    0.161197
C     -0.289944    0.038070    0.064529
H     -0.219408   -2.049397   -0.171556
H      1.514751   -0.748513    1.261594
H      3.423175    0.420056   -0.852878
H      2.150528    2.237908    0.031041
H     -0.133866    2.188239    0.083991
H     -1.376582    0.340910   -0.002236
12

C      0.256094   -1.179251    0.178922
C      1.684293   -0.873487    0.671642
C      2.440159    0.000843   -0.160873
C      1.629190    1.169812   -0.191297
C      0.283660    1.285466    0.209591
C     -0.476659    0.128017    0.212988
H      0.054839   -1.257339   -0.811354
H      2.043818   -1.040074    1.554438
H      3.405859    0.068838   -0.678028
H      2.140089    2.157603   -0.552309
H     -0.137226    2.251062    0.467150
H     -1.469705    0.048450   -0.329279
12

C      0.462747   -1.031257   -0.041072
C      1.741650   -1.016066    0.732586
C      2.301154    0.142734    0.123460
C      1.675214    1.461701    0.073374
C      0.314196    1.624558    0.213095
C     -0.225770    0.239787    0.101221
H      0.192484   -1.884070   -0.603677
H      1.922580   -1.721185    1.602040
H      2.687628    0.119994   -1.033705
H      2.146614    2.235696   -0.355717
H     -0.086410    2.486824   -0.222896
H     -1.277676    0.101225   -0.017119
12

C      0.533642   -1.050384   -0.072763
C      1.705703   -0.985454    0.614097
C      2.375570    0.213009   -0.011691
C      1.637119    1.491029    0.090582
C      0.356621    1.570543    0.137661
C     -0.255450    0.268094    0.066453
H      0.298053   -1.898330   -0.727459
H      1.718863   -1.407894    1.562209
H      2.625216   -0.227126   -0.896267
H      2.334512    2.335589   -0.317884
H     -0.182799    2.531218   -0.046322
H     -1.292639   -0.080354    0.172973
12

C      0.426524   -1.062586    0.018973
C      1.891512   -1.021507    0.634600
C      2.296614    0.007462   -0.383223
C      1.533576    1.210598   -0.202062
C      0.190631    1.412432    0.006579
C     -0.372618    0.150015    0.157449
H      0.024470   -1.678241   -0.761511
H      1.989079   -0.938135    1.561217
H      3.332537   -0.058184   -0.579215
H      2.176346    2.135411   -0.181119
H     -0.160968    2.403380    0.348823
H     -1.473293    0.199293   -0.048921
12

C      0.384475   -0.953276   -0.284244
C      1.492721   -0.838985    0.543757
C      2.562800    0.202113    0.058201
C      1.696401    1.516365   -0.039187
C      0.345953    1.403777    0.191657
C     -0.254011    0.127432    0.063733
H      0.002580   -1.863405   -0.631964
H      1.744622   -1.236415    1.686386
H      3.131820   -0.114631   -0.905825
H      2.250460    2.284744   -0.468882
H     -0.234700    2.201333    0.242004
H     -1.268710    0.030888    0.115954
12

C      0.480399   -1.093292   -0.243178
C      1.665252   -0.863321    0.599519
C      2.533476    0.282191    0.113851
C      1.707113    1.517287    0.076892
C      0.400399    1.320183    0.062649
C     -0.247338    0.154752   -0.043879
H      0.003008   -2.050454   -0.513006
H      1.818968   -1.471984    1.780369
H      2.761698    0.012301   -1.058566
H      2.265177    2.401308   -0.351947
H     -0.165767    2.257697    0.135833
H     -1.367975    0.293271    0.013053
12

C      0.286442   -1.180236   -0.071343
C      1.733642   -1.055464   -0.014168
C      2.456372    0.146104   -0.208848
C      1.745221    1.362598   -0.141223
C      0.434287    1.232893    0.190693
C     -0.310885    0.021999    0.038963
H     -0.296048   -2.005623   -0.233675
H      1.522071   -0.545018    1.227068
H      3.477208    0.183062   -0.360137
H      2.239291    2.393919   -0.297411
H     -0.025241    2.153686    0.478992
H     -1.407950    0.052020   -0.037321
12

C      0.309723   -1.090908    0.009856
C      1.681055   -1.183852    0.088765
C      2.491708    0.172029   -0.206391
C      1.884219    1.421030    0.061471
C      0.350148    1.298975    0.070909
C     -0.393124    0.155921    0.106539
H     -0.335338   -1.990257   -0.306880
H      1.692781   -0.747655    1.213785
H      3.577133    0.269151   -0.574541
H      2.406491    2.269276   -0.126531
H     -0.351810    2.137182    0.028002
H     -1.458575    0.049049    0.206606
12

C      0.280872   -1.108253    0.064710
C      1.756543   -1.214612    0.188060
C      2.509228    0.152706   -0.178505
C      1.802244    1.341306    0.114625
C      0.343859    1.257529    0.079966
C     -0.459226    0.115958    0.227313
H     -0.224358   -1.920907   -0.301971
H      1.759706   -0.803192    1.172344
H      3.410537    0.282277   -0.648269
H      2.312038    2.358859   -0.112533
H     -0.109152    2.239325   -0.047842
H     -1.527881    0.058945    0.013692
12

C      0.490320   -0.973934   -0.323929
C      1.623648   -0.851943    0.643775
C      2.400841    0.201898    0.004957
C      1.719449    1.397632    0.010062
C      0.341770    1.369015    0.213949
C     -0.368747    0.186607    0.255452
H      0.285315   -1.902360   -0.816409
H      1.701593   -1.314058    1.701985
H      2.916865   -0.016418   -0.884696
H      2.260716    2.236074   -0.436226
H     -0.001374    2.438538   -0.053891
H     -1.515986   -0.011112    0.256561
12

C      0.488442   -0.946640   -0.320548
C      1.624575   -0.804130    0.679242
C      2.414581    0.151432    0.074616
C      1.707816    1.387706    0.018945
C      0.378961    1.368824    0.184129
C     -0.391890    0.194700    0.251646
H      0.172139   -1.808939   -0.834299
H      1.773910   -1.314655    1.617473
H      3.031160   -0.067169   -0.831617
H      2.112446    2.238483   -0.502816
H     -0.050312    2.277733   -0.023187
H     -1.407417    0.082595    0.258005
12

C      0.532042   -1.043248   -0.058959
C      1.759872   -1.014591    0.704668
C      2.390831    0.109833   -0.148989
C      1.745577    1.387366   -0.050035
C      0.383189    1.482142    0.055762
C     -0.424709    0.203713   -0.011158
H      0.179179   -1.838994   -0.781892
H      1.818253   -1.128354    1.770433
H      3.060098   -0.235781   -0.967275
H      2.142851    2.318400   -0.311687
H     -0.277091    2.274748    0.369516
H     -1.455682    0.244706    0.001205
12

C      0.415529   -0.971761   -0.034408
C      1.766015   -0.980441    0.597066
C      2.387808   -0.083430   -0.411611
C      1.579897    1.155225   -0.140207
C      0.269507    1.349670    0.219326
C     -0.520553    0.234069    0.036174
H      0.187931   -1.814150   -0.587942
H      1.917247   -0.920555    1.653069
H      3.427705   -0.051064   -0.803458
H      2.103027    2.189535   -0.176034
H     -0.190421    2.355501    0.360512
H     -1.489284    0.297341   -0.140898
12

C      0.313347   -1.133943    0.019018
C      1.842804   -1.259963    0.290524
C      2.474185    0.162118   -0.172536
C      1.737385    1.340197   -0.151345
C      0.361069    1.356282    0.124419
C     -0.311849    0.113293    0.194957
H     -0.172040   -1.862897   -0.645947
H      1.672201   -0.756325    1.180902
H      3.412393    0.169934   -0.311007
H      2.316336    2.281490   -0.340972
H     -0.318095    2.129154    0.116549
H     -1.473323    0.220600    0.267028
12

C      0.336498   -1.011401   -0.279755
C      1.692135   -1.021632    0.080528
C      2.484730    0.107465   -0.100763
C      1.758198    1.247692   -0.290348
C      0.365390    1.213603    0.100047
C     -0.450278    0.027794    0.222904
H     -0.045882   -1.922670   -0.677361
H      1.513514   -0.672742    1.219742
H      3.664803    0.125048    0.011209
H      2.012430    2.213380   -0.587533
H     -0.049581    2.233528    0.373642
H     -1.427546    0.219875    0.499277
12

C      0.346695   -0.998872   -0.059731
C      1.751721   -1.083506    0.181070
C      2.474178    0.122483   -0.092388
C      1.773256    1.238271   -0.076579
C      0.346912    1.260103    0.235087
C     -0.425504    0.080047    0.246857
H     -0.035772   -1.899589   -0.642201
H      1.701070   -0.672627    1.239392
H      3.453061    0.114512   -0.315362
H      2.169265    2.168137   -0.532766
H     -0.163147    2.202512    0.278195
H     -1.537324    0.228470    0.110015
12

C      0.242687   -1.022090   -0.140035
C      1.734687   -1.020523    0.155623
C      2.497306    0.156701   -0.091606
C      1.729783    1.323358   -0.042353
C      0.371619    1.229887    0.229588
C     -0.468197    0.155646    0.209271
H     -0.033794   -1.873013   -0.664132
H      1.710851   -0.601873    1.242365
H      3.621472   -0.040653   -0.349703
H      2.213480    2.141716   -0.479595
H     -0.258776    2.107744    0.254567
H     -1.506706    0.203038    0.247601
12

C      0.309111   -0.947381    0.119243
C      1.740106   -1.024601    0.656120
C      2.397049   -0.027216   -0.124905
C      1.547741    1.266794   -0.030751
C      0.157632    1.444309    0.167593
C     -0.528187    0.243258    0.110477
H      0.413827   -1.377022   -0.896399
H      2.146356   -1.427369    1.653792
H      3.159442   -0.117304   -0.847626
H      2.460881    2.270172   -0.237322
H     -0.412185    2.253815   -0.252535
H     -1.537361    0.202485    0.253904
12

C      0.341804   -0.956288    0.130399
C      1.872649   -0.984075    0.627383
C      2.416594    0.000404   -0.107129
C      1.614933    1.280935   -0.049900
C      0.163587    1.457485    0.193050
C     -0.465089    0.194097    0.169924
H      0.477090   -1.411532   -0.885350
H      2.023021   -1.192673    1.608795
H      3.055710   -0.168193   -0.927057
H      2.287461    2.013060   -0.161879
H     -0.287843    2.345486   -0.117298
H     -1.645506    0.181233    0.090652
12

C      0.360236   -1.136605   -0.390157
C      1.592074   -0.781867    0.664297
C      2.469474    0.190846   -0.048147
C      1.770443    1.489842   -0.024395
C      0.346637    1.463485    0.199902
C     -0.334842    0.151750   -0.115457
H     -0.101477   -2.112796   -0.548197
H      1.794346   -1.136929    1.561570
H      3.104431   -0.167796   -0.777971
H      2.163689    2.446089   -0.393511
H     -0.036745    2.404447    0.342265
H     -1.273855   -0.050528    0.101391
12

C      0.434906   -1.168839   -0.355976
C      1.582392   -0.812441    0.683411
C      2.322626    0.109550   -0.140694
C      1.817626    1.417693    0.001154
C      0.391595    1.396726    0.131197
C     -0.269189    0.118037   -0.115806
H     -0.113639   -2.018476   -0.708437
H      1.876775   -1.158341    1.823720
H      3.175764    0.010275   -0.906115
H      2.235700    2.384162   -0.284580
H     -0.198884    2.404079    0.170021
H     -1.401263    0.077514    0.273696
12

C      0.481744   -1.053193   -0.158345
C      1.629862   -0.916926    0.551686
C      2.137462    0.175070   -0.302977
C      1.737757    1.426980   -0.004314
C      0.432821    1.344997    0.121894
C     -0.245463    0.137094    0.040711
H      0.057759   -1.907381   -0.600611
H      1.818729   -1.114590    1.716485
H      3.106445   -0.018910   -0.839566
H      2.480669    2.308096   -0.214687
H     -0.390913    2.132573    0.168298
H     -1.392459    0.246128    0.093014
12

C      0.306524   -1.065269   -0.049953
C      1.825614   -1.149049    0.113078
C      2.442197    0.156821   -0.238069
C      1.812519    1.371812   -0.022150
C      0.396495    1.402364    0.202600
C     -0.361383    0.058814    0.196618
H     -0.186861   -1.862335   -0.576319
H      1.679666   -0.688401    1.330502
H      3.398412    0.006554   -0.450249
H      2.325322    2.258334   -0.199372
H     -0.378544    2.216328    0.032488
H     -1.405551    0.053969    0.232416
12

C      0.279314   -1.150072    0.273755
C      1.642494   -0.990373    0.644332
C      2.421698    0.049415   -0.065675
C      1.691985    1.253274   -0.054716
C      0.308897    1.308167    0.169209
C     -0.402900    0.155569    0.147730
H      0.156341   -1.031927   -0.774490
H      2.195822   -1.415505    1.566738
H      3.225698    0.160547   -0.742206
H      2.231664    2.070435   -0.500941
H     -0.378653    2.242825    0.056045
H     -1.517948    0.107585   -0.148191
12

C      0.349930   -0.961843   -0.073169
C      1.785553   -0.784867    0.581072
C      2.524798    0.051454   -0.346326
C      1.695097    1.255699   -0.168549
C      0.205811    1.275470   -0.036852
C     -0.380191    0.144229   -0.143817
H     -0.134956   -1.936846   -0.561542
H      1.565951   -0.485612    1.517739
H      3.461842    0.021280   -1.020067
H      2.288291    2.015181    0.199723
H     -0.098921    2.267172    0.405094
H     -1.408793   -0.101379    0.218284
12

C      0.469831   -0.849253    0.231277
C      1.717020   -0.788926    1.027648
C      2.235283    0.055522   -0.016281
C      1.704762    1.474331   -0.197971
C      0.193831    1.579751   -0.052931
C     -0.324916    0.354356   -0.065370
H      0.171885   -1.920693   -0.463007
H      2.214657   -1.915274    1.132523
H      2.904544   -0.171932   -0.766556
H      2.145485    2.342983   -0.171277
H     -0.156951    2.556831    0.088835
H     -1.421020    0.042245   -0.175301
12

C      0.502726   -0.889241    0.051514
C      1.734737   -0.874409    0.896146
C      2.165412    0.114066   -0.124633
C      1.572533    1.495649   -0.026794
C      0.171114    1.425057   -0.064839
C     -0.407056    0.268011    0.020486
H      0.164807   -1.762162   -0.446662
H      2.173542   -1.715639    1.156705
H      3.121184   -0.118494   -0.753561
H      2.474163    2.231871   -0.116075
H     -0.364305    2.401147   -0.123034
H     -1.454446    0.184083    0.102337
12

C      0.282663   -1.118021    0.215333
C      1.625793   -0.885421    0.718193
C      2.330837    0.012534   -0.192764
C      1.666900    1.350627   -0.163274
C      0.340414    1.365525    0.060046
C     -0.551242    0.227662    0.079675
H      0.634983   -1.552636   -0.805710
H      2.241257   -1.120343    1.486312
H      3.084625   -0.352174   -0.808527
H      2.313042    2.233657   -0.132251
H     -0.230697    2.301712    0.270282
H     -1.884164    0.296816   -0.155724
12

C      0.469376   -1.254651   -0.024144
C      1.829431   -1.144150    0.269656
C      2.418787    0.276086   -0.164184
C      1.831975    1.400707    0.180166
C      0.446668    1.288855    0.248293
C     -0.301733    0.112285    0.089671
H     -0.245640   -1.944791   -0.073792
H      1.500039   -0.804497    1.380379
H      3.116525    0.229630   -1.091860
H      2.330338    2.340584   -0.078935
H     -0.219097    2.036652    0.134142
H     -1.322260    0.223230   -0.297802
12

C      0.193389   -1.112824   -0.010520
C      1.843979   -1.127849    0.119048
C      2.521862    0.060849   -0.265800
C      1.711459    1.346923   -0.034382
C      0.422090    1.423328   -0.054801
C     -0.459137    0.106440   -0.107188
H     -0.225146   -2.009246    0.017072
H      1.688110   -0.617910    1.085338
H      3.521500    0.178098   -0.634312
H      2.237842    2.280369    0.193245
H     -0.110724    2.218361    0.235833
H     -1.490815    0.013401    0.028056
12

C      0.373091   -1.083312   -0.175835
C      1.971606   -1.106263    0.363051
C      2.472118    0.179664   -0.157391
C      1.768271    1.312534   -0.123073
C      0.388302    1.367210    0.098033
C     -0.408730    0.118376    0.119349
H     -0.279202   -2.041549   -0.013968
H      1.419988   -0.754603    1.239693
H      3.493877    0.293864   -0.872491
H      2.327756    2.202896   -0.124005
H     -0.207790    2.252269    0.457464
H     -1.464877    0.018854   -0.239238
12

C      0.199544   -1.009039   -0.077065
C      1.740384   -1.088762    0.009622
C      2.540885    0.050199   -0.195310
C      1.790836    1.347754    0.106383
C      0.448532    1.289770    0.327742
C     -0.394646    0.069169    0.290648
H     -0.226182   -1.772991   -0.480019
H      1.687062   -0.683070    1.214156
H      3.570256    0.120992   -0.356627
H      2.062570    2.280298   -0.376048
H     -0.152280    2.121772   -0.047720
H     -1.412552    0.033849    0.155829
12

C      0.392062   -1.085260    0.162127
C      1.785336   -0.991929    0.579589
C      2.551877    0.232797    0.217249
C      1.932585    1.601566    0.268454
C      0.449592    1.452308   -0.093019
C     -0.241023    0.163564   -0.024828
H     -0.155675   -2.023784   -0.062057
H      2.034205   -1.748500    1.217910
H      2.163797    0.388216   -0.901275
H      2.427220    2.402930   -0.250640
H     -0.254610    2.213135   -0.087003
H     -1.230956    0.154896   -0.454918
12

C      0.507454   -1.010330   -0.055961
C      1.755415   -0.820292    0.653344
C      2.319457   -0.021291   -0.388363
C      1.754986    1.339770   -0.059064
C      0.332739    1.311268    0.220374
C     -0.413412    0.126684    0.036601
H      0.600321   -2.036697   -0.796881
H      1.475796   -0.203785    1.578420
H      2.765899   -0.434067   -1.233818
H      2.444478    2.103810    0.233814
H     -0.156989    2.232373    0.390938
H     -1.531734    0.172497   -0.007815
12

C      0.514913   -1.137773   -0.087510
C      1.779472   -0.819319    0.778314
C      2.263371    0.026479   -0.330239
C      1.779461    1.255443    0.105024
C      0.430479    1.216936    0.147754
C     -0.352243    0.151457    0.059664
H      0.445274   -1.809008   -0.922176
H      1.588992   -0.567662    1.777080
H      2.689603   -0.193569   -1.259214
H      2.161855    2.225383    0.089943
H      0.051480    2.178055    0.097457
H     -1.498247    0.233518    0.115495
12

C      0.378118   -1.001652    0.082078
C      1.689249   -1.031037    0.659430
C      2.286740    0.055013   -0.120576
C      1.728064    1.507437    0.017698
C      0.208901    1.474042    0.110351
C     -0.319278    0.214054    0.075917
H      0.309156   -1.709536   -0.838952
H      1.941853   -1.178292    1.738574
H      2.908105   -0.252738   -0.992047
H      2.506964    2.245295   -0.338293
H     -0.482193    2.361031    0.255993
H     -1.301267    0.076322   -0.078583
12

C      0.365618   -1.147507   -0.325922
C      1.600941   -0.958485    0.568931
C      2.122142    0.223538   -0.107430
C      1.775598    1.473136   -0.019908
C      0.424947    1.463468    0.229276
C     -0.269844    0.129950    0.050650
H      0.128902   -2.043676   -0.888593
H      1.808926   -1.090184    1.663016
H      3.074349    0.054690   -0.531051
H      2.239084    2.191585   -0.562931
H     -0.037471    2.381423    0.146339
H     -1.378781    0.082003    0.349211
12

C      0.378522   -0.967822    0.120281
C      1.714623   -1.028535    0.854680
C      2.209286    0.113156   -0.181463
C      1.644691    1.491455   -0.087889
C      0.258897    1.460729    0.066581
C     -0.535692    0.263274    0.052466
H      0.357902   -1.694748   -0.677608
H      2.237356   -1.663269    1.581341
H      3.049862   -0.144777   -0.876450
H      2.277562    2.300570   -0.171573
H     -0.185807    2.411726   -0.054053
H     -1.552792    0.218181   -0.054723
12

C      0.176500   -1.140605    0.298813
C      1.628658   -0.948199    0.553278
C      2.323505    0.019085   -0.176972
C      1.675663    1.227931   -0.260348
C      0.223194    1.305569    0.090709
C     -0.521250    0.171336    0.222020
H      0.357273   -1.147130   -0.861832
H      2.149005   -1.411791    1.423098
H      3.379065    0.014879   -0.476316
H      2.188784    2.214269   -0.329378
H     -0.218475    2.352615   -0.037105
H     -1.507512    0.101982    0.125622
12

C      0.212862   -1.105524   -0.172649
C      1.673697   -1.088409   -0.008636
C      2.505728    0.142306   -0.143574
C      1.769191    1.272230   -0.044202
C      0.344974    1.375656    0.221944
C     -0.457342    0.125405    0.046833
H     -0.146449   -2.110071   -0.519597
H      1.727019   -0.548021    1.383243
H      3.719545    0.180409   -0.323129
H      2.188477    2.089400   -0.473696
H     -0.203316    2.222024    0.395202
H     -1.479974    0.204535    0.209849
12

C      0.211757   -1.114555   -0.033141
C      1.734917   -1.112135    0.011865
C      2.532575    0.172305   -0.126184
C      1.804556    1.281899   -0.060637
C      0.305603    1.368571    0.223302
C     -0.448826    0.088581    0.114851
H     -0.128897   -2.059141   -0.565639
H      1.591303   -0.598374    1.433819
H      3.610492    0.242250   -0.463384
H      2.277764    2.133566   -0.474906
H     -0.160201    2.284805    0.390872
H     -1.476630    0.072168    0.120770
12

C      0.477326   -0.949156   -0.071078
C      1.644876   -0.826896    0.649765
C      2.380154   -0.048528   -0.374426
C      1.738239    1.363401   -0.189536
C      0.217166    1.381689    0.216024
C     -0.421970    0.104339   -0.045962
H      0.310919   -1.764306   -0.540138
H      1.772162   -0.269149    1.533597
H      3.025302   -0.502379   -1.170278
H      2.520885    2.045204    0.222151
H     -0.392182    2.250543    0.642984
H     -1.418466   -0.024823   -0.301514
12

C      0.254200   -1.119330   -0.020406
C      1.742301   -1.116262    0.066742
C      2.458413    0.245687   -0.225482
C      1.770081    1.349437   -0.283879
C      0.423851    1.229301   -0.048403
C     -0.293394    0.101233    0.263378
H     -0.322416   -1.957490   -0.545797
H      1.533879   -0.711849    1.446965
H      3.608195    0.319662   -0.481679
H      2.238841    2.216870   -0.077442
H     -0.222637    1.976380    0.159641
H     -1.336901    0.226300    0.317952
12

C      0.394447   -0.971197    0.008578
C      1.768179   -0.871149    0.809417
C      2.242520    0.071825   -0.175869
C      1.688625    1.404078   -0.086810
C      0.326638    1.494522    0.128209
C     -0.419850    0.298351    0.220672
H      0.211083   -1.661629   -0.924987
H      1.909925   -1.525924    1.587088
H      3.224942   -0.149320   -0.744044
H      2.299865    2.293562   -0.436578
H     -0.377078    2.320513    0.003116
H     -1.414887    0.056308    0.182797
12

C      0.485105   -0.861086    0.011102
C      1.674384   -0.824372    0.793968
C      2.175831   -0.029477   -0.204905
C      1.588372    1.334262   -0.236131
C      0.201830    1.450157   -0.061194
C     -0.480594    0.282444   -0.068921
H      0.396926   -1.676752   -0.623975
H      2.206264   -1.656246    1.283738
H      3.228741   -0.128973   -0.419721
H      2.286944    2.178590   -0.237747
H     -0.276456    2.477291    0.050179
H     -1.632936    0.214102    0.285198
12

C      0.454754   -1.097509   -0.244599
C      1.757353   -0.895324    0.561426
C      2.606871    0.295298    0.155468
C      1.767561    1.504253    0.110351
C      0.394093    1.442628    0.015217
C     -0.318056    0.192395   -0.121854
H     -0.029355   -2.033555   -0.391288
H      2.109701   -1.474968    1.441969
H      2.519200   -0.179513   -0.864218
H      2.297092    2.473378   -0.004815
H     -0.218316    2.317246   -0.239079
H     -1.486489    0.215612    0.153011
12

C      0.332709   -1.125661   -0.048117
C      1.815744   -1.173521    0.117703
C      2.430138    0.081216   -0.133642
C      1.773568    1.335582    0.131371
C      0.396532    1.329468    0.250581
C     -0.319108    0.065623    0.135720
H     -0.266648   -2.022784   -0.200132
H      1.740452   -0.809789    1.402299
H      3.307518    0.292437   -0.805343
H      2.254605    2.301966   -0.171211
H     -0.182970    2.401002    0.082629
H     -1.428129    0.084401   -0.190268
12

C      0.281662   -1.080838   -0.064448
C      1.852661   -1.118862    0.114119
C      2.454442    0.151384   -0.230886
C      1.744596    1.343604    0.088683
C      0.328266    1.323210    0.277079
C     -0.360119    0.004623    0.149295
H     -0.226071   -2.008473   -0.201659
H      1.565145   -0.743774    1.337706
H      3.368589    0.276818   -0.736585
H      2.182041    2.262548   -0.134250
H     -0.015330    2.192327    0.060924
H     -1.321472    0.157372   -0.088387
12

C      0.367815   -1.031516   -0.037487
C      1.816991   -1.117443    0.258464
C      2.532365    0.180938   -0.185809
C      1.855808    1.318663   -0.123287
C      0.446334    1.247982    0.081137
C     -0.454612    0.113086    0.093557
H     -0.236045   -1.929129   -0.485286
H      1.574317   -0.648955    1.297504
H      3.494084    0.132417   -0.540064
H      2.176611    2.299678   -0.227506
H     -0.176438    2.047496    0.289136
H     -1.542820    0.146721    0.151230
12

C      0.369402   -1.131000   -0.087875
C      1.776889   -1.125575    0.083879
C      2.550579    0.133437   -0.301988
C      1.822806    1.296733   -0.191360
C      0.410531    1.215831   -0.002413
C     -0.456850    0.180028   -0.015161
H     -0.234844   -2.098852   -0.341532
H      1.512957   -0.551267    1.395197
H      3.642878    0.200689   -0.479600
H      2.194983    2.316384   -0.141546
H     -0.154159    2.136367    0.476349
H     -1.580762    0.187165    0.177641
12

C      0.474144   -0.884427    0.014201
C      1.685041   -0.920355    0.803085
C      2.278719    0.067819   -0.012658
C      1.711150    1.415450   -0.076541
C      0.300485    1.447804    0.117669
C     -0.381835    0.243561    0.010970
H      0.262504   -1.562138   -0.720826
H      2.099426   -1.622244    1.625603
H      2.862680   -0.087519   -0.877670
H      2.242857    2.267315   -0.304653
H     -0.192351    2.377670   -0.056483
H     -1.488411    0.017004    0.048891
12

C      0.343762   -1.106953   -0.139894
C      1.818587   -1.043721    0.081826
C      2.465497    0.144480   -0.154980
C      1.774420    1.338756   -0.031328
C      0.402363    1.316950    0.108913
C     -0.374134    0.050595    0.066344
H     -0.172458   -2.089614   -0.225962
H      1.524508   -0.694132    1.062927
H      3.488573    0.021585   -0.458536
H      2.229590    2.387679   -0.138429
H     -0.188988    2.328549    0.190975
H     -1.457310    0.105764    0.209733
12

C      0.267264   -1.099031   -0.106634
C      1.722156   -1.081374    0.026269
C      2.435475    0.163706   -0.186639
C      1.848829    1.367942   -0.048705
C      0.343012    1.283014    0.123546
C     -0.386784    0.132603    0.102258
H     -0.149376   -2.032370   -0.190726
H      1.669009   -0.577367    1.186963
H      3.427972    0.098321   -0.571118
H      2.301503    2.267461    0.007500
H     -0.156632    2.142542    0.160330
H     -1.468018    0.094493    0.068546
12

C      0.338957   -1.068808   -0.071111
C      1.777126   -1.121195    0.155205
C      2.387443    0.132820   -0.161663
C      1.852352    1.371608    0.102901
C      0.363359    1.302461    0.123096
C     -0.372625    0.152402    0.049759
H     -0.253775   -2.001481   -0.230617
H      1.699989   -0.672029    1.191071
H      3.384326    0.194679   -0.653880
H      2.335815    2.270363   -0.086762
H     -0.225771    2.095587    0.066716
H     -1.432786    0.103534    0.086876
12

C      0.324328   -1.111256    0.007146
C      1.755041   -1.153488    0.136323
C      2.452871    0.150914   -0.257674
C      1.811242    1.367734    0.035885
C      0.408443    1.237613    0.157916
C     -0.356465    0.034589    0.146537
H     -0.190886   -1.980769   -0.173805
H      1.607370   -0.742499    1.240483
H      3.375254    0.239734   -0.696337
H      2.389226    2.352417   -0.078004
H     -0.285230    2.179964    0.116972
H     -1.436783    0.184986   -0.063854
12

C      0.426502   -1.055847    0.082625
C      1.797427   -0.977741    0.624396
C      2.515071    0.286018    0.197187
C      1.794204    1.528137    0.004371
C      0.458822    1.499666   -0.042558
C     -0.165439    0.182608   -0.074017
H     -0.104638   -1.954900   -0.253854
H      2.148063   -1.715715    1.360245
H      2.296835    0.078313   -0.838306
H      2.351340    2.384995   -0.153800
H     -0.360956    2.293661   -0.009696
H     -1.302821    0.210744   -0.325003
12

C      0.481491   -1.042305    0.041695
C      1.771568   -0.908372    0.481987
C      2.591458    0.254738    0.133693
C      1.744112    1.585889    0.135555
C      0.327229    1.422307   -0.078692
C     -0.243621    0.228819   -0.187867
H     -0.162380   -2.020916    0.037669
H      2.136394   -1.615221    1.198963
H      2.250811    0.026366   -0.843671
H      2.423295    2.455457    0.058638
H     -0.132513    2.357576   -0.075486
H     -1.333433    0.015601   -0.330893
12

C      0.482969   -1.081333   -0.220215
C      1.659716   -0.938017    0.645061
C      2.322985    0.169434    0.081417
C      1.718357    1.520669    0.002869
C      0.407009    1.379745    0.142022
C     -0.276761    0.170311   -0.088115
H     -0.017753   -2.056502   -0.473317
H      1.788536   -1.246386    1.662882
H      2.842831    0.108480   -0.988932
H      2.361238    2.362702   -0.413841
H     -0.072921    2.308315    0.318301
H     -1.361795    0.062522   -0.096542
12

C      0.311712   -1.075587   -0.049536
C      1.760927   -1.260381    0.248809
C      2.456188    0.142199   -0.143241
C      1.831799    1.325688   -0.147531
C      0.356840    1.269385    0.203712
C     -0.382522    0.155729    0.172562
H     -0.212810   -1.881936   -0.455094
H      1.763935   -0.691723    1.283450
H      3.503740    0.156293   -0.468995
H      2.250190    2.271587   -0.348185
H     -0.314728    2.175214    0.300929
H     -1.470860    0.173471   -0.025290
12

C      0.315523   -1.103006   -0.078470
C      1.771867   -1.214181    0.268169
C      2.483310    0.150628   -0.130878
C      1.826876    1.311188   -0.100108
C      0.315831    1.266230    0.184801
C     -0.363586    0.161165    0.156943
H     -0.222962   -1.987624   -0.403474
H      1.555043   -0.686445    1.207330
H      3.460947    0.331146   -0.495514
H      2.257352    2.259024   -0.372100
H     -0.142939    2.158753    0.262198
H     -1.402851    0.113061    0.072693
12

C      0.375154   -1.125072   -0.055987
C      1.892041   -1.162829    0.205976
C      2.469887    0.158541   -0.165604
C      1.728989    1.315703    0.024011
C      0.369819    1.327212    0.141296
C     -0.337688    0.005691    0.067395
H     -0.143528   -1.994908   -0.215597
H      1.454247   -0.806779    1.258219
H      3.396220    0.263955   -0.730391
H      2.181337    2.261408   -0.174784
H     -0.085313    2.368525    0.175610
H     -1.446753    0.148492    0.041446
12

C      0.280540   -0.919908    0.226414
C      1.678197   -0.875096    0.591061
C      2.327252   -0.013133   -0.430170
C      1.602861    1.100653   -0.251593
C      0.258797    1.379785    0.236197
C     -0.564307    0.318643    0.045864
H      0.441096   -1.566344   -0.670123
H      2.153626   -1.163213    1.559685
H      3.324118   -0.024213   -0.614785
H      2.168310    1.956243   -0.182346
H     -0.256101    2.296359    0.253299
H     -1.559980    0.270164   -0.191914
12

C      0.325302   -0.931034    0.281290
C      1.699971   -0.858246    0.625674
C      2.296048    0.026921   -0.389202
C      1.598955    1.109893   -0.211448
C      0.240028    1.366401    0.242012
C     -0.538963    0.298289    0.051189
H      0.372791   -1.541752   -0.654919
H      2.152464   -1.168975    1.458998
H      3.335393   -0.034014   -0.678733
H      2.256157    1.960950   -0.149962
H     -0.265660    2.358527    0.190193
H     -1.618075    0.172980   -0.193501
12

C      0.485400   -1.139584   -0.092563
C      1.765803   -1.086572    0.585196
C      2.361989    0.161940   -0.122861
C      1.717843    1.548931    0.047144
C      0.326724    1.422255   -0.059593
C     -0.298554    0.240501    0.030452
H      0.061126   -2.005012   -0.601033
H      1.855978   -1.289825    1.736014
H      2.810800   -0.034821   -1.066248
H      2.404072    2.412509    0.038454
H     -0.298010    2.271300   -0.110447
H     -1.338760    0.258315    0.187074
12

C      0.359195   -1.181323   -0.197537
C      1.597784   -0.813735    0.533817
C      2.300087    0.127359   -0.176321
C      1.633276    1.407951   -0.210452
C      0.281135    1.422964   -0.088847
C     -0.347744    0.084722   -0.144198
H      0.191751   -2.035899   -0.796359
H      1.524010   -0.746116    1.520501
H      3.255078   -0.021647   -0.711624
H      2.447460    2.129059   -0.126738
H     -0.118095    2.353587    0.376119
H     -1.269527    0.033018    0.593228
12

C      0.504952   -1.067075   -0.179686
C      1.661336   -0.797709    0.610333
C      2.240428    0.113933   -0.335673
C      1.681563    1.453550   -0.069822
C      0.363532    1.337495    0.127584
C     -0.350140    0.134576   -0.035945
H      0.017348   -1.971286   -0.744998
H      1.806439   -0.899073    1.589600
H      3.303844   -0.225485   -0.666340
H      2.394075    2.395216   -0.278209
H     -0.160069    2.113701    0.361278
H     -1.608897    0.172095    0.193469
12

C      0.413950   -1.032469   -0.074970
C      1.613963   -0.637220    0.476575
C      2.283324    0.059400   -0.483614
C      1.720547    1.363864   -0.084398
C      0.374694    1.232590    0.265929
C     -0.393960    0.065542    0.072910
H      0.001707   -1.978897   -0.596541
H      1.821700   -0.777058    1.482252
H      3.363093   -0.116689   -0.520879
H      2.389464    2.253521   -0.342481
H     -0.214474    2.109495    0.529481
H     -1.519599    0.217859   -0.152672
12

C      0.357004   -0.964170    0.017501
C      1.744186   -0.884192    0.617095
C      2.325077   -0.028920   -0.506219
C      1.736555    1.294617   -0.121818
C      0.286700    1.324837    0.116483
C     -0.475159    0.211549    0.020089
H      0.177917   -1.761150   -0.566892
H      2.102043   -1.237129    1.607403
H      3.340913   -0.139372   -0.721934
H      2.159902    2.229392    0.043280
H     -0.451056    2.287023    0.036522
H     -1.449671    0.427454    0.030079
12

C      0.282957   -0.906700    0.094318
C      1.742450   -0.933171    0.691272
C      2.343277   -0.027875   -0.425855
C      1.733966    1.216569   -0.090764
C      0.267355    1.369897    0.136028
C     -0.475341    0.219953    0.033135
H      0.328637   -1.840922   -0.560339
H      2.072469   -1.207418    1.639898
H      3.379525   -0.089375   -0.983506
H      2.112600    2.319587    0.080545
H     -0.185399    2.217397    0.027487
H     -1.748084    0.421997   -0.070628
12

C      0.458166   -0.839349    0.185518
C      1.671192   -0.967329    0.956082
C      2.148975    0.088518    0.038634
C      1.677356    1.415516    0.135447
C      0.261801    1.584535    0.023388
C     -0.296896    0.372959    0.102258
H      0.375674   -1.840524   -0.404102
H      2.285479   -1.835366    0.986155
H      2.784609   -0.208685   -0.882897
H      2.255686    2.411597   -0.132452
H     -0.228268    2.363178   -0.320065
H     -1.539363    0.214891   -0.116376
12

C      0.491372   -1.205782   -0.425201
C      1.549115   -0.903813    0.524952
C      2.451279    0.199370   -0.080469
C      1.855646    1.475657   -0.006412
C      0.442645    1.275552    0.235782
C     -0.212679    0.163399   -0.150385
H      0.047443   -2.129324   -0.375687
H      1.385112   -0.863387    1.653645
H      2.885855   -0.000470   -1.017026
H      2.176607    2.354143   -0.288377
H     -0.083477    2.347472    0.424718
H     -1.134508    0.047122    0.076050
12

C      0.485951   -1.083635    0.065360
C      1.757345   -0.974874    0.805926
C      2.509127    0.022963   -0.209311
C      1.671702    1.301839   -0.099487
C      0.319612    1.327397    0.208103
C     -0.394200    0.156970    0.008128
H      0.266537   -1.758169   -0.870012
H      1.714973   -0.403432    1.681377
H      2.823389   -0.280674   -1.267222
H      2.393525    2.242404   -0.004540
H     -0.069115    2.204045    0.480467
H     -1.624435    0.005106   -0.227199
12

C      0.575508   -1.186204   -0.327287
C      1.692405   -0.863507    0.537488
C      2.479368    0.279962    0.071250
C      1.813820    1.538191   -0.052211
C      0.455649    1.422212    0.219355
C     -0.139252    0.113421   -0.138273
H     -0.210748   -2.028826   -0.370053
H      1.416752   -0.957570    1.499071
H      2.980088    0.020961   -0.885571
H      2.436256    2.348411   -0.531758
H     -0.229039    2.113064    0.594212
H     -1.416397   -0.040176   -0.044633
12

C      0.530852   -0.875627    0.192453
C      1.717709   -0.964198    0.847752
C      2.217759    0.092813    0.005546
C      1.602723    1.347036    0.122037
C      0.299720    1.560681    0.403814
C     -0.360663    0.321959    0.343362
H      0.198031   -1.508031   -0.581379
H      2.203840   -1.693009    1.393511
H      2.738740   -0.161446   -0.999397
H      2.016440    2.114858   -0.448624
H     -0.264710    2.403771   -0.123199
H     -1.046029    0.121133   -0.584285
12

C      0.447377   -1.000039   -0.497200
C      1.635731   -0.994083    0.381448
C      2.404720    0.259057    0.213975
C      1.787923    1.482511   -0.042838
C      0.445471    1.437709    0.065504
C     -0.264463    0.118968    0.104667
H     -0.126039   -1.828552   -0.423647
H      1.575061   -1.576342    1.270240
H      3.135589    0.196929   -0.515560
H      2.162943    2.396557   -0.333644
H     -0.186476    2.288443   -0.469338
H     -1.163427   -0.021217    0.817984
12

C      0.281781   -0.988875   -0.014392
C      1.643369   -0.789178    0.399212
C      2.526139    0.258482    0.001016
C      1.779964    1.351108   -0.023226
C      0.324064    1.297099    0.188572
C     -0.426679    0.135756    0.100652
H     -0.238834   -1.957875   -0.467005
H      2.053231   -1.382041    1.312392
H      3.460944    0.023254   -0.561676
H      2.120656    2.347663   -0.421361
H     -0.185545    2.262958    0.076421
H     -1.484679    0.201589   -0.019016
12

C      0.387065   -1.101964   -0.120189
C      1.562791   -0.642107    0.465577
C      2.270664    0.110574   -0.444451
C      1.725998    1.348306   -0.111257
C      0.298863    1.306154    0.207511
C     -0.352326    0.056635    0.082876
H      0.013261   -1.926832   -0.594632
H      1.867870   -0.842838    1.519376
H      3.326120   -0.093218   -0.521616
H      2.369872    2.195180   -0.299709
H     -0.140919    2.247264    0.493240
H     -1.474848    0.102785   -0.105136
12

C      0.417382   -1.033258   -0.142073
C      1.589473   -0.837535    0.711777
C      2.268113    0.049417   -0.233463
C      1.552458    1.367180   -0.356314
C      0.240738    1.349269   -0.051329
C     -0.446134    0.200323   -0.039470
H      0.274378   -1.820579   -0.784436
H      1.864065   -1.104478    1.740861
H      3.327830   -0.074367   -0.663153
H      2.273793    2.255154   -0.344197
H     -0.004540    2.162490    0.595221
H     -1.503145    0.246323    0.138165
12

C      0.410161   -0.966463    0.157331
C      1.673474   -0.882631    0.739672
C      2.227537    0.000172   -0.248289
C      1.654785    1.265575   -0.083215
C      0.268535    1.374496    0.335194
C     -0.361674    0.173832   -0.016276
H      0.324260   -1.578409   -0.728449
H      1.929514   -1.052865    1.718183
H      2.990969   -0.138435   -0.926896
H      2.099082    2.110659   -0.472382
H     -0.068659    2.377975    0.564955
H     -1.293573    0.076034   -0.468237
12

C      0.317181   -1.111988    0.041870
C      1.713856   -0.921579    0.696411
C      2.284743    0.008125   -0.298738
C      1.551721    1.229626   -0.089405
C      0.288500    1.360471    0.376255
C     -0.520791    0.163043    0.108022
H      0.423156   -1.638221   -0.792121
H      1.941969   -0.869009    1.723510
H      3.130190   -0.151857   -0.841273
H      2.198404    2.142939   -0.499269
H     -0.075443    2.259541    0.577642
H     -1.399076    0.288848   -0.431315
12

C      0.577590   -0.995289   -0.102865
C      1.747583   -0.852062    0.712707
C      2.406445    0.098782    0.000028
C      1.723468    1.422043    0.208930
C      0.304929    1.379113    0.194599
C     -0.249246    0.208344   -0.048632
H      0.013234   -1.836169   -0.512131
H      2.069286   -1.354867    1.632986
H      2.565145   -0.052937   -1.012007
H      2.208702    2.196168   -0.319175
H     -0.192971    2.411744    0.089243
H     -1.319756    0.135069   -0.272092
12

C      0.434825   -1.029981   -0.078322
C      1.613512   -0.873541    0.791005
C      2.398105    0.095191   -0.114043
C      1.826407    1.447892    0.180358
C      0.292403    1.420427    0.056019
C     -0.286321    0.211347   -0.095977
H      0.203074   -2.024838   -0.629676
H      2.146116   -1.192909    1.722618
H      2.661986   -0.303339   -1.104393
H      2.241167    2.370641   -0.184224
H     -0.273381    2.369981    0.276784
H     -1.403482    0.269067   -0.248560
12

C      0.389238   -1.109405    0.141935
C      1.684757   -0.915229    0.795678
C      2.284721    0.071121   -0.129644
C      1.665709    1.378861   -0.191575
C      0.316335    1.453831   -0.193569
C     -0.389568    0.279673    0.000882
H      0.206816   -1.530540   -0.861949
H      2.087485   -1.348369    1.647575
H      2.973590   -0.106801   -0.792386
H      2.210972    2.223232   -0.167882
H     -0.215125    2.248118    0.232989
H     -1.360517    0.115449    0.089536
12

C      0.369209   -1.104873   -0.096340
C      1.824820   -1.123762    0.027756
C      2.485626    0.137550   -0.211245
C      1.790710    1.369602    0.078023
C      0.339776    1.265106    0.224369
C     -0.393876    0.029666    0.078766
H     -0.291267   -2.051603   -0.203989
H      1.617927   -0.763481    1.330937
H      3.467171    0.182521   -0.635159
H      2.269466    2.382702   -0.152305
H     -0.162529    2.298807    0.090327
H     -1.462623    0.137704    0.040451
12

C      0.329857   -1.080084   -0.140590
C      1.813443   -1.061223    0.145652
C      2.497126    0.189956   -0.199039
C      1.823329    1.302209    0.033453
C      0.433086    1.240239    0.171117
C     -0.322884    0.061738    0.071773
H     -0.288665   -1.865406   -0.083915
H      1.571487   -0.583235    1.034067
H      3.489208    0.030959   -0.578414
H      2.076823    2.282842   -0.076355
H     -0.178334    2.122839    0.207892
H     -1.390067    0.119106   -0.014050
12

C      0.282804   -1.104250   -0.084162
C      1.790220   -1.101836    0.218189
C      2.474805    0.161398   -0.238135
C      1.783857    1.310142   -0.133200
C      0.445641    1.203079    0.030600
C     -0.351234    0.050956    0.014983
H     -0.170918   -2.026337   -0.190122
H      1.472346   -0.538360    1.249222
H      3.470913    0.206685   -0.684305
H      2.202546    2.271358   -0.038704
H     -0.118496    2.154234    0.422404
H     -1.428073    0.172873    0.004821
12

C      0.302670   -1.130468    0.048493
C      1.790993   -1.103284    0.247427
C      2.408688    0.181022   -0.213552
C      1.734165    1.372919   -0.187708
C      0.334030    1.238014    0.085409
C     -0.426290    0.052986    0.032566
H     -0.096660   -2.132965   -0.181362
H      1.454004   -0.663487    1.079502
H      3.390812    0.387955   -0.603911
H      2.393968    2.240570   -0.057842
H      0.042220    2.161748    0.296337
H     -1.474189    0.154931    0.026230
12

C      0.336713   -1.155584    0.056390
C      1.781816   -1.121597    0.263621
C      2.461983    0.115586   -0.240354
C      1.752771    1.388300   -0.214664
C      0.348630    1.255402    0.109345
C     -0.448389   -0.001809   -0.026316
H     -0.127765   -2.199647   -0.265326
H      1.492717   -0.643807    1.099048
H      3.484352    0.263493   -0.523056
H      2.323929    2.358907   -0.141533
H     -0.062041    2.230948    0.409654
H     -1.490304    0.269747    0.044782
12

C      0.308647   -1.126010   -0.080746
C      1.839781   -1.178633    0.166546
C      2.487151    0.217065   -0.192176
C      1.884050    1.387147   -0.112578
C      0.393411    1.329082    0.112610
C     -0.372196    0.047399    0.352992
H     -0.288208   -1.973390   -0.352700
H      1.525435   -0.866335    1.152054
H      3.465899    0.245959   -0.334017
H      2.254859    2.387575   -0.377099
H     -0.152560    2.312490    0.220321
H     -1.491857   -0.022409    0.016382
12

C      0.342986   -1.051926   -0.108516
C      1.643110   -1.043215    0.130080
C      2.482389    0.142846   -0.114940
C      1.668783    1.208967   -0.205849
C      0.323162    1.249080    0.178779
C     -0.412848    0.093640    0.071399
H     -0.115523   -1.870368   -0.651368
H      1.735542   -0.599168    1.109647
H      3.648802   -0.026418   -0.142557
H      2.033532    2.202233   -0.355677
H     -0.152213    2.153395    0.202865
H     -1.343311    0.300875    0.457726
12

C      0.487715   -1.190607   -0.316255
C      1.714561   -0.913715    0.487040
C      2.498621    0.256846    0.103782
C      1.830934    1.500585    0.093181
C      0.430109    1.396148    0.123946
C     -0.182093    0.131680   -0.129786
H     -0.076128   -2.124233   -0.338378
H      1.520020   -1.367367    1.537960
H      2.758740    0.217962   -0.877042
H      2.315317    2.446599   -0.395853
H     -0.087299    2.371186    0.085840
H     -1.356087    0.034855    0.197153
12

C      0.491200   -1.188504   -0.310816
C      1.712195   -0.905376    0.493781
C      2.493669    0.271071    0.101702
C      1.821627    1.515757    0.090256
C      0.425686    1.410051    0.115856
C     -0.170364    0.137372   -0.127505
H     -0.106186   -2.116115   -0.341254
H      1.517452   -1.373839    1.508639
H      2.755758    0.199216   -0.871814
H      2.314677    2.444027   -0.363407
H     -0.089180    2.352690    0.048216
H     -1.312123    0.013589    0.227937
12

C      0.467380   -1.159596   -0.259391
C      1.673548   -0.891336    0.528914
C      2.427087    0.315750    0.074383
C      1.735747    1.592437    0.072819
C      0.408780    1.478480    0.070132
C     -0.135633    0.141833   -0.080424
H     -0.240820   -1.964477   -0.335906
H      1.589145   -1.392162    1.406410
H      2.856743   -0.013303   -0.988294
H      2.300956    2.424226   -0.072071
H     -0.242931    2.291101   -0.180765
H     -0.985591   -0.063013    0.335783
12

C      0.316602   -1.071519   -0.077095
C      1.648352   -1.125807    0.068397
C      2.420233    0.093223   -0.180531
C      1.676060    1.336175   -0.133231
C      0.389569    1.261435    0.107893
C     -0.332017    0.151723    0.244817
H     -0.250110   -1.683056   -0.735554
H      1.653244   -0.797582    1.357729
H      3.492763    0.214134   -0.194249
H      2.198724    2.254287   -0.372420
H     -0.150446    2.231420   -0.024559
H     -1.208563   -0.104493    0.510394
12

C      0.354854   -1.151628   -0.471672
C      1.445212   -0.855639    0.560522
C      2.217878    0.247381   -0.023254
C      1.711200    1.559399   -0.095711
C      0.372237    1.546276   -0.032692
C     -0.284851    0.142458    0.072325
H     -0.298770   -1.986457   -0.324525
H      2.080381   -1.508470    1.025792
H      3.337236    0.134920   -0.333191
H      2.360354    2.339484   -0.046361
H     -0.228588    2.303135   -0.443631
H     -1.212733   -0.010919    0.683988
12

C      0.541103   -0.959448   -0.181211
C      1.620741   -0.934681    0.891775
C      2.226350    0.123396    0.055842
C      1.625867    1.514688   -0.174717
C      0.258215    1.548072   -0.126184
C     -0.250064    0.278271    0.099227
H     -0.101753   -1.734349   -0.431447
H      2.248760   -1.826385    1.007323
H      3.191154   -0.145759   -0.551560
H      2.219610    2.421627   -0.052790
H     -0.379447    2.240646   -0.368324
H     -1.346125    0.233861    0.403655
12

C      0.452215   -0.987607   -0.025177
C      1.645581   -0.985174    0.754541
C      2.150157    0.034607   -0.203717
C      1.694558    1.318264   -0.129567
C      0.334606    1.478696    0.222715
C     -0.442629    0.169259    0.082181
H      0.381192   -1.778655   -0.766720
H      2.023615   -1.023157    1.707822
H      2.969588   -0.108953   -0.815563
H      2.218874    2.131172   -0.441192
H     -0.061216    2.372456    0.520405
H     -1.512129    0.139031   -0.334139
12

C      0.430636   -0.844890    0.288432
C      1.752837   -1.019464    0.986345
C      2.194833    0.075316   -0.085077
C      1.589780    1.431765   -0.127290
C      0.157574    1.606374   -0.041905
C     -0.433018    0.385920    0.043922
H      0.389669   -1.566192   -0.507797
H      2.447304   -1.922937    1.033447
H      3.019993   -0.314153   -0.677070
H      2.381243    2.235497   -0.096753
H     -0.575796    2.410316   -0.187934
H     -1.500645    0.282388   -0.056729
12

C      0.425366   -1.119577   -0.028744
C      1.658118   -0.852164    0.662297
C      2.488713    0.120392   -0.063511
C      1.830841    1.531030   -0.164984
C      0.313341    1.408345    0.011639
C     -0.297036    0.147519   -0.024731
H      0.212915   -2.033703   -0.659897
H      1.803710   -1.306132    1.538662
H      2.777307   -0.353816   -0.954964
H      2.096749    2.631454    0.049857
H     -0.057127    2.407518    0.044344
H     -1.398486    0.179074    0.161620
12

C      0.281358   -1.051739   -0.119223
C      1.784352   -1.189872    0.122531
C      2.396512    0.125356   -0.156854
C      1.782679    1.281251    0.040297
C      0.345185    1.295755    0.193796
C     -0.335353    0.107171    0.114947
H     -0.131482   -1.944358   -0.383060
H      1.622581   -0.747832    1.396242
H      3.357305    0.285892   -0.689391
H      2.232685    2.275025   -0.087646
H     -0.088280    2.239065   -0.114363
H     -1.393131    0.084225    0.254314
12

C      0.297177   -1.101019    0.004688
C      1.808435   -1.157201    0.159299
C      2.442852    0.095280   -0.169353
C      1.846413    1.287030    0.089964
C      0.385732    1.365542    0.208624
C     -0.338808    0.067142    0.146027
H     -0.273215   -2.048278   -0.313006
H      1.716923   -0.694167    1.153316
H      3.338544    0.294554   -0.609856
H      2.206763    2.274128   -0.082598
H     -0.179432    2.206588   -0.082260
H     -1.396973    0.170341    0.066745
12

C      0.569975   -1.016892   -0.210310
C      1.709560   -0.955897    0.696512
C      2.398908    0.126122   -0.027627
C      1.692578    1.420919    0.096596
C      0.307935    1.457289    0.233237
C     -0.328449    0.224616   -0.064956
H     -0.001503   -1.974750   -0.469437
H      1.964409   -1.147727    1.633415
H      2.733177   -0.064775   -1.017676
H      2.356285    2.242470   -0.303093
H     -0.216109    2.378188    0.248488
H     -1.332356    0.070377   -0.243557
12

C      0.654136   -1.056406   -0.236452
C      1.735685   -0.891496    0.667155
C      2.389865    0.129193   -0.072138
C      1.740892    1.370577    0.028371
C      0.304730    1.413123    0.109753
C     -0.325006    0.157615   -0.097373
H      0.036523   -1.816725   -0.460077
H      1.730241   -1.043243    1.833598
H      2.953522   -0.061091   -1.243883
H      2.346480    2.158637   -0.235159
H     -0.256337    2.354192    0.459882
H     -1.456320    0.045563   -0.182087
12

C      0.243967   -1.101415    0.045398
C      1.745975   -0.944374    0.054220
C      2.457431    0.177212   -0.338831
C      1.772763    1.357931   -0.012454
C      0.310690    1.460575    0.129265
C     -0.391022    0.166214   -0.009405
H     -0.183527   -2.023266    0.007737
H      1.140052   -0.974053    1.494227
H      3.430099    0.181273   -0.788251
H      2.202417    2.341658   -0.066079
H     -0.075989    2.497636    0.289358
H     -1.386129   -0.128374   -0.308434
12

C      0.440594   -0.974177   -0.060125
C      1.661086   -0.810379    0.806427
C      2.274929    0.056369   -0.254678
C      1.619006    1.302513    0.015915
C      0.154111    1.467877    0.021453
C     -0.389291    0.275693   -0.119492
H      0.253764   -1.893589   -0.505494
H      2.165778   -1.290554    1.394215
H      3.205080   -0.207951   -0.828388
H      2.307288    2.128077   -0.101371
H     -0.299794    2.476751    0.185864
H     -1.538142    0.229308    0.017265
12

C      0.361883   -1.266403    0.074653
C      1.792645   -1.152527    0.101226
C      2.443505    0.188321   -0.226776
C      1.799829    1.420740   -0.029215
C      0.315131    1.335520    0.137376
C     -0.430027   -0.003453    0.243389
H     -0.203562   -2.068087   -0.397966
H      1.683107   -0.780549    1.242062
H      3.513746    0.217980   -0.525312
H      2.384641    2.315286   -0.212946
H     -0.259109    2.200638    0.153324
H     -1.547378    0.352474    0.011775
12

C      0.262614   -1.234255   -0.030429
C      1.837713   -1.157080    0.105552
C      2.446334    0.231675   -0.316330
C      1.803485    1.366303    0.041209
C      0.391106    1.313811    0.183274
C     -0.418105    0.052371    0.282671
H     -0.306277   -2.047756   -0.463909
H      1.651569   -0.695050    1.386302
H      3.466927    0.249048   -0.534895
H      2.315971    2.297547   -0.194566
H     -0.165702    2.274793    0.078914
H     -1.431225    0.108532    0.033797
12

C      0.468505   -1.070847   -0.121846
C      1.882413   -1.123839    0.163830
C      2.558500    0.100769   -0.012371
C      1.758505    1.351144    0.012045
C      0.377145    1.225457    0.042246
C     -0.360688    0.039001   -0.100173
H     -0.132225   -1.945800   -0.056127
H      1.517869   -0.737026    1.179480
H      3.297322    0.141310   -0.822776
H      2.214260    2.292715   -0.003967
H     -0.272676    2.078315    0.168907
H     -1.454519    0.408741    0.122343
12

C      0.440350   -1.070588   -0.069103
C      1.831130   -1.061522    0.187327
C      2.584628    0.163794   -0.020213
C      1.744525    1.368759    0.025541
C      0.354668    1.319975    0.051537
C     -0.371313    0.106447   -0.093907
H      0.033371   -2.012660   -0.022181
H      1.409012   -0.759987    1.066937
H      3.205885    0.033743   -0.846679
H      2.341957    2.255939   -0.034916
H     -0.285827    2.200775    0.267812
H     -1.433975    0.215264    0.059436
12

C      0.362791   -0.812544    0.185055
C      1.673587   -0.801063    0.737360
C      2.338713    0.017642   -0.230972
C      1.629867    1.239608   -0.261392
C      0.202534    1.441728   -0.029985
C     -0.590091    0.338039    0.027973
H      0.607670   -1.282070   -0.812653
H      1.877533   -1.478928    1.534695
H      3.306078   -0.253074   -0.693243
H      2.262207    2.135630   -0.344501
H     -0.194894    2.367826    0.288860
H     -1.621584   -0.152855    0.170394
12

C      0.335114   -0.837777    0.134070
C      1.682471   -0.842679    0.745724
C      2.322160   -0.014170   -0.227962
C      1.607795    1.218505   -0.238603
C      0.221030    1.482372    0.000663
C     -0.604120    0.298385    0.038778
H      0.635647   -1.241282   -0.786943
H      1.948883   -1.555270    1.724918
H      3.217201   -0.228977   -0.758587
H      2.126531    2.166731   -0.411800
H     -0.063566    2.499182    0.369042
H     -1.574735   -0.185080   -0.017709
12

C      0.368816   -1.092367   -0.132804
C      1.784947   -1.217097    0.310622
C      2.488151    0.005290   -0.135023
C      1.782113    1.328374   -0.053717
C      0.387679    1.395118    0.087291
C     -0.417028    0.035710    0.078420
H     -0.280685   -2.024570   -0.453256
H      1.746553   -0.571286    1.364908
H      3.476364    0.213255   -0.662882
H      2.245010    2.307621   -0.184014
H     -0.196549    2.238591    0.275107
H     -1.530961    0.141301    0.076939
12

C      0.307042   -1.116176   -0.211659
C      1.730935   -1.208649    0.243184
C      2.449635    0.044389   -0.137980
C      1.755149    1.284782    0.008584
C      0.324323    1.329270    0.114700
C     -0.379445    0.054825   -0.042025
H     -0.141576   -2.024355   -0.259686
H      1.656353   -0.494324    1.319785
H      3.454991    0.185377   -0.700415
H      2.165120    2.277343   -0.173954
H     -0.004984    2.382853    0.378956
H     -1.463131    0.044603    0.032101
12

C      0.405016   -1.094021    0.174349
C      1.792023   -0.909370    0.654674
C      2.452317    0.263752    0.199820
C      1.767925    1.571083   -0.099556
C      0.476769    1.532554   -0.039148
C     -0.153301    0.159837   -0.238083
H     -0.114691   -1.902767    0.000315
H      2.124800   -1.833058    1.349261
H      2.266820    0.194302   -0.941985
H      2.357017    2.331567   -0.103759
H     -0.320853    2.250545    0.182141
H     -1.199431    0.195517   -0.566441
12

C      0.481375   -1.134013    0.151183
C      1.816307   -1.034372    0.909517
C      2.117343    0.085984   -0.038134
C      1.587900    1.425524   -0.103292
C      0.254323    1.534590    0.009340
C     -0.325808    0.333627    0.095195
H      0.092412   -1.604834   -0.708076
H      2.431110   -1.959183    1.342429
H      3.013841   -0.039727   -0.636778
H      2.098367    2.320318   -0.190482
H     -0.300468    2.436139   -0.372126
H     -1.412293    0.395888    0.112814
12

C      0.319832   -1.069603    0.326935
C      1.654505   -1.232179    0.528111
C      2.369009   -0.041927   -0.036474
C      1.589319    1.343553   -0.162534
C      0.216143    1.430090   -0.040224
C     -0.372887    0.230205    0.235846
H      0.280558   -0.982856   -0.868051
H      2.119510   -1.545780    1.584295
H      3.321379   -0.056785   -0.557890
H      2.122035    2.252845   -0.604910
H     -0.409995    2.340506    0.180985
H     -1.354997    0.091870   -0.014498
12

C      0.364999   -1.005444   -0.159131
C      1.492605   -0.906663    0.801334
C      2.359245    0.132535   -0.161258
C      1.674901    1.497112   -0.324508
C      0.363719    1.537712   -0.000763
C     -0.295651    0.184143    0.062251
H      0.081831   -1.953347   -0.739015
H      1.971026   -1.453396    1.647460
H      3.196391   -0.090361   -0.850000
H      2.283042    2.366270   -0.022267
H     -0.265228    2.406002   -0.007814
H     -1.372470    0.045377    0.325300
12

C      0.435308   -1.070320   -0.207483
C      1.576303   -0.980666    0.765589
C      2.301055    0.135577   -0.191847
C      1.623396    1.494684   -0.287140
C      0.283849    1.394195   -0.031038
C     -0.322417    0.100895    0.009650
H      0.066072   -1.887428   -0.683056
H      1.970334   -1.290956    1.722302
H      3.171352   -0.016677   -0.798638
H      2.291407    2.290769   -0.135310
H     -0.195530    2.325049    0.222998
H     -1.346720    0.264817    0.185565
12

C      0.455291   -0.994747    0.145456
C      1.727109   -0.962212    0.820592
C      2.385486    0.094333   -0.221554
C      1.591928    1.357862    0.010067
C      0.129014    1.469538    0.265399
C     -0.329476    0.246693   -0.007870
H      0.084410   -1.786505   -0.588695
H      2.190147   -1.417368    1.732603
H      2.873042   -0.022954   -1.217594
H      2.296685    2.201300    0.026190
H     -0.174048    2.380933   -0.116117
H     -1.375177    0.193067   -0.276886
12

C      0.578632   -0.883812    0.180369
C      1.822190   -0.979323    0.825308
C      2.217877    0.093236    0.043920
C      1.624475    1.542137    0.017175
C      0.208602    1.612067   -0.163656
C     -0.325730    0.350046    0.041567
H      0.157556   -1.712961   -0.476975
H      2.213810   -1.846758    1.314488
H      2.732513   -0.224317   -0.883051
H      2.465895    2.268382   -0.176186
H     -0.490504    2.530130   -0.006071
H     -1.350906    0.011113   -0.145296
12

C      0.554027   -0.853844    0.084152
C      1.821731   -1.007890    0.764154
C      2.224876    0.102861   -0.047387
C      1.629246    1.532251   -0.036727
C      0.251266    1.582156   -0.126762
C     -0.246117    0.381628    0.028002
H      0.194956   -1.710340   -0.447898
H      2.136472   -1.832404    1.405508
H      2.897904   -0.251383   -0.847425
H      2.290183    2.305762   -0.133549
H     -0.420453    2.367696   -0.038322
H     -1.479681    0.143444   -0.032156
12

C      0.547150   -1.112057   -0.114549
C      1.735822   -0.885756    0.666505
C      2.403374    0.104822   -0.134945
C      1.675239    1.332463   -0.113562
C      0.341102    1.422410    0.252247
C     -0.285779    0.182692    0.039089
H      0.410304   -1.789132   -0.931535
H      1.628242   -0.842659    1.840683
H      2.784725   -0.360953   -1.113013
H      2.327806    2.215008   -0.202861
H     -0.290677    2.343222    0.325184
H     -1.422897    0.149879    0.058349
12

C      0.496712   -0.984368   -0.077672
C      1.707831   -0.960431    0.675374
C      2.286891    0.106001   -0.073047
C      1.698705    1.381832   -0.017906
C      0.235373    1.421407    0.066044
C     -0.317419    0.167333   -0.084352
H      0.272130   -1.854788   -0.650135
H      1.858232   -1.227872    1.840066
H      2.827525   -0.097168   -1.089137
H      2.356933    2.287059   -0.267941
H     -0.134019    2.439993    0.325892
H     -1.434483    0.080941   -0.075597
12

C      0.446308   -0.943549    0.036435
C      1.620149   -0.906745    0.885302
C      2.394614    0.092430   -0.082406
C      1.667047    1.428455   -0.048681
C      0.271254    1.571689    0.078202
C     -0.391596    0.224160    0.075001
H      0.413596   -1.587323   -0.769080
H      1.987498   -1.662702    1.507196
H      3.043773   -0.284100   -0.879733
H      2.235807    2.323920   -0.371125
H     -0.338958    2.369198    0.025612
H     -1.495081    0.134507    0.114868
12

C      0.242129   -1.111085   -0.542171
C      1.534537   -0.907966    0.294961
C      2.363144    0.205643    0.010803
C      1.878786    1.479221   -0.102780
C      0.308853    1.599864   -0.050461
C     -0.237604    0.095512    0.181179
H     -0.310870   -1.959311   -0.138909
H      1.878673   -1.486282    0.994523
H      3.377292    0.216101   -0.149463
H      2.497704    2.441900   -0.257385
H     -0.522015    2.128453   -0.263288
H     -1.156219    0.057888    0.594580
12

C      0.256552   -1.208574   -0.602042
C      1.727750   -1.054812    0.078207
C      2.507005    0.188780   -0.196206
C      1.833618    1.460971   -0.188379
C      0.389372    1.318422   -0.113661
C     -0.330969   -0.024141    0.175876
H     -0.624338   -2.086773   -0.520430
H      1.493353   -0.828549    1.191249
H      3.519876    0.340096    0.215704
H      2.117504    2.444138   -0.357472
H      0.011282    2.384909    0.008092
H     -1.046595   -0.174528    0.880649
12

C      0.351645   -1.142787   -0.059273
C      1.706684   -0.726103    0.391980
C      2.316738    0.097185   -0.617446
C      1.671489    1.193832   -0.191085
C      0.280963    1.264997    0.071768
C     -0.486495   -0.073341    0.006129
H     -0.034012   -2.093854   -0.423757
H      1.782853   -0.632155    1.432641
H      3.380576    0.109823   -0.624378
H      2.431775    2.158212    0.250907
H     -0.082860    2.421139    0.257240
H     -1.464946    0.182992    0.076862
12

C      0.434618   -1.139074   -0.287860
C      1.632553   -0.998344    0.558740
C      2.219748    0.095498   -0.166954
C      1.575280    1.478063   -0.149338
C      0.322279    1.519635    0.033457
C     -0.360823    0.226267    0.120589
H      0.207166   -2.117960   -0.543798
H      1.837705   -1.297013    1.494462
H      3.288856    0.022824   -0.763950
H      2.335848    2.176023   -0.041780
H     -0.247560    2.644518   -0.073557
H     -1.391258    0.149502    0.391578
12

C      0.579468   -0.901288    0.028079
C      1.773226   -0.815499    0.551034
C      2.551621    0.262606    0.084590
C      1.793632    1.578072    0.148488
C      0.450278    1.428123   -0.054579
C     -0.218168    0.184054   -0.019613
H     -0.097570   -1.697744   -0.020032
H      2.093224   -1.636179    1.226860
H      2.189667   -0.254092   -0.905620
H      2.370220    2.411529    0.017211
H     -0.434307    2.127524   -0.028717
H     -1.196881    0.072835   -0.456111
12

C      0.570849   -0.856555    0.312499
C      1.782711   -0.896056    0.968828
C      2.256241    0.095805   -0.076182
C      1.693139    1.489764   -0.013131
C      0.370120    1.613395    0.022808
C     -0.391740    0.420868    0.036446
H      0.405314   -2.056297   -0.292853
H      1.929342   -1.868983    0.981041
H      2.954250   -0.206935   -1.062832
H      2.329555    2.365756   -0.030268
H     -0.432684    2.390685   -0.116309
H     -1.612686    0.268492   -0.158456
12

C      0.431872   -1.129887   -0.110417
C      1.776486   -1.008568    0.604506
C      2.469400    0.161534    0.039774
C      1.698200    1.482695    0.032017
C      0.264714    1.410644   -0.163322
C     -0.185533    0.165653    0.122018
H     -0.085781   -1.887123   -0.788264
H      1.896314   -1.405661    1.657573
H      2.878704   -0.027898   -0.894949
H      2.097364    2.442663   -0.092197
H     -0.066058    2.402558   -0.210426
H     -1.321273    0.153329    0.375277
12

C      0.197886   -1.106481    0.045422
C      1.754485   -1.168331    0.085961
C      2.581350    0.191933   -0.251639
C      1.822471    1.331862    0.091799
C      0.359635    1.343924    0.097823
C     -0.437159    0.056515    0.119329
H     -0.259471   -2.035286   -0.200392
H      1.752718   -0.564453    1.239129
H      3.371292    0.174463   -0.715808
H      2.154934    2.251613    0.071591
H     -0.005883    2.261688    0.118522
H     -1.437848    0.022494   -0.130148
12

C      0.329283   -1.190136    0.121498
C      1.974962   -1.166950    0.247935
C      2.530010    0.185589   -0.131755
C      1.755649    1.403907    0.033373
C      0.349314    1.461858    0.129210
C     -0.331767    0.050775    0.242950
H     -0.239819   -2.109892   -0.136980
H      1.492818   -1.022124    1.108376
H      3.284546    0.191238   -0.836040
H      2.269126    2.419204   -0.068871
H     -0.255177    2.363129    0.048805
H     -1.304534    0.173343   -0.186910
12

C      0.301374   -0.982102   -0.005288
C      1.799658   -0.963000    0.262035
C      2.478191    0.193744   -0.295517
C      1.733918    1.355787   -0.117111
C      0.311733    1.299930    0.016396
C     -0.390364    0.220103   -0.053488
H     -0.163478   -1.971424   -0.241402
H      1.129535   -0.546874    1.617487
H      3.398818    0.236164   -0.660120
H      2.323694    2.296454   -0.160987
H     -0.216399    2.158498    0.265863
H     -1.450470    0.140917   -0.007856
12

C      0.319026   -1.011700   -0.394753
C      1.474451   -0.653321    0.421823
C      2.394531    0.197303   -0.181612
C      1.864267    1.456380   -0.032040
C      0.369365    1.265552    0.329092
C     -0.290725    0.167417   -0.161256
H      0.030589   -2.008585   -0.301909
H      1.747659   -0.887683    1.518189
H      3.206215   -0.253549   -0.669566
H      2.359281    2.341366   -0.462838
H     -0.299690    2.042928    0.639557
H     -1.320559    0.103832   -0.133098
12

C      0.486933   -1.042053    0.211659
C      1.763468   -1.060063    1.031284
C      2.134273    0.029704   -0.010149
C      1.616173    1.471561   -0.062116
C      0.192349    1.524703    0.123534
C     -0.385284    0.246073    0.168266
H      0.261945   -1.931303   -0.551147
H      2.388487   -1.918775    1.144666
H      2.961398   -0.112178   -0.701153
H      2.101126    2.360028   -0.419188
H     -0.333731    2.596742   -0.004432
H     -1.332726    0.595501   -0.359633
12

C      0.493678   -0.986778    0.029702
C      1.800103   -0.826632    0.721306
C      2.494013    0.101327   -0.296307
C      1.719140    1.505422   -0.345816
C      0.280692    1.482702   -0.337993
C     -0.372827    0.343758   -0.095696
H      0.036784   -1.995693   -0.305579
H      1.924415   -1.470481    1.506244
H      3.256080   -0.280235   -1.051982
H      2.006149    2.234193    0.490043
H     -0.355727    2.346382    0.166205
H     -1.428089    0.305975    0.091463
12

C      0.492205   -1.149786   -0.042168
C      1.771466   -1.027272    0.542940
C      2.594603    0.173658    0.069462
C      1.794051    1.519170    0.047759
C      0.429951    1.412705    0.058995
C     -0.159827    0.147995   -0.263274
H     -0.176500   -1.871636    0.066174
H      2.049171   -1.543863    1.544195
H      2.316572    0.099413   -1.071173
H      2.357814    2.442979   -0.025655
H     -0.435443    2.363975    0.172382
H     -1.179653    0.192601   -0.528048
12

C      0.544835   -1.009484   -0.093035
C      1.760188   -0.997609    0.575897
C      2.659346    0.194639    0.087130
C      1.785314    1.472809    0.000128
C      0.440718    1.421788    0.003907
C     -0.146568    0.157948   -0.314201
H     -0.303573   -1.812218    0.089084
H      2.013937   -1.341058    1.491008
H      2.387836   -0.084131   -1.054195
H      2.125656    2.549027    0.001751
H     -0.200473    2.038629    0.352053
H     -1.212807    0.169599   -0.567936
12

C      0.317969   -1.051362   -0.094103
C      1.820305   -1.243085    0.267753
C      2.409497    0.132025   -0.265328
C      1.785002    1.438948   -0.009859
C      0.386406    1.340296    0.142714
C     -0.285435    0.165082    0.160397
H     -0.154230   -1.952836   -0.326080
H      1.427357   -0.900147    1.346463
H      3.506723    0.155833   -0.657204
H      2.160568    2.399807   -0.275369
H     -0.184396    2.209607    0.176058
H     -1.335356    0.065771    0.106149
12

C      0.327313   -1.075498    0.065072
C      1.914922   -1.215652    0.242154
C      2.434420    0.072392   -0.272431
C      1.776468    1.363764   -0.099147
C      0.377559    1.303697    0.087912
C     -0.289040    0.101992    0.277246
H     -0.304759   -1.865681   -0.483760
H      1.597332   -0.861529    1.276641
H      3.413356    0.224609   -0.467102
H      2.173497    2.387742   -0.208798
H     -0.199466    2.260931    0.080525
H     -1.367191    0.063174    0.073277
12

C      0.286522   -0.955062    0.466363
C      1.746508   -0.969171    0.583551
C      2.460993    0.139079   -0.110732
C      1.621035    1.189206   -0.186775
C      0.159392    1.333421   -0.022333
C     -0.585895    0.143111    0.233631
H      0.341535   -1.152793   -0.921427
H      1.980289   -1.586071    1.427566
H      3.430601   -0.020875   -0.587121
H      2.062404    2.193194   -0.454197
H     -0.064016    2.400708    0.028708
H     -1.584959    0.045193    0.114357
12

C      0.604186   -1.138482   -0.319936
C      1.727846   -0.912909    0.498870
C      2.527039    0.204339    0.039249
C      1.728115    1.421770    0.119915
C      0.384797    1.379874    0.144507
C     -0.223285    0.131358   -0.077759
H     -0.405620   -1.831380   -0.297326
H      1.782801   -1.209143    1.609770
H      2.861692    0.148157   -1.006278
H      2.252431    2.315381   -0.165976
H     -0.143110    2.377415   -0.002258
H     -1.242481   -0.126441    0.028812
12

C      0.322750   -0.967851   -0.321296
C      1.504568   -0.624882    0.446450
C      2.403067    0.135228   -0.194140
C      1.804177    1.412224   -0.066899
C      0.347155    1.319158    0.317700
C     -0.253896    0.185530   -0.068762
H      0.143069   -2.027698   -0.363007
H      1.780844   -0.929164    1.550305
H      3.212944   -0.291135   -0.771073
H      2.301786    2.272599   -0.359097
H     -0.287801    2.149601    0.575227
H     -1.424252    0.126330   -0.173819
12

C      0.262867   -1.119656    0.172532
C      1.723444   -0.842885    0.465892
C      2.428815   -0.051279   -0.408645
C      1.595138    1.248110   -0.283075
C      0.258252    1.301236    0.243205
C     -0.477706    0.171958    0.290009
H      0.277242   -1.644993   -1.086663
H      1.825484   -0.847104    1.559602
H      3.469605   -0.115745   -0.293448
H      2.034636    2.151127   -0.565135
H     -0.045320    2.265182    0.484325
H     -1.498047    0.243991   -0.007009
12

C      0.309529   -1.036974    0.079824
C      1.630333   -0.869872    0.516404
C      2.451123   -0.143132   -0.400293
C      1.621481    1.188253   -0.169614
C      0.274574    1.352110    0.190026
C     -0.611636    0.089762    0.313827
H      0.127578   -1.385040   -1.029904
H      2.117288   -0.940916    1.522359
H      3.479061    0.066430   -0.201917
H      2.204626    2.113320   -0.562195
H     -0.128430    2.290991    0.252416
H     -1.621116    0.035009    0.060658
12

C      0.346373   -0.958428    0.136478
C      1.670918   -0.824866    0.585347
C      2.453218   -0.102635   -0.408743
C      1.669134    1.174188   -0.232118
C      0.309536    1.375074    0.132878
C     -0.556628    0.101937    0.331524
H      0.059125   -1.473647   -1.059894
H      2.121610   -1.052495    1.522877
H      3.486462    0.127521   -0.319907
H      2.184188    2.002853   -0.347658
H     -0.222231    2.358026    0.057792
H     -1.667296    0.032411    0.173014
12

C      0.317538   -0.927495    0.063202
C      1.704226   -0.812604    0.563996
C      2.385025    0.001668   -0.439684
C      1.657283    1.144108   -0.298572
C      0.254474    1.339230    0.064976
C     -0.517759    0.124257    0.262949
H      0.145012   -1.413330   -0.717420
H      1.962855   -1.287912    1.516282
H      3.480880    0.100679   -0.528796
H      2.286138    2.170276   -0.057340
H     -0.252018    2.270653   -0.093201
H     -1.569243    0.050410    0.235196
12

C      0.447317   -0.798023    0.112732
C      1.606530   -0.771625    0.787571
C      2.238059    0.091383   -0.220737
C      1.675448    1.321525    0.036742
C      0.283699    1.414277    0.099224
C     -0.493697    0.272342    0.004512
H      0.543285   -1.673851   -0.658251
H      2.011548   -1.424402    1.444038
H      3.023116   -0.227320   -0.876907
H      2.279187    2.069885   -0.254154
H     -0.242087    2.350771    0.104012
H     -1.517996    0.134978   -0.007193
12

C      0.340288   -0.988334    0.055668
C      1.642373   -0.751302    0.804996
C      2.162126    0.058729   -0.277008
C      1.598983    1.355888   -0.208309
C      0.207561    1.480881    0.009639
C     -0.404510    0.284816    0.069234
H      0.501090   -1.735834   -0.806535
H      2.012419   -1.482665    1.426544
H      3.071501   -0.172133   -0.620331
H      2.394625    2.189787   -0.162545
H     -0.220984    2.385001    0.021333
H     -1.451061    0.135105    0.258903
12

C      0.451207   -0.978174   -0.037986
C      1.665297   -0.834215    0.742952
C      2.459925    0.270824    0.211731
C      1.765073    1.572554   -0.032935
C      0.429935    1.507504    0.122069
C     -0.158407    0.227250   -0.142078
H     -0.024082   -2.063149    0.031223
H      2.148469   -1.792551    1.155754
H      2.175771   -0.077295   -0.812070
H      2.235190    2.443488   -0.233715
H     -0.125109    2.493439    0.208811
H     -1.168859   -0.009735   -0.642166
12

C      0.323953   -1.052006   -0.049953
C      1.805781   -1.127731    0.601935
C      2.266682   -0.002747   -0.137233
C      1.666946    1.499191   -0.183961
C      0.232608    1.527142    0.006009
C     -0.385502    0.276516    0.105744
H      0.187303   -1.689577   -0.924306
H      2.082336   -1.216832    1.723958
H      3.131572   -0.306736   -0.646966
H      2.244148    2.363221   -0.261190
H     -0.294553    2.449409    0.166436
H     -1.406862    0.040089    0.171116
12

C      0.301855   -1.101230   -0.106741
C      1.931842   -1.095139    0.145261
C      2.534304    0.242489   -0.227710
C      1.805748    1.348632   -0.071279
C      0.366789    1.323601    0.080443
C     -0.382900    0.035319    0.196607
H     -0.278791   -2.016769   -0.138422
H      1.351685   -0.829381    1.215810
H      3.505941    0.238282   -0.634710
H      2.195951    2.363883   -0.120777
H     -0.034133    2.243544    0.206533
H     -1.443879    0.006707    0.026575
12

C      0.433991   -1.109320   -0.187468
C      1.694874   -1.063925    0.676120
C      2.280989    0.152864   -0.254272
C      1.708133    1.490399   -0.141418
C      0.370226    1.441270    0.072686
C     -0.317876    0.170146   -0.048350
H      0.135753   -1.969714   -0.699495
H      1.658180   -1.174264    1.781777
H      3.170113   -0.065590   -0.832871
H      2.237009    2.421646   -0.321040
H     -0.159858    2.257058    0.341065
H     -1.357123    0.209368    0.184856
12

C      0.331990   -0.947777    0.204795
C      1.684595   -0.855907    0.654941
C      2.427112    0.014462   -0.284363
C      1.633653    1.129827   -0.083066
C      0.179151    1.318731    0.062800
C     -0.471784    0.187611    0.007576
H      0.104919   -1.530239   -0.737500
H      2.084237   -1.193463    1.594098
H      3.319033    0.149608   -0.866274
H      2.223592    2.021599   -0.056890
H     -0.187848    2.389644   -0.023086
H     -1.474239    0.075842    0.098558
12

C      0.337678   -1.232923   -0.553566
C      1.564830   -0.959891    0.334673
C      2.353996    0.280498   -0.002142
C      1.660658    1.504136   -0.256937
C      0.373944    1.532790   -0.176216
C     -0.308136    0.089356    0.124864
H     -0.278451   -2.007785   -0.508966
H      1.717152   -1.255635    1.458764
H      3.411489    0.216340   -0.246299
H      2.365727    2.329734   -0.407914
H     -0.121642    2.359163    0.202955
H     -1.222834   -0.095844    0.602373
12

C      0.406304   -1.045718   -0.111099
C      1.750338   -1.163636    0.226822
C      2.386526    0.100354   -0.267399
C      1.746318    1.260375   -0.160371
C      0.421199    1.245551    0.194853
C     -0.367093    0.076996    0.129971
H     -0.181264   -1.905834   -0.348342
H      1.600667   -0.568579    1.192560
H      3.481322    0.168181   -0.497974
H      2.130951    2.212223   -0.088512
H     -0.151275    2.231485    0.172126
H     -1.369583    0.148542    0.128955
12

C      0.416324   -0.970387   -0.122238
C      1.579944   -0.794801    0.846686
C      2.327195    0.146129   -0.155204
C      1.645264    1.378218   -0.267607
C      0.319975    1.521235   -0.021451
C     -0.387014    0.196504    0.102747
H      0.329292   -1.917437   -0.690166
H      1.842007   -1.591429    1.374082
H      3.171309   -0.088211   -0.722997
H      2.222872    2.332587   -0.093720
H     -0.108086    2.433829   -0.107165
H     -1.504672    0.113702    0.428624
12

C      0.426100   -0.874231   -0.108050
C      1.560398   -0.786279    0.914835
C      2.187967    0.162139   -0.039957
C      1.603638    1.456103   -0.230542
C      0.258364    1.536174    0.016869
C     -0.448314    0.227549    0.145375
H      0.456546   -1.801439   -0.630339
H      1.996572   -1.854069    1.253136
H      3.101850   -0.114727   -0.589812
H      2.344289    2.203426   -0.393054
H     -0.177450    2.601800    0.007329
H     -1.455549    0.003494    0.225798
12

C      0.571821   -0.796717    0.050100
C      1.670344   -1.007059    0.984619
C      2.058750    0.047325    0.172481
C      1.633695    1.444168   -0.097910
C      0.252022    1.557751    0.097549
C     -0.389347    0.278607    0.092042
H      0.157595   -1.533003   -0.502893
H      2.512784   -1.858428    0.934265
H      3.045553   -0.205822   -0.281342
H      2.062633    2.098505   -0.823139
H     -0.434901    2.416810    0.299596
H     -1.286536    0.317802   -0.353778
12

C      0.367807   -1.150968   -0.008971
C      1.673225   -0.731239    0.490057
C      2.464514   -0.004002   -0.426429
C      1.723652    1.336081   -0.196349
C      0.406386    1.343357    0.171145
C     -0.378381    0.189118    0.175479
H      0.041789   -1.928994   -0.525051
H      1.654272   -0.965032    1.617695
H      3.379285   -0.096108   -0.931565
H      2.145914    2.353398    0.028087
H     -0.284835    2.139927    0.265346
H     -1.339217    0.274402   -0.087854
12

C      0.327572   -0.885762    0.035419
C      1.752352   -0.864358    0.600610
C      2.318914    0.021013   -0.495053
C      1.623822    1.247882   -0.129462
C      0.161894    1.330649    0.091669
C     -0.577279    0.097455    0.010408
H      0.192052   -1.783473   -0.705763
H      2.048783   -0.461573    1.547785
H      3.347657   -0.117600   -0.823620
H      2.393917    1.837119    0.152718
H     -0.032226    2.349738    0.368487
H     -1.703046   -0.011151   -0.081609
12

C      0.422984   -0.864058    0.050128
C      1.804193   -0.870098    0.539041
C      2.309791    0.005158   -0.508236
C      1.651353    1.176964   -0.111649
C      0.216646    1.323890    0.087516
C     -0.562352    0.229197   -0.072962
H      0.064340   -1.698709   -0.438460
H      1.997008   -0.976500    1.658371
H      3.332196    0.059550   -0.772643
H      2.432620    2.065135   -0.039691
H     -0.260156    2.256158    0.365901
H     -1.554213    0.053252   -0.185727
12

C      0.392018   -0.902735    0.069937
C      1.827780   -0.883546    0.474849
C      2.385946   -0.035738   -0.585718
C      1.732892    1.181103   -0.219527
C      0.245632    1.250411    0.130226
C     -0.615015    0.248468   -0.047211
H      0.080611   -1.706245   -0.372760
H      1.942770   -1.006602    1.594345
H      3.438485    0.064984   -0.627583
H      2.296370    2.184369   -0.022933
H     -0.265148    2.140337    0.358147
H     -1.607930    0.225132   -0.180181
12

C      0.468409   -0.862117   -0.103724
C      1.743916   -0.983312    0.704544
C      2.455346    0.085047   -0.195885
C      1.768517    1.372526   -0.182756
C      0.206514    1.381936   -0.082943
C     -0.473440    0.164832   -0.028680
H      0.187233   -1.793687   -0.424576
H      1.889328   -1.303459    1.709019
H      3.001892   -0.085936   -1.021135
H      2.423385    2.397874   -0.010951
H     -0.238344    2.298887    0.278304
H     -1.578344    0.087349   -0.069628
12

C      0.326000   -1.137613   -0.109676
C      1.795849   -1.206830    0.060588
C      2.530004    0.180660   -0.256186
C      1.765280    1.298031    0.018410
C      0.368577    1.253743    0.130678
C     -0.341508   -0.018915    0.201224
H     -0.397114   -1.856073   -0.217248
H      1.594583   -0.779962    1.324428
H      3.539407    0.335168   -0.632624
H      2.216056    2.330190   -0.022806
H     -0.133027    2.362988   -0.079511
H     -1.409697   -0.001448    0.154312
12

C      0.292243   -1.070690   -0.124033
C      1.765500   -1.181626    0.174101
C      2.489113    0.180336   -0.258437
C      1.774846    1.372991    0.023187
C      0.306846    1.310900    0.111197
C     -0.376777    0.072088    0.147230
H     -0.246286   -2.081844   -0.129041
H      1.595055   -0.633992    1.116910
H      3.503839    0.263476   -0.575843
H      2.328369    2.230597   -0.108003
H     -0.128984    2.198921    0.198184
H     -1.449353    0.098783   -0.003861
12

C      0.426651   -0.904019    0.118943
C      1.664678   -0.847762    1.059623
C      2.183930    0.121180    0.049645
C      1.607806    1.360730   -0.066109
C      0.267794    1.499029    0.142897
C     -0.322510    0.281516    0.042248
H      0.499493   -1.578930   -0.575593
H      2.187720   -1.737468    1.156400
H      2.739915   -0.220799   -0.829647
H      2.261160    2.132882   -0.363216
H     -0.290059    2.538465    0.038794
H     -1.372166    0.115116   -0.202394
12

C      0.306459   -1.086467   -0.062850
C      1.794584   -1.235905    0.232166
C      2.458139    0.141970   -0.258598
C      1.819976    1.325679    0.043862
C      0.330167    1.318867    0.168429
C     -0.438253    0.036710    0.170650
H     -0.312872   -1.979734   -0.158678
H      1.710436   -0.712843    1.148502
H      3.524513    0.242298   -0.683794
H      2.231770    2.292752   -0.014526
H     -0.187805    2.341637    0.024905
H     -1.382704    0.074973   -0.038477
12

C      0.362744   -1.100155   -0.098388
C      1.797597   -1.204276    0.211750
C      2.463051    0.117430   -0.228414
C      1.833243    1.273006    0.091430
C      0.333984    1.273581    0.154065
C     -0.389325    0.042346    0.148246
H     -0.402644   -1.924856   -0.354515
H      1.881468   -0.597659    1.286805
H      3.476352    0.239157   -0.592933
H      2.270673    2.223417   -0.120006
H     -0.257481    2.307042    0.069908
H     -1.515251    0.110906    0.003643
12

C      0.239231   -1.046754    0.130537
C      1.690565   -0.938900    0.482078
C      2.470313   -0.086632   -0.481279
C      1.713006    1.216080   -0.241924
C      0.218092    1.343589    0.027596
C     -0.503109    0.167779    0.030387
H      0.145045   -1.757866   -0.663669
H      2.059393   -0.853038    1.591513
H      3.415884    0.061983   -0.535709
H      2.225155    2.186809   -0.090349
H     -0.154553    2.222189    0.395487
H     -1.664612    0.244701   -0.073076
12

C      0.354820   -1.061964    0.168900
C      1.731965   -1.062815    0.595923
C      2.356243   -0.001350   -0.310228
C      1.644509    1.182537   -0.034861
C      0.318874    1.435168    0.040162
C     -0.430275    0.285014   -0.023100
H      0.232372   -1.801340   -0.659201
H      2.092936   -0.836562    1.658873
H      2.994091    0.058115   -0.976584
H      2.153284    2.034199    0.106101
H     -0.064156    2.373320    0.160935
H     -1.530252    0.155618   -0.155329
12

C      0.387375   -1.103461    0.192003
C      1.760552   -1.046058    0.655703
C      2.381689    0.046225   -0.226185
C      1.622646    1.223425   -0.047167
C      0.258241    1.445889    0.064377
C     -0.416226    0.260789    0.057470
H      0.170822   -1.789679   -0.564725
H      2.066339   -0.984785    1.643346
H      3.084306    0.041372   -1.297872
H      2.392223    2.071828    0.282683
H     -0.330038    2.414756   -0.024486
H     -1.523519    0.179641   -0.163557
12

C      0.485782   -0.882474    0.390654
C      1.740533   -0.895229    1.020139
C      2.313803    0.106221   -0.032519
C      1.655682    1.416359    0.033932
C      0.188030    1.548448   -0.139811
C     -0.442582    0.286300    0.108638
H      0.342736   -1.711467   -0.322378
H      2.186584   -2.022204    0.988826
H      2.728058   -0.102419   -1.016839
H      2.412226    2.316983    0.020130
H     -0.394305    2.584294   -0.253056
H     -1.362137    0.115128   -0.226126
12

C      0.467675   -0.956509   -0.048842
C      1.723771   -1.054886    0.768179
C      2.120713    0.113054   -0.142265
C      1.567921    1.537137   -0.051419
C      0.168718    1.604762   -0.034747
C     -0.394968    0.277444    0.217329
H      0.063326   -1.842371   -0.562501
H      2.231509   -1.713637    1.470018
H      3.058595   -0.042953   -0.719816
H      2.462490    2.235866   -0.215973
H     -0.300598    2.649964   -0.078164
H     -1.314742   -0.047931   -0.030210
12

C      0.477441   -0.823957    0.139859
C      1.774734   -0.982282    0.910391
C      2.318336    0.050754    0.058499
C      1.548426    1.253119   -0.175235
C      0.125879    1.509487   -0.007550
C     -0.491684    0.258612    0.129968
H      0.383479   -1.492007   -0.668405
H      2.270601   -1.767765    1.495421
H      2.915512   -0.047389   -0.933058
H      2.185371    2.117609   -0.194317
H     -0.112287    2.604481   -0.075949
H     -1.541396    0.079277   -0.108034
12

C      0.575032   -0.772949    0.094037
C      1.795335   -0.870558    0.897820
C      2.359800    0.059049   -0.011217
C      1.660881    1.295034   -0.080560
C      0.274039    1.556832    0.017964
C     -0.372909    0.333375    0.084015
H      0.256127   -1.742466   -0.535713
H      2.176973   -1.760452    1.354033
H      2.824476   -0.192731   -0.865568
H      2.206477    2.203386   -0.218386
H     -0.463759    2.375164    0.001411
H     -1.438061    0.276255   -0.166246
12

C      0.428999   -1.018686    0.054874
C      1.708558   -0.938975    0.764909
C      2.311765    0.064092   -0.018723
C      1.617264    1.338143   -0.128421
C      0.162654    1.466539    0.007095
C     -0.385901    0.201184    0.044703
H      0.407504   -1.729279   -0.647071
H      2.044441   -1.415500    1.631039
H      2.840743   -0.166649   -1.039122
H      2.280706    2.317905   -0.138936
H     -0.118256    2.405058    0.159305
H     -1.444064    0.236107   -0.118061
12

C      0.392619   -1.104105   -0.226821
C      1.572396   -0.851466    0.586672
C      2.269215    0.200945   -0.088607
C      1.738500    1.570786   -0.020588
C      0.320913    1.478138    0.000548
C     -0.193221    0.154680   -0.148731
H      0.072326   -2.080014   -0.470534
H      1.877632   -1.142829    1.560436
H      2.754931   -0.245419   -0.990385
H      2.435981    2.390845    0.116398
H     -0.256899    2.333751    0.049115
H     -1.129982    0.054627    0.204086
12

C      0.301490   -1.143912   -0.084774
C      1.874980   -1.188512    0.243245
C      2.444497    0.194557   -0.258965
C      1.813080    1.373722   -0.028022
C      0.409609    1.411864    0.179910
C     -0.349784    0.119325   -0.049271
H     -0.218763   -2.127931   -0.281323
H      1.421155   -0.700424    1.426203
H      3.383596    0.240666   -0.722785
H      2.495951    2.338029   -0.265656
H     -0.347633    2.198276    0.412719
H     -1.373766    0.044280    0.000309
12

C      0.314312   -1.106973   -0.017180
C      1.874590   -1.142817    0.268073
C      2.430667    0.179839   -0.232235
C      1.809817    1.405776    0.020694
C      0.434165    1.414301    0.231206
C     -0.320825    0.117786   -0.089727
H     -0.244834   -2.003358   -0.228895
H      1.427498   -0.672070    1.226099
H      3.376837    0.301340   -0.683013
H      2.449187    2.198316   -0.247738
H     -0.233984    2.164861    0.304416
H     -1.463020   -0.097062    0.019889
12

C      0.485843   -0.864697    0.382721
C      1.758336   -0.857436    1.030534
C      2.314966    0.134502   -0.042315
C      1.705175    1.438886    0.048827
C      0.261437    1.550203   -0.132129
C     -0.411529    0.320316    0.100226
H      0.361436   -1.666803   -0.272807
H      2.151583   -1.938525    0.913726
H      2.716469   -0.186218   -1.026835
H      2.353848    2.217792    0.041428
H     -0.474016    2.478927   -0.188198
H     -1.369137    0.132993   -0.283588
12

C      0.352198   -1.250951   -0.122003
C      1.490057   -0.755549    0.553563
C      2.429028    0.203729   -0.150128
C      1.740721    1.374144   -0.106629
C      0.393966    1.369458    0.385243
C     -0.225188    0.130650    0.016604
H     -0.122360   -2.065423   -0.767362
H      1.688719   -0.860264    1.561577
H      3.371631   -0.030924   -0.710908
H      2.146543    2.246879   -0.580306
H     -0.127210    2.317671    0.527334
H     -1.283695    0.080520   -0.035394
12

C      0.536353   -0.866724    0.176790
C      1.721791   -1.023807    0.920070
C      2.111900    0.113940    0.108973
C      1.470055    1.499683   -0.096241
C      0.109972    1.641697   -0.024614
C     -0.383843    0.318716    0.186640
H      0.478619   -1.617130   -0.475695
H      2.276935   -1.866230    0.768871
H      2.953067   -0.398453   -0.510304
H      2.268327    2.180819   -0.349211
H     -0.252850    2.700969   -0.050829
H     -1.435915    0.076460   -0.082861
12

C      0.380279   -1.230345   -0.261229
C      1.497607   -0.759769    0.453569
C      2.379842    0.308090   -0.175855
C      1.742705    1.443853   -0.173452
C      0.339077    1.365341    0.289351
C     -0.281771    0.063944   -0.124793
H      0.182261   -2.232191   -0.555269
H      1.487364   -0.835216    1.576824
H      3.211968   -0.181078   -0.745617
H      2.245631    2.353162   -0.417175
H      0.078808    2.347741    0.654822
H     -1.409358    0.116406    0.050412
12

C      0.560458   -0.823907    0.178020
C      1.787866   -1.006060    0.901852
C      2.163697    0.116759    0.054723
C      1.525178    1.447166   -0.117654
C      0.160339    1.648128   -0.049259
C     -0.403087    0.327679    0.191155
H      0.490617   -1.757583   -0.451326
H      2.220071   -2.008025    0.906229
H      2.775785   -0.230688   -0.545123
H      2.194347    2.248162   -0.242836
H     -0.092656    2.676545   -0.196242
H     -1.528205    0.121762   -0.057949
12

C      0.515735   -1.025588   -0.033656
C      1.710813   -1.005319    0.665641
C      2.508872   -0.043639    0.061972
C      1.755583    1.458022    0.112542
C      0.268292    1.504503    0.295385
C     -0.236934    0.279968    0.005295
H      0.144075   -1.719914   -0.702073
H      1.804910   -1.057605    1.673633
H      2.865218   -0.160444   -1.061407
H      2.102265    2.091173   -0.597675
H     -0.307325    2.478451    0.461834
H     -1.277094   -0.039669   -0.309901
12

C      0.325557   -1.107244   -0.055275
C      1.779095   -1.109172    0.178994
C      2.418048    0.126470   -0.156514
C      1.845391    1.379978    0.024781
C      0.425513    1.295305    0.147959
C     -0.325059    0.127063    0.054830
H     -0.207676   -1.966629   -0.419742
H      1.644308   -0.624861    1.379274
H      3.333487    0.182442   -0.616266
H      2.450001    2.245792   -0.313615
H     -0.359660    2.156967    0.340006
H     -1.474595    0.053828    0.007157
12

C      0.224151   -1.127245    0.065983
C      1.791009   -1.126984    0.219050
C      2.340594    0.128852   -0.227293
C      1.838543    1.392962    0.000445
C      0.369886    1.308650    0.163710
C     -0.333377    0.135937    0.028543
H     -0.156768   -2.005034   -0.371947
H      1.603988   -0.562914    1.269582
H      3.360204    0.188692   -0.599737
H      2.396127    2.262999   -0.294961
H     -0.225711    2.072621    0.432020
H     -1.354237    0.091403   -0.113804
12

C      0.589603   -0.761323    0.209764
C      1.791647   -0.951387    0.937623
C      2.318539    0.081043    0.014971
C      1.648343    1.432238    0.111340
C      0.229143    1.530254   -0.129767
C     -0.419713    0.353668   -0.007799
H      0.192123   -1.580230   -0.438494
H      2.294002   -1.903370    1.087985
H      2.938588   -0.294384   -0.833427
H      2.204397    2.278724   -0.166809
H     -0.382627    2.527702   -0.172407
H     -1.549635    0.047006   -0.041388
12

C      0.344167   -1.023701   -0.308725
C      1.677873   -1.119747    0.156951
C      2.397803    0.062919   -0.141261
C      1.716990    1.263632   -0.403882
C      0.324968    1.321372    0.113080
C     -0.434082    0.171877    0.126375
H      0.054287   -2.036264   -0.678607
H      1.499929   -0.636319    1.183983
H      3.488367    0.254164    0.090406
H      2.245831    2.172428   -0.513232
H     -0.080328    2.149406    0.329978
H     -1.381396    0.180173    0.616523
12

C      0.377291   -1.082811   -0.297492
C      1.711680   -1.108529    0.126820
C      2.390742    0.076694   -0.104344
C      1.714702    1.288795   -0.359847
C      0.341575    1.337183    0.129575
C     -0.415428    0.205148    0.154655
H      0.062239   -2.010746   -0.694368
H      1.540076   -0.607065    1.287701
H      3.403427    0.196093   -0.035472
H      2.419277    2.084343   -0.527096
H     -0.294081    2.272315    0.410418
H     -1.397089    0.108518    0.481040
12

C      0.246084   -1.179441    0.140164
C      1.617768   -0.815484    0.700223
C      2.228201   -0.022397   -0.293624
C      1.581567    1.201364   -0.221773
C      0.238604    1.384735    0.193626
C     -0.511616    0.189419    0.093148
H      0.331751   -1.775949   -0.814869
H      2.008064   -0.882724    1.665294
H      3.248761    0.112169   -0.813115
H      2.472388    2.064740   -0.348239
H     -0.092830    2.410246    0.566918
H     -1.514333    0.073261   -0.296164
12

C      0.317973   -1.096865   -0.024457
C      1.882300   -1.184397    0.350455
C      2.398909    0.119263   -0.241017
C      1.819678    1.405705   -0.004497
C      0.425939    1.280149    0.096373
C     -0.408003    0.042211   -0.076362
H     -0.265628   -1.910728   -0.309134
H      1.664644   -0.653672    1.424377
H      3.328729    0.105701   -0.755896
H      2.247377    2.384233   -0.178918
H     -0.181868    2.155386    0.442392
H     -1.375639    0.112954   -0.151726
12

C      0.344554   -1.020590    0.076066
C      1.755725   -0.888237    0.465750
C      2.255511    0.014133   -0.573913
C      1.659690    1.240231   -0.182154
C      0.279210    1.292583    0.192686
C     -0.442738    0.072371    0.081978
H      0.154853   -1.779742   -0.643346
H      1.984395   -0.837531    1.512733
H      3.325972    0.054351   -0.549247
H      2.451157    2.052224    0.027785
H     -0.305188    2.326901    0.125586
H     -1.608731    0.233246    0.037666
12

C      0.256171   -1.051080   -0.123715
C      1.833887   -1.120864    0.110197
C      2.554007    0.162084   -0.132886
C      1.788168    1.254902   -0.137981
C      0.304783    1.277811    0.099231
C     -0.377507    0.169261    0.327395
H     -0.206698   -1.855508   -0.565904
H      1.504491   -0.793264    1.165440
H      3.606797    0.248191   -0.306319
H      2.191888    2.257112   -0.266449
H     -0.167888    2.165311   -0.086524
H     -1.433687    0.045984    0.489103
12

C      0.582552   -1.033144   -0.245230
C      1.668005   -0.960837    0.594205
C      2.342808    0.158905   -0.114689
C      1.727847    1.427382   -0.100388
C      0.352240    1.415615    0.200761
C     -0.143700    0.153247   -0.075462
H      0.110015   -1.881246   -0.521891
H      1.590444   -0.990892    1.728669
H      2.940512   -0.185275   -0.987559
H      2.298872    2.248872   -0.349617
H     -0.408910    2.148274    0.518458
H     -1.206274    0.259038   -0.075668
12

C      0.477252   -1.157419   -0.193125
C      1.639513   -0.901187    0.630712
C      2.257771    0.145698   -0.137804
C      1.738098    1.437754   -0.063633
C      0.365234    1.374425    0.208359
C     -0.169097    0.181566   -0.058581
H      0.123916   -2.232946   -0.584927
H      1.668153   -0.961802    1.746668
H      2.847415   -0.003705   -1.022294
H      2.458256    2.349436   -0.295152
H     -0.218962    2.306191    0.457676
H     -1.333138    0.221928   -0.116310
12

C      0.321392   -1.290923   -0.154132
C      1.575299   -0.828274    0.658657
C      2.181944    0.166840   -0.160247
C      1.778736    1.489148    0.010041
C      0.405591    1.401797    0.207265
C     -0.290939    0.201903   -0.086977
H      0.132733   -2.162467   -0.559365
H      1.845650   -1.034391    1.680400
H      2.854288    0.072971   -0.999026
H      2.323600    2.282920   -0.190562
H      0.017563    2.367174    0.274234
H     -1.291446    0.093243   -0.108700
12

C      0.555367   -1.072872   -0.028274
C      1.781654   -0.923651    0.651714
C      2.572233    0.225984    0.168908
C      1.802005    1.500195    0.017253
C      0.438017    1.436377   -0.165769
C     -0.285119    0.150072   -0.208953
H     -0.128613   -1.790018   -0.045492
H      1.926878   -1.536059    1.462638
H      2.498167    0.042127   -1.062093
H      2.280587    2.484103   -0.160888
H     -0.180278    2.085238    0.368576
H     -1.406486    0.158443   -0.426032
12

C      0.399704   -1.011631   -0.137918
C      1.711554   -0.873436    0.619627
C      2.339737    0.151397   -0.203800
C      1.711627    1.523729   -0.220781
C      0.280436    1.443343   -0.017340
C     -0.333846    0.209308   -0.043772
H      0.211101   -1.952086   -0.846860
H      1.773302   -0.798175    1.622315
H      2.984733   -0.385146   -0.717746
H      2.459117    2.219048   -0.168839
H     -0.289632    2.141262    0.509965
H     -1.393422    0.092327    0.176739
12

C      0.568519   -1.031273   -0.168059
C      1.730328   -0.844407    0.553678
C      2.412243    0.176055   -0.271146
C      1.660858    1.418094   -0.285430
C      0.297950    1.398837    0.003380
C     -0.317490    0.117562   -0.063098
H      0.087771   -1.759664   -0.683491
H      1.507639   -0.947753    1.706817
H      3.237830   -0.331788   -0.975173
H      2.395634    2.260632    0.081227
H     -0.421947    2.223542    0.274742
H     -1.304926    0.080103    0.398144
12

C      0.367121   -1.078441    0.136095
C      1.670710   -1.094938    0.707097
C      2.215430    0.081238   -0.117470
C      1.630548    1.410710   -0.231035
C      0.295528    1.494134    0.093631
C     -0.348389    0.229715    0.079933
H      0.477167   -1.676039   -0.874898
H      1.852244   -1.437795    1.839202
H      2.993153   -0.106262   -0.971999
H      2.255200    2.367092   -0.309918
H     -0.119403    2.492997    0.203983
H     -1.434899    0.077530    0.016967
12

C      0.297304   -1.044143    0.170203
C      1.589775   -1.102532    0.764616
C      2.218835    0.087428   -0.132971
C      1.587863    1.424253   -0.260049
C      0.314806    1.516998    0.064114
C     -0.312261    0.305770    0.049245
H      0.553978   -1.647575   -0.836606
H      1.893881   -1.477321    1.751439
H      2.876165   -0.048513   -0.953782
H      2.177312    2.244639   -0.193292
H     -0.036462    2.480308    0.096021
H     -1.306784    0.020630    0.052651
12

C      0.446598   -1.054609   -0.029361
C      1.940859   -1.093149    0.286568
C      2.401313    0.147605   -0.207971
C      1.719683    1.380077   -0.044137
C      0.380279    1.288138    0.191378
C     -0.352487    0.070807    0.093582
H     -0.197391   -1.793673   -0.538884
H      1.499541   -0.751147    1.454228
H      3.453583    0.015260   -0.683173
H      2.103096    2.249297   -0.314057
H     -0.117179    2.210244    0.304337
H     -1.423484    0.091089    0.059080
12

C      0.338993   -1.085300   -0.015829
C      1.732122   -1.017100    0.547523
C      2.486831    0.235878    0.259963
C      1.868114    1.589068   -0.031975
C      0.446963    1.475067   -0.037559
C     -0.204786    0.141747   -0.021447
H     -0.261094   -1.944777   -0.218402
H      2.231693   -1.659395    1.427930
H      2.395279    0.068545   -0.800307
H      2.315805    2.617893   -0.190380
H     -0.238887    2.222205    0.038196
H     -1.256622    0.116108   -0.386123
12

C      0.298903   -1.048366   -0.082410
C      1.772243   -1.207496    0.160623
C      2.470671    0.171702   -0.152763
C      1.748335    1.345020   -0.072021
C      0.382261    1.316916    0.137477
C     -0.305440    0.086181    0.281709
H     -0.201939   -1.836461   -0.528355
H      1.651224   -0.817542    1.174697
H      3.474171    0.228750   -0.269302
H      2.206006    2.232647   -0.383268
H     -0.243343    2.078254    0.027899
H     -1.398682    0.210336    0.277305
12

C      0.483659   -0.823367   -0.289891
C      1.741967   -1.025769    0.690228
C      2.452209    0.070762    0.027837
C      1.611875    1.465425   -0.154074
C      0.260957    1.479179    0.219340
C     -0.364787    0.262792    0.074921
H      0.135683   -1.761702   -0.633225
H      1.668217   -1.373984    1.628472
H      3.164354   -0.141980   -0.770309
H      2.045855    2.258180   -0.617523
H     -0.076827    2.455652    0.346487
H     -1.268752   -0.105249    0.049326
12

C      0.669426   -0.880155   -0.283404
C      1.720909   -0.993802    0.615647
C      2.450648    0.154964   -0.057842
C      1.722155    1.433383   -0.107774
C      0.358316    1.473877    0.206960
C     -0.146189    0.174903   -0.064679
H     -0.052496   -1.714108   -0.517138
H      1.566072   -1.090947    1.604133
H      3.011384   -0.312658   -0.822298
H      2.201127    2.351063   -0.500015
H     -0.433259    2.062017    0.515118
H     -1.213683    0.101404   -0.017119
12

C      0.483568   -0.982144    0.016751
C      1.624266   -0.844700    0.905723
C      2.309825    0.157240   -0.027447
C      1.648725    1.401533   -0.109209
C      0.297014    1.504811    0.253055
C     -0.249649    0.260544   -0.148131
H      0.410686   -1.908255   -0.420103
H      2.020107   -1.607983    1.595906
H      2.463613   -0.152207   -1.078971
H      2.392296    2.255695   -0.295907
H     -0.260151    2.601213    0.337234
H     -1.285890    0.074192   -0.457311
12

C      0.333562   -0.975996    0.113781
C      1.665548   -0.767774    0.530524
C      2.368989   -0.030922   -0.393090
C      1.723354    1.299151   -0.327387
C      0.243828    1.330191    0.162588
C     -0.483228    0.169233    0.038863
H      0.181616   -1.589351   -0.800335
H      1.912248   -0.963545    1.753657
H      3.311237   -0.234426   -0.674760
H      2.245471    2.316300   -0.223038
H     -0.124076    2.243354    0.518776
H     -1.524137   -0.036275   -0.127989
12

C      0.214358   -1.108329   -0.205766
C      1.746469   -1.204917    0.099129
C      2.462959    0.057866   -0.129973
C      1.803311    1.310633   -0.046512
C      0.343586    1.322648    0.060591
C     -0.377875    0.165745    0.077303
H     -0.274408   -2.063507   -0.369300
H      1.786898   -0.654530    1.338977
H      3.452146    0.425998   -0.434763
H      2.306395    2.234673   -0.152245
H     -0.092309    2.243594    0.056957
H     -1.517121    0.030066    0.277191
12

C      0.186770   -1.221043   -0.198314
C      1.816534   -1.104429    0.070340
C      2.438610    0.167183   -0.169601
C      1.695662    1.323778    0.001825
C      0.342400    1.319127    0.142814
C     -0.396611    0.035016    0.097409
H     -0.274868   -2.131085   -0.425381
H      1.734082   -0.545384    1.250092
H      3.577612    0.213179   -0.360439
H      2.305630    2.191937   -0.270635
H     -0.175609    2.315059    0.226997
H     -1.395801    0.196602    0.206483
12

C      0.305349   -1.024943    0.039863
C      1.662360   -1.099767    0.163842
C      2.494208    0.135012   -0.187528
C      1.895828    1.413533   -0.135990
C      0.425142    1.204107    0.220509
C     -0.358623    0.122788    0.088882
H     -0.125509   -2.039048   -0.195144
H      1.464033   -0.683862    1.186233
H      3.341945    0.120318   -0.669500
H      2.276500    2.458274   -0.155477
H     -0.118537    2.182814    0.337574
H     -1.408286   -0.029284   -0.121675
12

C      0.486615   -1.108653   -0.135269
C      1.742391   -0.806156    0.734840
C      2.379771    0.138000   -0.138924
C      1.756109    1.454476   -0.065779
C      0.309243    1.371140   -0.064680
C     -0.355650    0.175432   -0.027101
H      0.051993   -1.908386   -0.728653
H      1.880997   -1.173724    1.776450
H      2.878507   -0.096190   -0.983270
H      2.381232    2.302918   -0.132834
H     -0.248484    2.199369    0.258517
H     -1.408314    0.211714    0.078294
12

C      0.590240   -0.975015   -0.033094
C      1.694751   -0.890614    0.815097
C      2.317398    0.243729    0.021404
C      1.652972    1.413481   -0.074013
C      0.309235    1.465562    0.200156
C     -0.213818    0.206656   -0.167390
H      0.204092   -1.903720   -0.566094
H      1.985147   -1.345323    1.710105
H      2.453233   -0.243544   -1.082901
H      2.213293    2.267225   -0.261406
H     -0.091841    2.321123    0.359228
H     -1.260292    0.200380   -0.349503
12

C      0.367221   -1.176038   -0.002147
C      1.765175   -1.089419    0.146459
C      2.304697    0.140806   -0.367601
C      1.802677    1.305241    0.031312
C      0.375342    1.277996    0.149613
C     -0.271874    0.052869    0.028697
H     -0.014510   -2.149540   -0.188074
H      1.515938   -0.600700    1.198541
H      3.376020    0.133405   -0.633789
H      2.183077    2.264899   -0.047939
H     -0.085592    2.353740    0.292619
H     -1.463761    0.246681   -0.036099
12

C      0.336891   -1.159089    0.016291
C      1.695944   -1.052130    0.087757
C      2.351096    0.100222   -0.381943
C      1.708265    1.288609    0.012062
C      0.302043    1.313726    0.176013
C     -0.327226    0.087258    0.100508
H     -0.068083   -2.125661   -0.041810
H      1.510678   -0.619150    0.979714
H      3.511189    0.119397   -0.500979
H      2.179471    2.241856   -0.091123
H     -0.124909    2.372104    0.334691
H     -1.220946    0.192798   -0.119591
12

C      0.400231   -1.039931   -0.149381
C      1.692374   -1.015843    0.746389
C      2.344767    0.091643   -0.080796
C      1.645419    1.424918   -0.092091
C      0.353686    1.462373    0.233827
C     -0.361583    0.217140    0.053904
H      0.458671   -1.777759   -0.933317
H      1.875133   -1.336898    1.801855
H      3.023143   -0.137061   -0.805614
H      2.260633    2.203089   -0.566740
H     -0.356073    2.278179    0.211090
H     -1.481990    0.390091    0.152463
12

C      0.574998   -1.068166   -0.208005
C      1.669860   -0.808055    0.546087
C      2.518914    0.241629    0.018052
C      1.781011    1.481574    0.039664
C      0.400869    1.292160    0.329624
C     -0.135263    0.153570   -0.202742
H     -0.184057   -1.840058   -0.178432
H      1.551746   -0.870793    1.559218
H      2.745049   -0.298975   -1.090990
H      2.215765    2.481721   -0.465099
H     -0.108953    2.059924    0.821901
H     -1.175528   -0.064591   -0.597689
12

C      0.384646   -0.930560   -0.054654
C      1.741552   -0.970533    0.564378
C      2.199012    0.087940   -0.287652
C      1.710782    1.426559   -0.132480
C      0.314924    1.391161   -0.115907
C     -0.436851    0.296918   -0.092786
H      0.031204   -1.903906   -0.569401
H      2.027683   -1.060608    1.675340
H      3.242106   -0.073694   -0.867949
H      2.357068    2.208725    0.134024
H     -0.281352    2.097637    0.134994
H     -1.436364    0.190301    0.183681
12

C      0.469221   -0.869625   -0.036302
C      1.671847   -0.954356    0.912378
C      2.169377    0.033296   -0.036328
C      1.678714    1.405789   -0.128823
C      0.340930    1.514628   -0.186604
C     -0.444482    0.372330   -0.085614
H      0.178813   -1.768610   -0.408989
H      2.317289   -1.824805    1.011065
H      3.126962   -0.099959   -0.431242
H      2.239083    2.385282   -0.191685
H     -0.430418    2.205332   -0.123400
H     -1.462925    0.360637    0.277135
12

C      0.423876   -1.000710   -0.052483
C      1.729137   -1.009936    0.608301
C      2.380164    0.076035   -0.349279
C      1.776694    1.328271   -0.244864
C      0.417420    1.352022   -0.233173
C     -0.393825    0.268106   -0.142058
H      0.092198   -1.865805   -0.466196
H      1.941237   -1.046725    1.660527
H      3.141434   -0.108287   -0.904099
H      2.116619    2.250062    0.320246
H     -0.318354    2.253360    0.216242
H     -1.452188    0.263547    0.158425
12

C      0.426751   -1.021926   -0.155230
C      1.708439   -0.955634    0.655031
C      2.316854    0.113714   -0.256337
C      1.788893    1.356213   -0.067438
C      0.384582    1.375407   -0.065846
C     -0.354155    0.260748   -0.142573
H      0.231137   -2.073130   -0.442453
H      1.707028   -0.959752    1.747629
H      2.941681   -0.112731   -1.106290
H      2.324119    2.397188    0.009971
H     -0.146545    2.241826    0.455169
H     -1.474373    0.138017   -0.060044
12

C      0.483593   -0.981616   -0.001052
C      1.764083   -0.989191    0.676467
C      2.399459    0.020836   -0.088900
C      1.651911    1.338764    0.033220
C      0.254669    1.341895    0.050507
C     -0.381314    0.155473    0.024284
H      0.224593   -1.691688   -0.779903
H      1.838035   -1.172798    1.687077
H      2.913311   -0.080082   -0.909503
H      2.201543    2.273157   -0.372517
H     -0.119393    2.449770    0.238645
H     -1.376078    0.095419    0.013265
12

C      0.307663   -1.093992    0.366699
C      1.711689   -0.926559    0.467578
C      2.347612    0.032623   -0.304985
C      1.679036    1.299673   -0.178909
C      0.265638    1.331894    0.088115
C     -0.487236    0.232100    0.256784
H      0.155285   -1.378956   -0.819307
H      2.053917   -1.288103    1.507235
H      3.397972   -0.030007   -0.705565
H      2.340605    2.222456   -0.066673
H     -0.401332    2.231366   -0.139977
H     -1.516436    0.127444    0.100596
12

C      0.320728   -1.071615    0.284310
C      1.662847   -0.855574    0.500615
C      2.361367    0.110166   -0.222686
C      1.674715    1.294620   -0.167890
C      0.264558    1.313473    0.058757
C     -0.568141    0.160183    0.199146
H      0.311175   -1.281503   -0.764378
H      2.022159   -1.296126    1.432133
H      3.218445   -0.068872   -0.644973
H      2.364672    2.184565   -0.153110
H     -0.157622    2.357852   -0.034615
H     -1.620492   -0.087228    0.084281
12

C      0.323376   -0.986341    0.105477
C      1.676311   -0.895898    0.606817
C      2.335074   -0.024713   -0.382565
C      1.574986    1.152092   -0.271401
C      0.209261    1.413651    0.122846
C     -0.515428    0.234260    0.177504
H      0.249921   -1.405506   -0.840310
H      2.322472   -1.132886    1.625079
H      3.433518   -0.173851   -0.342774
H      2.068306    1.993812   -0.492879
H     -0.308907    2.265270    0.546251
H     -1.514480    0.320050   -0.282455
12

C      0.347223   -1.088978    0.079106
C      1.745018   -0.818701    0.776327
C      2.445765   -0.029493   -0.214767
C      1.549279    1.255518   -0.374005
C      0.155073    1.356701    0.171338
C     -0.511336    0.100396    0.162423
H      0.343381   -1.298945   -1.030330
H      1.861147   -1.279524    1.755908
H      3.424443   -0.034160   -0.639766
H      2.087649    2.124787   -0.584065
H     -0.008004    2.348701    0.450348
H     -1.585227    0.123636    0.019072
12

C      0.499608   -0.929542    0.254783
C      1.646513   -1.042359    0.914825
C      2.290802    0.021365    0.016337
C      1.679039    1.440786    0.059133
C      0.322925    1.633722    0.120755
C     -0.278979    0.346822    0.113387
H      0.356273   -1.610283   -0.520280
H      2.209087   -1.859327    1.394716
H      2.624261   -0.207159   -0.994051
H      2.050357    2.321085   -0.352718
H     -0.346936    2.458919    0.004503
H     -1.198541    0.185910   -0.439800
12

C      0.511550   -1.008178    0.103706
C      1.734549   -1.062116    0.827090
C      2.301933    0.010793   -0.105062
C      1.660557    1.453105    0.071899
C      0.317748    1.605084    0.316120
C     -0.301979    0.341065    0.132277
H      0.098225   -1.759594   -0.583421
H      2.137761   -1.730149    1.655048
H      2.818579   -0.029856   -0.988967
H      2.100908    2.252042   -0.445645
H     -0.361884    2.573209    0.019337
H     -1.163538    0.114536   -0.430792
12

C      0.338849   -1.211532   -0.022100
C      1.841074   -1.254454    0.288301
C      2.403745    0.133095   -0.439632
C      1.726482    1.359968    0.054688
C      0.386905    1.241677    0.194917
C     -0.341751    0.125215   -0.035029
H     -0.279541   -2.137864   -0.039502
H      1.686892   -0.634010    1.253078
H      3.408249    0.158228   -0.719640
H      2.150938    2.397996   -0.000663
H     -0.115266    2.321640    0.333291
H     -1.352164    0.259980   -0.296118
12

C      0.357746   -1.151439   -0.025480
C      1.821666   -1.196025    0.199763
C      2.376218    0.170661   -0.433291
C      1.771739    1.398000    0.076883
C      0.355671    1.270826    0.137891
C     -0.354303    0.051373   -0.010219
H     -0.208961   -2.025077   -0.055188
H      1.639365   -0.684622    1.312652
H      3.448765    0.120502   -0.782666
H      2.196712    2.347399    0.086704
H     -0.109178    2.219003    0.207494
H     -1.441027    0.239339   -0.142952
12

C      0.491441   -1.055671    0.095769
C      1.745128   -1.012368    0.563538
C      2.334962    0.293703    0.358324
C      1.790792    1.585718    0.054779
C      0.403002    1.493592    0.024717
C     -0.290425    0.208988   -0.064631
H     -0.063615   -1.893431   -0.268321
H      2.269254   -1.609341    1.379825
H      2.205716   -0.022423   -0.971501
H      2.432277    2.361948   -0.151639
H     -0.183073    2.471930   -0.002468
H     -1.281048   -0.062706   -0.446803
12

C      0.278961   -1.162981    0.013703
C      1.703884   -1.058279    0.007321
C      2.450277    0.232657   -0.154223
C      1.774175    1.323853   -0.004124
C      0.307943    1.337627    0.196000
C     -0.388659    0.063864    0.138133
H     -0.318679   -2.096862   -0.040032
H      1.691861   -0.622726    0.965654
H      3.600980    0.129401   -0.523673
H      2.270667    2.278623   -0.136669
H     -0.051671    2.396927    0.311792
H     -1.465329   -0.062163   -0.202292
12

C      0.478031   -1.136703   -0.309560
C      1.592030   -0.859356    0.613886
C      2.324821    0.174511   -0.165618
C      1.743968    1.435125   -0.016395
C      0.351052    1.310961   -0.112785
C     -0.350741    0.106187   -0.063416
H      0.120614   -2.078222   -0.308055
H      1.805101   -1.196773    1.646883
H      2.953018   -0.048505   -1.052663
H      2.217262    2.415558    0.075236
H     -0.085014    2.293892    0.189850
H     -1.295731    0.343266    0.074227
12

C      0.370274   -1.057804   -0.045647
C      1.689704   -0.979919    0.655862
C      2.315885   -0.110220   -0.317917
C      1.650678    1.279169   -0.136671
C      0.359980    1.322264    0.160498
C     -0.340606    0.192795    0.041829
H      0.177938   -1.742669   -0.758814
H      1.774740   -0.667616    1.627848
H      3.335568   -0.055617   -0.884106
H      2.355057    2.213754   -0.208953
H     -0.434959    2.030441    0.410821
H     -1.399849    0.335361    0.026840
12

C      0.310656   -0.981183    0.100023
C      1.762067   -0.935782    0.854104
C      2.398691    0.118708   -0.168708
C      1.659909    1.360197   -0.108194
C      0.247378    1.432711   -0.023521
C     -0.371869    0.227089   -0.017048
H      0.330769   -1.604837   -0.897542
H      2.043851   -1.565588    1.788200
H      3.043456   -0.139952   -0.934210
H      2.117598    2.252493   -0.210678
H     -0.175821    2.414636    0.034177
H     -1.512274    0.181448    0.154988
12

C      0.453812   -0.974224    0.079688
C      1.588664   -1.024977    0.905869
C      2.160872    0.093350   -0.108510
C      1.573162    1.408264   -0.140277
C      0.287912    1.490764    0.110039
C     -0.450911    0.176482    0.330058
H      0.315475   -1.497089   -0.823266
H      2.310616   -1.725717    1.562595
H      2.959538   -0.187993   -0.753474
H      2.168674    2.354310   -0.361725
H     -0.181429    2.447688   -0.059659
H     -1.331972    0.199081   -0.169747
12

C      0.413049   -0.953362    0.029725
C      1.633759   -0.986603    1.038210
C      2.227879    0.076264   -0.019083
C      1.609433    1.434086   -0.094074
C      0.264285    1.489187    0.021674
C     -0.473612    0.275873    0.090392
H      0.318246   -1.843367   -0.655878
H      2.309294   -1.782100    1.127749
H      3.100673   -0.029141   -0.615723
H      2.246756    2.211705   -0.326548
H     -0.336434    2.470780   -0.161528
H     -1.458918    0.396619    0.136673
12

C      0.356817   -1.030765    0.012833
C      1.750175   -1.083565    0.236062
C      2.402218    0.067523   -0.168641
C      1.805931    1.300891   -0.184072
C      0.379661    1.353210    0.256097
C     -0.372734    0.143401    0.186744
H     -0.003305   -1.968605   -0.640649
H      1.542946   -0.615203    1.290588
H      3.419621    0.132341   -0.437453
H      2.365163    2.195406   -0.455266
H     -0.296362    2.163375    0.394164
H     -1.495720    0.101929    0.081183
12

C      0.341316   -1.096464   -0.105284
C      1.802875   -1.120187    0.251592
C      2.424894    0.193313   -0.082115
C      1.745435    1.369456   -0.072589
C      0.335587    1.327642    0.172119
C     -0.396208    0.080832    0.164797
H     -0.073914   -1.898181   -0.507490
H      1.528732   -0.676079    1.280216
H      3.444347    0.208893   -0.539751
H      2.489814    2.066492   -0.471070
H     -0.361722    2.188895    0.373117
H     -1.426745    0.115326    0.108047
12

C      0.368752   -1.143555   -0.095547
C      1.849439   -1.266623    0.367769
C      2.442434    0.186906   -0.144190
C      1.802948    1.347938    0.042696
C      0.344156    1.262612    0.127883
C     -0.342786    0.024772    0.136025
H     -0.310139   -1.946716   -0.449393
H      1.720196   -0.700186    1.343047
H      3.283775    0.152299   -0.705837
H      2.042610    2.402944   -0.161357
H      0.027620    2.234064    0.094929
H     -1.374593    0.205484    0.015566
12

C      0.303950   -1.111194   -0.116558
C      1.815540   -1.296631    0.283573
C      2.421108    0.173073   -0.149374
C      1.838393    1.359559    0.069261
C      0.390690    1.249943    0.133058
C     -0.338749    0.086548    0.103289
H     -0.284355   -1.890318   -0.275506
H      1.727057   -0.780439    1.275893
H      3.436727    0.120134   -0.712254
H      1.928099    2.418292   -0.100297
H      0.009805    2.314567    0.028193
H     -1.393853    0.116407    0.032312
12

C      0.342168   -1.030650   -0.079985
C      1.583774   -0.702027    0.823487
C      2.137386    0.138047   -0.210649
C      1.649102    1.502431   -0.222962
C      0.242670    1.554544   -0.152726
C     -0.300340    0.199015    0.048482
H      0.200753   -1.977593   -0.696859
H      1.992712   -1.505561    1.345924
H      3.200422   -0.159675   -0.600336
H      2.397427    2.221963   -0.135588
H     -0.279495    2.428973    0.136507
H     -1.312167    0.090473    0.316295
12

C      0.330988   -1.116443   -0.517410
C      1.483204   -0.857184    0.247353
C      2.377116    0.212092    0.024727
C      1.747831    1.492394   -0.153230
C      0.377678    1.486170   -0.120951
C     -0.141789    0.109294    0.154974
H     -0.380925   -1.878923   -0.154006
H      1.735748   -1.617286    1.182794
H      3.406222    0.330628   -0.241644
H      2.291942    2.364947   -0.276208
H     -0.329492    2.325162   -0.210050
H     -1.044111   -0.090911    0.635241
12

C      0.271872   -1.150114   -0.496246
C      1.504489   -0.905888    0.258997
C      2.379217    0.227504    0.040863
C      1.730090    1.526095   -0.195829
C      0.384636    1.449833   -0.118649
C     -0.074428    0.098302    0.077703
H     -0.348335   -1.993833   -0.293121
H      1.678131   -1.380680    1.110972
H      3.404587    0.108232   -0.170720
H      2.264911    2.466016   -0.298060
H     -0.372347    2.320549   -0.051796
H     -0.968414   -0.006077    0.707476
12

C      0.591110   -1.197576   -0.302944
C      1.713394   -0.925479    0.535627
C      2.420317    0.270537    0.066215
C      1.761124    1.592278    0.034545
C      0.436046    1.369525    0.107811
C     -0.101881    0.148368   -0.308470
H     -0.057109   -1.911654    0.026896
H      1.577080   -1.323247    1.592680
H      2.508363    0.040640   -1.050404
H      2.324908    2.422386   -0.310363
H     -0.190172    2.060112    0.496641
H     -1.128771    0.214050   -0.316644
12

C      0.435498   -1.168119    0.024866
C      1.733394   -0.993742    0.696477
C      2.419099    0.143659   -0.030467
C      1.614584    1.372631   -0.018573
C      0.330810    1.403436   -0.034969
C     -0.453231    0.155056    0.243784
H      0.415633   -1.708035   -0.913262
H      1.871404   -1.431079    1.629819
H      2.989861   -0.030077   -0.956623
H      2.267575    2.254394   -0.197872
H     -0.181268    2.477686   -0.184813
H     -1.588948    0.284128    0.313224
12

C      0.298789   -1.053038    0.092392
C      1.781699   -0.887324    0.437680
C      2.404284    0.092182   -0.629633
C      1.656348    1.214848   -0.136885
C      0.223108    1.359107    0.164797
C     -0.563304    0.190125    0.172151
H     -0.021513   -1.936483   -0.460639
H      2.202250   -1.057780    1.411198
H      3.429993    0.176079   -0.492863
H      2.357376    1.999688    0.174415
H     -0.237351    2.426409   -0.089664
H     -1.677268    0.236127   -0.071357
12

C      0.334919   -1.040667    0.044913
C      1.646342   -0.857590    0.384655
C      2.404156   -0.105505   -0.507443
C      1.694692    1.213068   -0.325641
C      0.325685    1.277184    0.064322
C     -0.387544    0.177194    0.249801
H     -0.034063   -1.643704   -0.718063
H      2.022430   -0.826387    1.443913
H      3.455859    0.065736   -0.311429
H      2.231818    2.118597   -0.030039
H     -0.331390    2.252350    0.164929
H     -1.508492    0.129664    0.111672
12

C      0.416585   -1.059975   -0.102595
C      1.804905   -1.086222    0.119729
C      2.398869    0.255075   -0.180894
C      1.724867    1.359732    0.006984
C      0.320938    1.269149    0.196635
C     -0.352387    0.019088    0.194371
H     -0.191554   -1.988070   -0.256390
H      1.513069   -0.764387    1.118785
H      3.510848    0.047938   -0.522776
H      2.316568    2.322276   -0.258865
H     -0.220072    2.161105    0.172269
H     -1.388226    0.224232    0.084338
12

C      0.366484   -1.087879   -0.130172
C      1.796115   -1.103537    0.061499
C      2.443650    0.232188   -0.083293
C      1.759489    1.349508    0.073361
C      0.331165    1.201494    0.263472
C     -0.303639    0.106614    0.172025
H     -0.156398   -1.942075   -0.252563
H      1.623793   -0.739498    1.101307
H      3.336899    0.140252   -0.459056
H      2.237920    2.207683   -0.308309
H     -0.153765    2.190323    0.070403
H     -1.427304    0.204865    0.062916
12

C      0.257170   -1.177604    0.008618
C      1.792693   -1.124359    0.083147
C      2.482360    0.163085   -0.195108
C      1.755285    1.369679   -0.113808
C      0.320269    1.328479    0.106097
C     -0.474618   -0.040751    0.137249
H     -0.275707   -2.104907   -0.406254
H      1.630934   -0.654772    1.189799
H      3.687648    0.158499   -0.423069
H      2.289811    2.379553   -0.232440
H     -0.130663    2.277849    0.287941
H     -1.480771    0.185188    0.129419
12

C      0.329829   -1.187670   -0.036491
C      1.805354   -1.110037    0.054920
C      2.464555    0.241366   -0.312609
C      1.773306    1.393767   -0.172448
C      0.269720    1.267697    0.054886
C     -0.460764   -0.012985    0.141281
H     -0.127443   -2.027011   -0.317170
H      1.591778   -0.619556    1.223043
H      3.501295    0.070695   -0.378312
H      2.413714    2.324155   -0.123453
H     -0.102350    2.287822    0.376780
H     -1.604584    0.131696    0.061162
12

C      0.301639   -1.051554   -0.074491
C      1.726838   -1.137601    0.203565
C      2.481419    0.021791   -0.208154
C      1.781224    1.301038   -0.038858
C      0.456609    1.252231    0.151747
C     -0.341900    0.048376    0.106097
H     -0.276605   -1.945980   -0.497458
H      1.658460   -0.581470    1.226946
H      3.502890    0.271542   -0.458707
H      2.069943    2.271228   -0.166816
H     -0.142821    2.067994    0.030191
H     -1.363285    0.242344    0.297528
12

C      0.468560   -0.924780    0.047558
C      1.665641   -0.870050    0.884797
C      2.121635    0.120555   -0.191457
C      1.628805    1.512133    0.002857
C      0.261026    1.460463   -0.070982
C     -0.379945    0.224957   -0.019357
H      0.157074   -1.762243   -0.518074
H      2.187009   -1.648038    1.204185
H      2.995400   -0.004472   -0.640040
H      2.385975    2.133237   -0.143913
H     -0.272223    2.353064   -0.131362
H     -1.364545    0.165113    0.147378
12

C      0.407284   -1.132270   -0.197667
C      1.604698   -0.820519    0.515966
C      2.585246    0.235831    0.089753
C      1.879689    1.413621    0.116930
C      0.461447    1.375871   -0.048247
C     -0.285985    0.183491   -0.217573
H     -0.063228   -2.162509   -0.241340
H      1.772013   -0.974387    1.509094
H      2.824675   -0.125124   -1.185006
H      2.207675    2.453303   -0.016568
H     -0.148722    2.163979    0.348673
H     -1.390382    0.148652   -0.102427
12

C      0.470536   -1.195544   -0.409740
C      1.616425   -0.904807    0.570852
C      2.334150    0.196732   -0.110842
C      1.714989    1.504548   -0.078458
C      0.384434    1.382446    0.301522
C     -0.251644    0.089865    0.096374
H     -0.138988   -2.121523   -0.809731
H      1.575709   -0.912090    1.630361
H      3.225135    0.087993   -0.557122
H      2.268076    2.259160   -0.692097
H     -0.047357    2.325043    0.414016
H     -1.297054    0.048115    0.216454
12

C      0.388658   -1.025229    0.060931
C      1.725700   -0.926993    0.703164
C      2.266413    0.077081   -0.283687
C      1.662416    1.359832    0.030528
C      0.196275    1.535703   -0.025336
C     -0.432889    0.230819    0.040933
H      0.259284   -1.931143   -0.741256
H      2.173195   -1.362981    1.565370
H      3.168097   -0.262185   -0.877070
H      2.337451    2.306187    0.013364
H     -0.337341    2.521156   -0.078671
H     -1.552848    0.237692    0.163321
12

C      0.331251   -0.914088   -0.164841
C      1.668026   -0.954930    0.654956
C      2.282997    0.118094   -0.066276
C      1.612728    1.343499   -0.209185
C      0.294145    1.517791    0.015185
C     -0.431394    0.153981    0.106672
H      0.330406   -1.671834   -1.101770
H      1.895056   -1.217168    1.631783
H      3.142446   -0.163216   -0.582870
H      2.243935    2.181724   -0.269759
H     -0.069969    2.471754   -0.093569
H     -1.445217   -0.105668    0.651264
12

C      0.399969   -1.100587    0.007238
C      1.875090   -1.098678    0.265243
C      2.485799    0.283001   -0.203957
C      1.761027    1.356409   -0.022362
C      0.383174    1.227055    0.225441
C     -0.380575    0.052224    0.006705
H     -0.185758   -2.013472   -0.379997
H      1.522368   -0.642083    1.354543
H      3.347327   -0.017265   -0.803830
H      2.197995    2.287073   -0.135822
H     -0.223933    2.081655    0.297088
H     -1.328072    0.344608   -0.038701
12

C      0.320647   -1.151293   -0.005982
C      1.826838   -1.113843    0.264954
C      2.498155    0.230974   -0.222425
C      1.752722    1.392525   -0.054168
C      0.333138    1.216793    0.149044
C     -0.387718    0.084334    0.009793
H     -0.164853   -2.018837   -0.208144
H      1.619247   -0.567052    1.171243
H      3.396838   -0.023652   -0.762118
H      2.337351    2.379839    0.014921
H     -0.099386    2.226593    0.316317
H     -1.578569    0.103559   -0.101845
12

C      0.240357   -1.003454    0.238453
C      1.703529   -0.908744    0.618330
C      2.502569    0.034467   -0.206823
C      1.717265    1.262700   -0.259227
C      0.297243    1.342044    0.227962
C     -0.501754    0.171052    0.097838
H      0.373851   -1.368931   -0.673038
H      2.037136   -1.100693    1.659541
H      3.055026   -0.181292   -1.038997
H      2.259946    2.209161    0.029752
H     -0.259021    2.203037    0.129603
H     -1.571736    0.100590   -0.251805
12

C      0.227873   -1.021301    0.286748
C      1.707196   -0.838997    0.678553
C      2.467165    0.068228   -0.173370
C      1.705042    1.283142   -0.245610
C      0.292144    1.317200    0.266736
C     -0.517308    0.201727    0.111729
H      0.387210   -1.494513   -0.804175
H      1.938058   -1.147109    1.626376
H      3.026503   -0.274383   -1.032567
H      2.234544    2.299825   -0.094763
H     -0.229658    2.297460    0.178379
H     -1.384358    0.068662   -0.226446
12

C      0.307430   -0.965986   -0.032098
C      1.694846   -0.920052    0.604327
C      2.184396   -0.070944   -0.389939
C      1.632258    1.328590   -0.300198
C      0.287644    1.437165    0.181808
C     -0.390835    0.306443    0.133002
H      0.367092   -1.833560   -0.907053
H      1.817468   -1.046388    1.705901
H      3.284982   -0.005981   -0.591609
H      2.367861    2.113618   -0.280001
H     -0.235334    2.404588    0.258272
H     -1.463396    0.012445    0.189177
12

C      0.507607   -1.041850   -0.337561
C      1.581534   -0.727820    0.530860
C      2.478419    0.198134   -0.123510
C      1.775266    1.356780    0.045813
C      0.359079    1.365340    0.286367
C     -0.272763    0.138157   -0.243828
H      0.007332   -1.926889   -0.136527
H      1.440401   -1.021157    1.613558
H      3.165010   -0.089176   -1.179084
H      2.191353    2.320284   -0.262266
H     -0.097475    2.222839    0.499065
H     -1.281351   -0.034702   -0.121297
12

C      0.408480   -0.842789    0.018515
C      1.714347   -0.913949    0.640434
C      2.353799    0.015242   -0.302334
C      1.590242    1.153109   -0.068467
C      0.138235    1.462216    0.166307
C     -0.484981    0.283734   -0.064464
H      0.316633   -1.769750   -0.600996
H      2.030615   -1.125195    1.581146
H      3.152300   -0.088047   -0.847579
H      2.168946    2.033604   -0.070664
H     -0.009802    2.635470    0.135143
H     -1.524402   -0.083705   -0.015452
12

C      0.259348   -0.989862   -0.160090
C      1.586743   -0.684772    0.460805
C      2.491133    0.078015   -0.498830
C      1.692817    1.246234   -0.302261
C      0.316954    1.199010    0.290683
C     -0.550319    0.120793   -0.139044
H      0.065980   -2.057002   -0.363292
H      1.815885   -0.787594    1.561718
H      3.401561    0.194579   -0.557074
H      2.306297    2.102044   -0.127656
H      0.107756    2.315558    0.531402
H     -1.639743    0.022935   -0.124771
12

C      0.227034   -0.966647   -0.102805
C      1.564051   -0.704859    0.502138
C      2.478497    0.019190   -0.468627
C      1.655525    1.194190   -0.290031
C      0.300252    1.191085    0.273399
C     -0.620173    0.104995   -0.085867
H      0.043669   -1.934053   -0.386479
H      1.937072   -0.620574    1.415719
H      3.612046    0.172608   -0.593007
H      2.280318    2.027280   -0.055202
H      0.082532    2.184072    0.488956
H     -1.706412    0.092652   -0.126604
12

C      0.460816   -1.113527   -0.192039
C      1.698594   -0.841128    0.688264
C      2.480693    0.189897   -0.028032
C      1.716619    1.432234   -0.068885
C      0.320377    1.429448   -0.167135
C     -0.191817    0.122543   -0.123321
H     -0.041733   -1.876869   -0.552336
H      1.707233   -1.413501    1.634337
H      2.888540   -0.043117   -0.956946
H      2.145908    2.385674   -0.083259
H     -0.161550    2.422343    0.106538
H     -1.169271    0.065943    0.314404
12

C      0.479743   -1.100555   -0.190439
C      1.676680   -0.830649    0.672470
C      2.469187    0.221409    0.071460
C      1.680134    1.427243   -0.096241
C      0.305742    1.414929   -0.207342
C     -0.197133    0.098658   -0.116221
H     -0.048025   -2.054879   -0.600473
H      1.716151   -1.280340    1.583574
H      2.892327   -0.028664   -0.966222
H      2.163863    2.354955   -0.084536
H     -0.095991    2.307120    0.174853
H     -1.188268    0.230710    0.330706
12

C      0.519241   -0.918467   -0.271169
C      1.653378   -0.811927    0.772512
C      2.268662    0.111806   -0.211267
C      1.638539    1.491959   -0.107038
C      0.291106    1.548385    0.095201
C     -0.436465    0.280315   -0.163040
H      0.048388   -1.897233   -0.580824
H      1.935448   -1.507549    1.499247
H      3.236960   -0.162937   -0.591107
H      2.336601    2.278237   -0.350250
H     -0.193748    2.537675    0.168751
H     -1.443698   -0.190324    0.310574
12

C      0.465101   -0.976472   -0.160470
C      1.652815   -0.860275    0.840139
C      2.219986    0.064859   -0.196525
C      1.655909    1.397678   -0.111108
C      0.314422    1.495371    0.206893
C     -0.472399    0.255437   -0.032735
H      0.156665   -1.932988   -0.596910
H      1.998577   -1.573838    1.628789
H      3.163099    0.014851   -0.774703
H      2.172396    2.337132   -0.383093
H     -0.003779    2.509148    0.138661
H     -1.468383    0.029037    0.012651
12

C      0.345028   -1.165602   -0.165465
C      1.814634   -1.102080    0.081023
C      2.548788    0.116139   -0.145529
C      1.743249    1.229469   -0.289512
C      0.323858    1.305643    0.035076
C     -0.304563    0.092129    0.214643
H     -0.251591   -1.971983   -0.653735
H      1.617993   -0.758052    1.062072
H      3.619717    0.225318    0.161529
H      2.035544    2.198882   -0.481806
H     -0.235391    2.246649    0.209083
H     -1.402854    0.343427    0.544210
12

C      0.330556   -0.959278    0.096122
C      1.677727   -1.020241    0.747499
C      2.358400   -0.040805   -0.192166
C      1.575584    1.277904   -0.181088
C      0.142100    1.498323    0.105186
C     -0.458945    0.236985   -0.091247
H      0.448621   -1.731572   -0.834982
H      1.988729   -1.143400    1.708724
H      3.252877   -0.089684   -0.891426
H      2.243893    2.077559   -0.300578
H     -0.182489    2.507790    0.373791
H     -1.522642    0.146358    0.031756
12

C      0.234283   -1.151507    0.042321
C      1.684723   -1.152852    0.101175
C      2.422519    0.200062   -0.178901
C      1.812717    1.299989    0.151921
C      0.451657    1.267184    0.178445
C     -0.358178    0.018519    0.145169
H     -0.401861   -1.967758   -0.345083
H      1.856688   -0.616756    1.224070
H      3.455010    0.366747   -0.571962
H      2.148702    2.207835   -0.156430
H      0.002534    2.242785    0.006069
H     -1.454384    0.045693   -0.025205
12

C      0.387234   -1.118566   -0.061743
C      1.825045   -0.978131    0.163194
C      2.470839    0.200887   -0.213514
C      1.846662    1.460211   -0.118487
C      0.440599    1.226809    0.147579
C     -0.363655    0.013872    0.085620
H     -0.151804   -2.105868   -0.082735
H      1.327780   -0.768632    1.273894
H      3.404765    0.165356   -0.859997
H      2.356746    2.350919    0.002854
H     -0.228051    2.090330    0.282610
H     -1.461749    0.222752   -0.047686
12

C      0.330627   -1.143305    0.028810
C      1.837129   -1.107386    0.252518
C      2.362030    0.171555   -0.223335
C      1.751856    1.409987   -0.141360
C      0.348190    1.329393    0.143298
C     -0.366796    0.115628    0.109771
H     -0.181193   -1.810435   -0.568311
H      1.971937   -0.319626    1.567272
H      3.399163    0.252910   -0.389999
H      2.225711    2.281022   -0.524115
H     -0.248140    2.348746    0.263317
H     -1.331901    0.136955    0.051930
12

C      0.330728   -1.102082    0.040180
C      1.938142   -1.226892    0.358282
C      2.407143    0.105544   -0.221850
C      1.794899    1.336201   -0.042689
C      0.443062    1.370731    0.246133
C     -0.325587    0.064172    0.116631
H     -0.249025   -1.981951   -0.341155
H      1.648834   -0.768882    1.366397
H      3.346942    0.197842   -0.758591
H      2.192648    2.393010   -0.222990
H     -0.202798    2.134478    0.270684
H     -1.470577    0.237768   -0.239442
12

C      0.360227   -1.015576   -0.180269
C      1.781747   -1.028415   -0.007361
C      2.514075    0.222918   -0.060612
C      1.741365    1.382086   -0.119041
C      0.275239    1.262814    0.120284
C     -0.421894    0.146117    0.098711
H     -0.149024   -1.868662   -0.261054
H      1.012877   -0.739125    1.569868
H      3.464794    0.173837   -0.507842
H      2.138292    2.272182   -0.340808
H     -0.083816    2.308634    0.166369
H     -1.494329    0.129133    0.094148
12

C      0.149409   -1.195689   -0.566055
C      1.503367   -0.809999    0.107657
C      2.529785    0.311102   -0.274001
C      1.756054    1.518521   -0.176902
C      0.399946    1.322212    0.026212
C     -0.339895    0.060963    0.083951
H     -0.267021   -2.192517   -0.433837
H      1.579182   -0.993297    1.142739
H      3.533072    0.037914    0.092640
H      2.312990    2.468371   -0.252881
H     -0.170209    2.166175   -0.036275
H     -1.132270    0.066185    0.858342
12

C      0.451126   -1.067877   -0.161148
C      1.547647   -0.876442    0.630619
C      2.466663    0.215128    0.145922
C      1.851145    1.500863    0.112978
C      0.469380    1.371740    0.014855
C     -0.260846    0.093859   -0.128667
H     -0.144126   -1.893552   -0.471714
H      1.904342   -1.245259    1.611080
H      2.633858   -0.021262   -0.932687
H      2.394577    2.581494   -0.455454
H     -0.134223    2.165884    0.373492
H     -1.325133   -0.064634   -0.167686
12

C      0.546080   -1.098525   -0.169190
C      1.667490   -0.818683    0.671980
C      2.462728    0.268269    0.115999
C      1.876069    1.524644    0.052508
C      0.436248    1.360221    0.023393
C     -0.254794    0.083430   -0.140585
H     -0.119352   -1.990302   -0.378603
H      1.830937   -1.392800    1.583459
H      2.553045    0.141582   -0.912337
H      2.289838    2.342321   -0.420410
H     -0.067438    2.265786    0.352173
H     -1.366442    0.073996   -0.206799
12

C      0.455644   -1.027783    0.082589
C      1.565128   -0.868842    0.912499
C      2.174100    0.096920   -0.096470
C      1.613931    1.527126    0.009470
C      0.374439    1.561480   -0.183629
C     -0.426428    0.299927   -0.087718
H      0.328730   -2.003614   -0.447922
H      2.249214   -1.658270    1.150170
H      3.002189   -0.304006   -0.739335
H      2.147554    2.399206   -0.140969
H     -0.167639    2.423388    0.145010
H     -1.462452    0.314407   -0.032106
12

C      0.488097   -0.996316   -0.062795
C      1.671394   -0.900896    0.717616
C      2.218510    0.079918   -0.205151
C      1.678357    1.515320    0.053841
C      0.319491    1.579332   -0.016058
C     -0.321889    0.302317   -0.052809
H      0.251642   -2.026507   -0.461445
H      2.099358   -1.658187    1.530902
H      2.911192   -0.266462   -0.910405
H      2.273513    2.441021   -0.006801
H     -0.297502    2.505418   -0.097551
H     -1.437753    0.184981    0.082245
12

C      0.312755   -1.080193   -0.187652
C      1.860319   -1.051887    0.082482
C      2.517555    0.269616   -0.121896
C      1.731650    1.414472   -0.055555
C      0.311365    1.257735    0.088566
C     -0.440878    0.078639    0.086086
H     -0.310409   -1.953989   -0.343737
H      1.662603   -0.578574    1.523677
H      3.516763    0.258893   -0.437096
H      2.210122    2.342906   -0.420774
H     -0.101741    2.274753    0.162829
H     -1.480825    0.174127    0.149272
12

C      0.276347   -1.082802   -0.214424
C      1.812600   -1.082429   -0.010479
C      2.479340    0.136030   -0.236578
C      1.820354    1.289108   -0.094127
C      0.372200    1.193058    0.198118
C     -0.352106    0.038119    0.122001
H     -0.277434   -1.941759   -0.404150
H      1.532609   -0.588295    1.373080
H      3.579514    0.253013   -0.345687
H      2.192117    2.217456   -0.289583
H     -0.179819    2.205040    0.215231
H     -1.401311    0.123399    0.258187
12

C      0.382455   -1.091683    0.034281
C      1.765636   -1.063491    0.204340
C      2.426703    0.178048   -0.240983
C      1.800991    1.379074   -0.076436
C      0.391343    1.282088    0.101725
C     -0.350569    0.064855    0.077276
H     -0.062067   -1.997152   -0.253098
H      1.429743   -0.726033    1.185451
H      3.372545    0.043471   -0.709225
H      2.255566    2.292889   -0.063849
H     -0.233745    2.279667    0.281082
H     -1.324191    0.118206    0.031025
12

C      0.372207   -1.113899    0.012635
C      1.794309   -1.054074    0.291680
C      2.349036    0.228657   -0.226057
C      1.729139    1.478253   -0.131101
C      0.292573    1.329212    0.078745
C     -0.361025    0.113702    0.061075
H     -0.136930   -1.956234   -0.568817
H      1.964626   -0.245778    1.573194
H      3.414424    0.191750   -0.479228
H      2.331731    2.373693   -0.412679
H     -0.082692    2.232307    0.226309
H     -1.576095    0.161706    0.149963
12

C      0.367866   -1.052143   -0.170560
C      1.916196   -1.175998    0.349170
C      2.488744    0.080187   -0.168518
C      1.787947    1.339001   -0.029036
C      0.426700    1.282221    0.276351
C     -0.374896    0.016867   -0.148929
H     -0.346618   -1.906703   -0.193159
H      1.588960   -0.594190    1.253227
H      3.370349    0.171953   -0.592172
H      2.162657    2.349957   -0.345581
H     -0.144644    2.120522    0.470535
H     -1.388851    0.128265   -0.129737
12

C      0.464533   -0.963313    0.349900
C      1.768485   -0.945775    0.948492
C      2.265901    0.149269    0.060476
C      1.676643    1.469818    0.038513
C      0.308739    1.504534   -0.160246
C     -0.349353    0.267178    0.135712
H      0.243593   -1.681264   -0.471001
H      2.352211   -1.795250    0.940310
H      2.524276   -0.211357   -0.936320
H      2.273333    2.369674    0.246839
H     -0.292296    2.313145   -0.536423
H     -1.381656    0.283281   -0.044664
12

C      0.590377   -1.055705   -0.208093
C      1.611446   -0.842000    0.689650
C      2.412567    0.196434   -0.021590
C      1.749810    1.505784   -0.083208
C      0.448775    1.426007    0.221954
C     -0.207306    0.193907   -0.190608
H      0.062402   -2.063681   -0.462316
H      1.733586   -1.317059    1.578919
H      2.612354   -0.181618   -1.004258
H      2.287508    2.482473   -0.115471
H     -0.205896    2.324034    0.094445
H     -1.241211    0.091363    0.072166
12

C      0.569652   -1.050604   -0.238238
C      1.623855   -0.787130    0.710117
C      2.438694    0.322004    0.032035
C      1.726382    1.497266   -0.104004
C      0.414512    1.365708    0.228328
C     -0.223062    0.127798   -0.196371
H     -0.063673   -1.834973   -0.558051
H      1.823068   -1.386658    1.659685
H      2.601359   -0.155522   -0.934207
H      2.211743    2.398177   -0.186980
H     -0.031227    2.302916    0.047665
H     -1.236894   -0.039041    0.111611
12

C      0.442609   -0.853524    0.183351
C      1.718342   -0.736611    0.846992
C      2.297877    0.029238   -0.137749
C      1.607244    1.266026   -0.039772
C      0.228032    1.305319    0.209879
C     -0.531572    0.225028    0.091345
H      0.379297   -1.307742   -0.856879
H      2.165616   -1.492068    1.436242
H      3.120860   -0.271746   -0.721119
H      2.189091    2.125588   -0.455937
H     -0.241572    2.379442    0.080657
H     -1.521413    0.090990   -0.065422
12

C      0.478032   -0.815379    0.133813
C      1.708671   -0.750384    0.829678
C      2.297919    0.147586   -0.106490
C      1.565669    1.273154    0.002995
C      0.223390    1.363033    0.231677
C     -0.471902    0.185122    0.066695
H      0.357674   -1.263144   -0.818334
H      2.219630   -1.434431    1.533920
H      3.030973   -0.407148   -0.825561
H      2.155921    2.082745   -0.438441
H     -0.176562    2.286108    0.164374
H     -1.535005    0.092677   -0.202736
12

C      0.418248   -0.923502    0.067603
C      1.664041   -0.937753    0.811093
C      2.321160    0.033045   -0.097971
C      1.639745    1.257893   -0.080072
C      0.255437    1.456977    0.202909
C     -0.398923    0.246283    0.075673
H      0.414614   -1.739742   -0.715785
H      2.035094   -1.369078    1.727813
H      2.859077   -0.209281   -1.038399
H      2.132594    2.256060   -0.358260
H     -0.185808    2.539056    0.322757
H     -1.300870    0.149982   -0.345770
12

C      0.413273   -1.020908    0.009843
C      1.684811   -1.023698    0.765975
C      2.337119   -0.012666   -0.133989
C      1.680315    1.368971   -0.147334
C      0.277290    1.530645    0.190068
C     -0.359546    0.317290    0.083499
H      0.348218   -1.881191   -0.566655
H      1.921356   -1.336558    1.787571
H      2.943132   -0.035480   -1.110337
H      2.171286    2.272618   -0.291944
H     -0.165452    2.385225    0.379319
H     -1.397391    0.195692   -0.394425
12

C      0.401567   -1.030592    0.323629
C      1.694431   -0.951431    1.009474
C      2.225944    0.143614    0.152810
C      1.699898    1.507191   -0.099004
C      0.374605    1.443404   -0.137933
C     -0.418286    0.298759    0.059692
H      0.486295   -1.567282   -0.613388
H      2.180052   -1.831316    1.075873
H      2.622128   -0.116021   -0.811498
H      2.346946    2.322840   -0.245177
H     -0.274112    2.333233   -0.064893
H     -1.485056    0.207541   -0.077995
12

C      0.259847   -1.142786   -0.285112
C      1.797394   -1.064570   -0.062802
C      2.576021    0.198668   -0.269089
C      1.762859    1.354319   -0.286591
C      0.288366    1.321516   -0.083818
C     -0.350326    0.025218    0.243927
H     -0.464460   -1.930027   -0.530659
H      1.741500   -0.594739    0.998541
H      3.548679    0.088754    0.252253
H      2.315705    2.276091   -0.078941
H     -0.236650    2.233662   -0.008730
H     -1.384523   -0.006166    0.682610
12

C      0.156175   -1.063479    0.369816
C      1.773427   -1.027385    0.622553
C      2.298958   -0.019637   -0.111003
C      1.630460    1.293437   -0.057550
C      0.221378    1.313444    0.026975
C     -0.593034    0.210879    0.273944
H      0.379674   -1.043530   -0.847782
H      2.306106   -1.540619    1.414132
H      3.204644    0.043744   -0.590059
H      2.281432    2.218871   -0.326004
H     -0.200731    2.294845   -0.220996
H     -1.604078    0.079370    0.017566
12

C      0.508420   -0.867225   -0.084049
C      1.641299   -0.780682    0.912200
C      2.185846    0.138735    0.002492
C      1.591582    1.395143   -0.088545
C      0.184718    1.560656   -0.107636
C     -0.362667    0.322820    0.022192
H      0.116489   -1.978397   -0.496961
H      2.326350   -1.609587    1.005664
H      2.937343   -0.158433   -0.569997
H      2.509886    2.136066   -0.093252
H     -0.405693    2.506837   -0.105653
H     -1.379161    0.094006    0.175134
12

C      0.358702   -1.107608    0.055735
C      1.788362   -1.084593    0.169015
C      2.436131    0.070242   -0.184628
C      1.797080    1.274876   -0.022400
C      0.445874    1.261858    0.123519
C     -0.329451    0.053333    0.166129
H     -0.261227   -1.939840   -0.456432
H      1.665655   -0.749370    1.305436
H      3.341480    0.217113   -0.620593
H      2.139591    2.342654   -0.092598
H     -0.175916    2.284580    0.022629
H     -1.351873    0.136696    0.105778
12

C      0.361309   -1.106231    0.021562
C      1.822708   -1.102472    0.149910
C      2.360718    0.104905   -0.256659
C      1.750016    1.254719   -0.080029
C      0.363090    1.275560    0.115774
C     -0.330067    0.056542    0.115620
H     -0.276840   -1.750772   -0.405772
H      1.668683   -0.548520    1.271923
H      3.461030    0.213961   -0.514939
H      2.212323    2.189965   -0.113367
H     -0.081612    2.139586    0.210943
H     -1.456946    0.032697    0.056624
12

C      0.332093   -1.025897   -0.108239
C      1.726628   -1.263851    0.323172
C      2.397984    0.138025   -0.344220
C      1.726166    1.335049   -0.136112
C      0.290092    1.345942    0.164481
C     -0.450447    0.094229    0.096577
H     -0.034570   -1.978468   -0.387554
H      1.808278   -0.613675    1.284272
H      3.517244    0.043690   -0.474397
H      2.283760    2.244092   -0.174955
H     -0.167805    2.198298    0.341106
H     -1.575013    0.242507   -0.012542
12

C      0.414572   -1.084256    0.198965
C      1.749966   -0.982243    0.695702
C      2.493966    0.334069    0.197342
C      1.706315    1.588756    0.156282
C      0.352205    1.537295   -0.044727
C     -0.122895    0.185977   -0.011499
H      0.018843   -1.982557   -0.121060
H      2.265205   -1.938317    1.106635
H      2.072078   -0.090832   -0.916752
H      2.319229    2.527218    0.028417
H     -0.257520    2.382122   -0.315024
H     -1.157553    0.282707   -0.402691
12

C      0.253036   -1.088134   -0.012806
C      1.752860   -1.123743    0.129365
C      2.472465    0.187219   -0.435592
C      1.838815    1.408777   -0.055067
C      0.473525    1.200422   -0.030741
C     -0.450101    0.061945   -0.039116
H     -0.191708   -1.924188    0.026406
H      1.566729   -0.606290    1.104992
H      3.417204    0.248969   -0.565163
H      2.405082    2.282491    0.199762
H     -0.187898    2.071619    0.198516
H     -1.495600    0.040852    0.051034
12

C      0.512991   -0.986424   -0.142383
C      1.669414   -0.893780    0.662199
C      2.335639    0.018885   -0.179929
C      1.727697    1.399771   -0.152001
C      0.359276    1.423294   -0.096032
C     -0.322600    0.212981   -0.021867
H      0.063159   -1.947708   -0.709489
H      1.827428   -1.303217    1.600807
H      3.265339   -0.117396   -0.727971
H      2.082643    2.382961   -0.190581
H     -0.221817    2.386619    0.179990
H     -1.444759    0.183953    0.348845
12

C      0.499455   -0.984539    0.110621
C      1.713467   -0.936468    0.837838
C      2.123818    0.028064   -0.108840
C      1.616836    1.424662   -0.260280
C      0.255165    1.503555   -0.301298
C     -0.459906    0.341014    0.066693
H      0.271227   -1.929338   -0.406767
H      2.192069   -1.733807    1.118939
H      3.136742    0.170012   -0.711162
H      2.390819    2.054271    0.178932
H     -0.442784    2.351250   -0.219137
H     -1.442498    0.471265    0.266052
12

C      0.394342   -0.988649    0.060691
C      1.753192   -1.049135    0.669717
C      2.262267    0.066638   -0.264288
C      1.671437    1.409337   -0.046607
C      0.296838    1.431105    0.152656
C     -0.315989    0.228945   -0.073811
H      0.391161   -1.752557   -0.886888
H      1.792983   -0.921036    1.808304
H      2.990425   -0.235782   -0.905075
H      2.388180    2.184045   -0.389689
H     -0.293444    2.248060    0.500279
H     -1.476982    0.138969   -0.053701
12

C      0.404011   -1.059288    0.117457
C      1.752368   -1.104265    0.664820
C      2.288812    0.061373   -0.292928
C      1.716653    1.435324    0.029039
C      0.266588    1.455877    0.170310
C     -0.373196    0.218431    0.029109
H      0.184651   -1.802779   -0.795014
H      2.041042   -1.189688    1.771111
H      2.932060   -0.141163   -1.035927
H      2.249708    2.411195    0.028760
H     -0.135693    2.266099   -0.162917
H     -1.472595    0.208820    0.047769
12

C      0.406042   -0.959986   -0.099735
C      1.633329   -1.049505    0.685998
C      2.314623    0.158593   -0.063519
C      1.704302    1.527385   -0.135065
C      0.348499    1.570237   -0.044055
C     -0.473078    0.209614    0.060921
H      0.215006   -1.952801   -0.854106
H      2.024099   -1.440798    1.669199
H      3.133158   -0.202112   -0.790443
H      2.224110    2.335260   -0.193082
H     -0.204800    2.477810   -0.012141
H     -1.470880    0.086244    0.347617
12

C      0.293584   -1.101994    0.134257
C      1.669064   -0.893979    0.588097
C      2.314615    0.019222   -0.265348
C      1.674985    1.182710   -0.020596
C      0.347184    1.335061    0.020270
C     -0.410920    0.216539    0.076740
H      0.256525   -1.604605   -0.665367
H      2.264677   -1.013203    1.565394
H      3.162779   -0.298081   -0.839934
H      1.983971    2.301228   -0.011303
H     -0.115180    2.347904    0.211367
H     -1.586875    0.269138   -0.221984
12

C      0.360600   -0.997151    0.212974
C      1.706850   -0.799256    0.562851
C      2.366873    0.090794   -0.323683
C      1.635566    1.300768   -0.008954
C      0.180502    1.314007    0.088635
C     -0.458916    0.142423    0.163047
H      0.120704   -1.695602   -0.785903
H      1.966017   -1.129632    1.449505
H      3.280672   -0.036029   -0.836113
H      2.450319    2.176254    0.025970
H     -0.199950    2.357954   -0.182101
H     -1.554826    0.035410    0.205362
12

C      0.390976   -1.032901    0.136563
C      1.640974   -0.848080    0.936291
C      2.182722    0.059571   -0.154581
C      1.735682    1.436567    0.023836
C      0.354962    1.446719   -0.005486
C     -0.387568    0.336994   -0.122796
H      0.190682   -1.926756   -0.475938
H      2.244864   -1.633002    1.361724
H      2.846493    0.021177   -0.900930
H      2.346202    2.363291   -0.084132
H     -0.245030    2.308132   -0.043080
H     -1.446548    0.228228   -0.099882
12

C      0.554304   -0.993669   -0.012024
C      1.759422   -0.911208    0.875669
C      2.226559    0.106927   -0.108230
C      1.644042    1.475610   -0.060346
C      0.247003    1.464628   -0.087207
C     -0.427685    0.254945    0.031252
H      0.170571   -1.940661   -0.269667
H      2.202019   -1.735771    1.316849
H      3.003582   -0.121777   -0.951526
H      2.187797    2.315888    0.025776
H     -0.247648    2.404739   -0.012138
H     -1.465554    0.440289   -0.176817
12

C      0.484187   -1.049752    0.049895
C      1.679240   -1.013278    0.759561
C      2.224442    0.034013   -0.009340
C      1.613167    1.458886   -0.138396
C      0.299399    1.547930   -0.030384
C     -0.397254    0.266471   -0.104227
H      0.482214   -1.987975   -0.712093
H      1.971771   -1.683977    1.630220
H      2.987857   -0.074646   -0.892456
H      2.177526    2.330585   -0.275981
H     -0.244553    2.443133    0.077528
H     -1.423584    0.488549    0.217262
12

C      0.329859   -1.001930    0.171870
C      1.755025   -0.985939    0.453110
C      2.311273   -0.105071   -0.414618
C      1.639606    1.205712   -0.160244
C      0.211066    1.349013   -0.065943
C     -0.508955    0.188886    0.103839
H      0.464773   -1.588666   -0.692060
H      2.002222   -0.983298    1.578620
H      3.365161   -0.206489   -0.740943
H      2.115227    2.118900    0.074646
H     -0.327807    2.357229    0.182487
H     -1.503039    0.411593    0.080825
12

C      0.360080   -1.050408    0.002961
C      1.698407   -0.919819    0.534892
C      2.343267   -0.156053   -0.464416
C      1.587097    1.252423   -0.179050
C      0.212370    1.351872   -0.036121
C     -0.527056    0.206095    0.175060
H      0.080565   -1.540918   -0.973781
H      2.208552   -0.857599    1.516971
H      3.394064   -0.029630   -0.275876
H      2.278191    2.100352   -0.128279
H     -0.167869    2.374513    0.083650
H     -1.613258    0.029111    0.315578
12

C      0.276309   -0.926565   -0.315951
C      1.794904   -1.224684    0.224468
C      2.567373    0.148033   -0.087950
C      1.790976    1.248975   -0.153095
C      0.346144    1.266127    0.212231
C     -0.531873    0.146078    0.273585
H     -0.170533   -1.683159   -0.953316
H      1.841368   -0.915371    1.569835
H      3.560217    0.244372   -0.038229
H      2.189017    2.169634   -0.747817
H     -0.269829    2.168576    0.044456
H     -1.539663    0.117924    0.543374
12

C      0.232781   -1.045434    0.036428
C      1.719630   -0.731805    0.545673
C      2.509446    0.012799   -0.432872
C      1.824822    1.402540   -0.159638
C      0.163343    1.332329    0.114042
C     -0.470746    0.145644    0.103796
H     -0.091923   -1.936143   -0.506883
H      2.001940   -1.038089    1.479526
H      3.511786   -0.045215   -0.874441
H      2.311512    2.258768    0.248265
H     -0.254616    2.287213   -0.026795
H     -1.603565    0.117332    0.044487
12

C      0.483387   -1.112750   -0.210923
C      1.644732   -1.071563    0.588126
C      2.421684    0.194307   -0.006170
C      1.779786    1.462867   -0.087566
C      0.394821    1.351102   -0.062497
C     -0.154135    0.114655    0.032214
H     -0.138710   -1.913994   -0.638775
H      1.641910   -0.974251    1.728568
H      2.950082    0.107454   -0.966356
H      2.267844    2.342349   -0.249335
H     -0.193895    2.098780    0.313370
H     -1.243095    0.160983    0.130933
12

C      0.468068   -0.985543   -0.291535
C      1.745162   -0.922302    0.633879
C      2.375670    0.286114    0.025511
C      1.702317    1.606475    0.021807
C      0.271160    1.559522    0.025039
C     -0.171566    0.150657    0.147588
H     -0.072213   -1.804682   -0.620768
H      1.629065   -1.657102    1.508820
H      3.006504   -0.129523   -0.744843
H      2.336244    2.372852   -0.438242
H     -0.326726    2.419539   -0.082589
H     -1.109276   -0.136069    0.386923
12

C      0.485193   -0.968541    0.003437
C      1.639563   -0.759521    0.806326
C      2.503844    0.016056   -0.281075
C      1.727187    1.402715   -0.055942
C      0.345448    1.451862   -0.004925
C     -0.291132    0.327112   -0.338280
H      0.158644   -1.954801   -0.192351
H      1.891403   -1.384891    1.599062
H      2.805227   -0.133588   -1.278389
H      2.202385    2.276548    0.284364
H     -0.399024    2.224836    0.165530
H     -1.214328    0.262154   -0.136167
12

C      0.471044   -1.172895    0.023359
C      1.743516   -0.964398    0.645813
C      2.423932    0.161343    0.117246
C      1.795817    1.492306    0.120416
C      0.331775    1.465997    0.017359
C     -0.144618    0.184642   -0.038894
H     -0.099879   -1.977452   -0.275828
H      2.037990   -1.444705    1.522752
H      2.332231    0.287573   -1.119303
H      2.568007    2.230173   -0.098023
H     -0.393098    2.361896    0.008617
H     -1.212307    0.135459   -0.351925
12

C      0.430543   -1.144648   -0.377027
C      1.639965   -0.995255    0.446425
C      2.401189    0.245070    0.071103
C      1.765820    1.504662    0.004608
C      0.443973    1.437115    0.044859
C     -0.116304    0.117508   -0.061947
H     -0.090308   -2.035540   -0.302198
H      1.478057   -1.270679    1.474685
H      3.192804    0.056069   -0.904625
H      2.145655    2.450219   -0.271417
H     -0.213426    2.204568    0.090751
H     -1.223556    0.190849    0.356375
12

C      0.320073   -1.075031    0.167076
C      1.736536   -0.976290    0.694825
C      2.495323    0.125915   -0.285434
C      1.646898    1.291014   -0.051767
C      0.255454    1.374332    0.025571
C     -0.415046    0.260348   -0.061391
H      0.128301   -1.819575   -0.617884
H      1.996367   -0.969435    1.757441
H      3.155467   -0.169004   -1.233064
H      2.305572    2.256320    0.091275
H     -0.264374    2.261217    0.318245
H     -1.506160    0.200129   -0.233303
12

C      0.364035   -0.970293   -0.175098
C      1.607641   -0.883875    0.822148
C      2.231037    0.075093   -0.091109
C      1.683661    1.510439   -0.075816
C      0.330102    1.480914    0.140673
C     -0.346052    0.224117    0.120994
H      0.284996   -1.781768   -0.888770
H      1.926869   -1.585842    1.391413
H      3.182790   -0.193749   -0.494578
H      2.216894    2.398269   -0.544539
H     -0.255023    2.354361   -0.075744
H     -1.372539    0.132275    0.442016
12

C      0.413575   -0.931193    0.027572
C      1.693554   -0.948845    0.828991
C      2.261153    0.134776   -0.144779
C      1.645344    1.494007   -0.114574
C      0.221464    1.517791   -0.174637
C     -0.416820    0.254292   -0.220120
H      0.104701   -1.780759   -0.587505
H      2.452777   -1.433908    1.481048
H      2.904823   -0.343400   -0.834780
H      2.296682    2.131390    0.205332
H     -0.365202    2.622669    0.007744
H     -1.357641    0.043118    0.097298
12

C      0.448486   -0.914149    0.060087
C      1.741197   -0.886338    0.846268
C      2.226001    0.152827   -0.175146
C      1.682912    1.460914   -0.006936
C      0.223303    1.583427   -0.016459
C     -0.335819    0.319697   -0.206030
H      0.062075   -1.793139   -0.395889
H      2.347124   -1.501050    1.451895
H      2.765379   -0.360953   -0.991147
H      2.469803    2.387374    0.169216
H     -0.324919    2.359624   -0.006313
H     -1.451130   -0.048295   -0.157955
12

C      0.340291   -1.049587    0.228266
C      1.730880   -0.853601    0.586891
C      2.349511   -0.059882   -0.513755
C      1.584882    1.218795   -0.234834
C      0.279394    1.201419    0.239281
C     -0.463063    0.143888    0.142156
H      0.048789   -1.763852   -0.547307
H      1.870454   -0.577530    1.582837
H      3.401832    0.066465   -1.040421
H      2.276942    1.944231    0.127709
H     -0.250813    2.251559    0.452940
H     -1.314688    0.238035   -0.452173
12

C      0.372736   -0.889609    0.073356
C      1.739399   -0.896911    0.559539
C      2.283606   -0.042750   -0.458973
C      1.696146    1.242718   -0.033561
C      0.278612    1.306568    0.215268
C     -0.478208    0.228862    0.122785
H      0.223531   -1.724600   -0.552188
H      1.988577   -1.050259    1.617025
H      3.210304   -0.059853   -0.762927
H      2.179431    2.238721   -0.172487
H     -0.113046    2.219082    0.237367
H     -1.526676    0.187970   -0.273614
12

C      0.439151   -0.993813   -0.084138
C      1.689614   -0.760124    0.699386
C      2.360550    0.084567   -0.275214
C      1.695652    1.437257    0.017281
C      0.146363    1.426973   -0.010666
C     -0.427018    0.277454   -0.025923
H      0.007983   -1.990886   -0.403465
H      2.033762   -1.299055    1.530993
H      3.205537   -0.118066   -1.105146
H      2.519181    2.200575    0.194160
H     -0.360366    2.545609   -0.017501
H     -1.455998   -0.050551    0.051821
12

C      0.492945   -1.156648   -0.083329
C      1.693643   -1.004985    0.629357
C      2.318741    0.197545    0.053854
C      1.696719    1.526681    0.042339
C      0.253811    1.375734   -0.005021
C     -0.369585    0.139440   -0.107149
H      0.354807   -1.978657   -0.889855
H      1.688070   -1.066369    1.769696
H      2.704087   -0.099241   -1.000437
H      2.341071    2.260066   -0.357541
H      0.015646    2.370269    0.271298
H     -1.335544    0.196105    0.248377
12

C      0.387316   -1.012477   -0.099997
C      1.821223   -1.129832    0.351420
C      2.452190    0.234189   -0.188869
C      1.766738    1.414066   -0.005268
C      0.445044    1.256327    0.291054
C     -0.446081    0.035710   -0.082285
H     -0.025785   -1.958343   -0.073183
H      1.415065   -0.692252    1.196891
H      3.298304   -0.014339   -0.779694
H      2.222692    2.401806   -0.307885
H     -0.026516    2.101547    0.536570
H     -1.455779    0.123538   -0.267163
12

C      0.494196   -0.845423    0.239176
C      1.710240   -0.934879    0.957738
C      2.240555    0.055099    0.000362
C      1.588960    1.354879   -0.161877
C      0.241851    1.591155    0.020218
C     -0.351304    0.394381    0.256140
H      0.428149   -1.656704   -0.579202
H      2.255574   -1.830213    1.228294
H      2.871548   -0.267512   -0.870789
H      2.328474    2.193119   -0.232460
H     -0.554221    2.476536    0.020211
H     -1.399611    0.229502   -0.306223
12

C      0.587000   -0.818239    0.022451
C      1.738999   -1.092769    0.886157
C      2.144255    0.051697   -0.030410
C      1.591074    1.511384   -0.020189
C      0.204114    1.608498    0.115389
C     -0.383457    0.250740    0.279264
H     -0.054301   -1.577026   -0.517888
H      2.347653   -2.070954    1.112954
H      3.195952    0.008195   -0.386795
H      2.123028    2.313527   -0.583814
H     -0.184117    2.592198   -0.236889
H     -1.455790   -0.017309   -0.068642
12

C      0.364450   -1.240724   -0.416560
C      1.495950   -0.861702    0.521743
C      2.410703    0.223354   -0.061559
C      1.760986    1.496198   -0.047102
C      0.323334    1.340946    0.165950
C     -0.271245    0.100927   -0.011823
H      0.095290   -2.323237   -0.754230
H      1.382443   -0.685833    1.626908
H      3.286005    0.029580   -0.827247
H      2.311654    2.213828   -0.510933
H     -0.051361    2.314097    0.536935
H     -1.253798    0.152506    0.349506
12

C      0.499101   -0.989800   -0.210781
C      1.663146   -0.978235    0.696284
C      2.159612    0.033725   -0.096855
C      1.712731    1.380599   -0.186256
C      0.415684    1.612040    0.101116
C     -0.272233    0.204885   -0.038260
H     -0.023893   -1.914374   -0.627668
H      1.911918   -1.424568    1.676444
H      3.152936    0.031647   -0.746482
H      2.203362    2.312521   -0.339612
H     -0.287332    2.552577    0.192290
H     -1.280623   -0.061080    0.151371
12

C      0.360501   -1.034578   -0.041847
C      1.713734   -1.214965    0.176368
C      2.491890    0.142047   -0.117356
C      1.763911    1.293495   -0.069616
C      0.319584    1.391500    0.272798
C     -0.414100    0.133402    0.259524
H     -0.240514   -1.772430   -0.443614
H      1.707976   -0.747960    1.234803
H      3.546688    0.253650   -0.474608
H      2.134425    2.153931   -0.368939
H     -0.036913    2.248362    0.115163
H     -1.492770   -0.086512    0.028913
12

C      0.362579   -1.030555   -0.051082
C      1.698322   -1.221845    0.197998
C      2.514670    0.168173   -0.081376
C      1.779529    1.305863   -0.066611
C      0.315875    1.375397    0.256777
C     -0.443598    0.139317    0.264999
H     -0.207269   -1.781855   -0.526717
H      1.699157   -0.754092    1.277185
H      3.483271    0.261392   -0.475587
H      2.207976    2.144163   -0.423054
H     -0.063226    2.269014    0.121537
H     -1.492875   -0.115032    0.077521
12

C      0.537799   -0.874424   -0.079684
C      1.654799   -0.932376    0.828379
C      2.238559    0.140929    0.057222
C      1.675343    1.531676   -0.035291
C      0.402166    1.526313    0.116528
C     -0.343652    0.276716    0.165401
H      0.186629   -1.761312   -0.677669
H      2.059393   -1.709683    1.405041
H      2.798585   -0.157111   -0.682648
H      2.309675    2.312143   -0.521169
H     -0.295570    2.416016    0.020516
H     -1.369315   -0.008948   -0.025036
12

C      0.422108   -1.059111    0.194145
C      1.760030   -0.999783    0.689269
C      2.394378    0.008981   -0.140447
C      1.526273    1.198540   -0.061404
C      0.260804    1.397077    0.237860
C     -0.544536    0.274184    0.254731
H      0.253045   -1.272183   -0.807801
H      2.254592   -1.470061    1.570544
H      3.218734   -0.232202   -0.753394
H      2.022486    2.231525   -0.409470
H     -0.308645    2.459032    0.035740
H     -1.404859    0.223942   -0.238183
12

C      0.448334   -1.089975    0.250398
C      1.740958   -0.969375    0.718054
C      2.372644    0.001120   -0.185254
C      1.557952    1.243423   -0.091017
C      0.283446    1.420928    0.289998
C     -0.469489    0.262642    0.274940
H      0.281047   -1.284547   -0.834593
H      2.245472   -1.456531    1.515574
H      3.167695   -0.333735   -0.740240
H      2.082131    2.362138   -0.378296
H     -0.313747    2.372880    0.025252
H     -1.542032    0.230972   -0.273225
12

C      0.394707   -0.961102   -0.108714
C      1.680015   -0.965018    0.607579
C      2.304890    0.168748   -0.015153
C      1.608294    1.407063   -0.076404
C      0.278955    1.501808   -0.033770
C     -0.319500    0.148564    0.195311
H      0.286923   -1.553915   -0.927450
H      1.745220   -1.515493    1.726474
H      3.176057   -0.116579   -0.796528
H      2.162653    2.224887   -0.412124
H     -0.113467    2.533614   -0.032637
H     -1.350337   -0.112638    0.445005
12

C      0.434294   -1.082923    0.260924
C      1.732344   -0.940090    0.723161
C      2.319853    0.009799   -0.214130
C      1.580957    1.310208   -0.126225
C      0.261281    1.453697    0.299617
C     -0.458614    0.269722    0.274427
H      0.337583   -1.331851   -0.822055
H      2.188315   -1.416134    1.500264
H      3.172047   -0.361228   -0.769917
H      2.076448    2.314599   -0.328426
H     -0.263282    2.277582    0.055862
H     -1.526816    0.256560   -0.281911
12

C      0.457800   -1.077802    0.252236
C      1.764830   -0.936562    0.723489
C      2.340029   -0.000820   -0.207764
C      1.580966    1.326114   -0.108982
C      0.259733    1.477176    0.295748
C     -0.475450    0.306099    0.287591
H      0.304148   -1.376254   -0.841656
H      2.172235   -1.389276    1.543306
H      3.183996   -0.364467   -0.814589
H      2.053462    2.274081   -0.337661
H     -0.260512    2.284594    0.091148
H     -1.526826    0.237056   -0.311276
12

C      0.407111   -1.102028   -0.098624
C      1.748957   -1.021115    0.673001
C      2.312795    0.187615    0.064749
C      1.694400    1.516783   -0.157952
C      0.307898    1.465115    0.074562
C     -0.310202    0.170122    0.175501
H      0.298601   -1.792617   -0.875646
H      1.920477   -1.331511    1.691685
H      2.808004   -0.192156   -0.880065
H      2.550119    2.300050   -0.316661
H     -0.474915    2.340778    0.090397
H     -1.408834    0.218904    0.130643
12

C      0.332510   -1.210805    0.014426
C      1.900089   -1.181307    0.196138
C      2.455324    0.153869   -0.271081
C      1.693001    1.332864   -0.179933
C      0.331735    1.206807    0.051903
C     -0.359779    0.098560    0.194861
H     -0.208000   -2.001811   -0.552518
H      1.586552   -0.705731    1.246561
H      3.411252    0.225647   -0.375159
H      2.342640    2.307058   -0.136727
H     -0.240562    2.279266    0.115823
H     -1.390352    0.255523    0.267296
12

C      0.483776   -0.890279    0.017383
C      1.617497   -0.816615    0.929299
C      2.117494    0.119165    0.091895
C      1.619246    1.512036    0.054267
C      0.223275    1.521580   -0.026175
C     -0.327721    0.282552   -0.107357
H      0.404825   -1.898025   -0.560103
H      2.126719   -1.777880    1.097240
H      2.809908   -0.142988   -0.754445
H      2.464749    2.194889   -0.273847
H     -0.355460    2.430508   -0.171665
H     -1.329898    0.224996    0.275095
12

C      0.434804   -1.189691   -0.374695
C      1.616535   -0.912856    0.271846
C      2.429516    0.328493    0.050453
C      1.741095    1.567713    0.009591
C      0.429076    1.319982    0.196278
C     -0.185211    0.021731   -0.061253
H     -0.259634   -2.037174   -0.191102
H      1.555031   -1.169441    1.375771
H      2.986435    0.045065   -0.818020
H      2.230748    2.523602   -0.054917
H      0.012898    2.253519   -0.157083
H     -1.136882    0.008996    0.324720
12

C      0.445567   -0.930160   -0.137929
C      1.734861   -1.011990    0.634379
C      2.270673    0.113094   -0.182515
C      1.690810    1.357934   -0.246778
C      0.417126    1.406484    0.177341
C     -0.356805    0.243868   -0.081107
H      0.340665   -1.834567   -0.605208
H      1.653928   -1.104651    1.722730
H      3.071665   -0.140244   -0.995167
H      2.218645    2.250204   -0.080658
H     -0.207715    2.286138    0.211954
H     -1.425009    0.123830    0.154549
12

C      0.483690   -0.967850    0.125430
C      1.722045   -0.668632    0.774235
C      2.323661    0.094532   -0.320067
C      1.677317    1.244162    0.037464
C      0.305021    1.382887    0.243234
C     -0.555516    0.282002    0.148402
H      0.170306   -1.748612   -0.474204
H      1.912739   -1.235079    1.641635
H      3.026258   -0.145331   -1.063369
H      2.101108    2.120378   -0.387083
H     -0.101677    2.317440    0.591222
H     -1.210541    0.084043   -0.745310
12

C      0.295678   -1.072469   -0.075504
C      1.681254   -0.804758    0.320576
C      2.448427    0.250659   -0.135153
C      1.790409    1.485016    0.070156
C      0.432692    1.349711    0.174199
C     -0.389018    0.056574   -0.018338
H     -0.191695   -2.019039   -0.073346
H      1.699805   -1.369692    1.294814
H      3.449048    0.151868   -0.811688
H      2.292637    2.427127   -0.206357
H     -0.174174    2.183586    0.056747
H     -1.480652    0.121357   -0.024516
12

C      0.196696   -1.036727    0.257539
C      1.769104   -0.927700    0.472078
C      2.465690    0.066333   -0.682703
C      1.669352    1.231145   -0.050824
C      0.201281    1.262654    0.200211
C     -0.602229    0.093191    0.042373
H     -0.142835   -1.756635   -0.520984
H      2.218999   -0.647670    1.441527
H      3.506668   -0.046921   -0.642569
H      2.229465    2.104540    0.161635
H     -0.101727    2.289767    0.231862
H     -1.556053    0.127962   -0.338556
12

C      0.448024   -1.192232   -0.259597
C      1.622169   -0.944184    0.412133
C      2.285484    0.122462   -0.210357
C      1.650942    1.390956   -0.316354
C      0.308738    1.466559   -0.052658
C     -0.447765   -0.011103   -0.052198
H      0.170346   -1.804510   -0.911198
H      1.526171   -1.131481    1.665345
H      3.314519    0.074151   -0.361688
H      2.417368    2.273613   -0.364272
H     -0.267594    2.379594    0.178904
H     -1.173992    0.136114    0.843530
12

C      0.468462   -0.968830   -0.137466
C      1.712391   -0.875142    0.579032
C      2.505457    0.250945    0.118159
C      1.797127    1.544983    0.062490
C      0.388438    1.563149    0.100740
C     -0.122870    0.224312   -0.306312
H      0.007930   -2.014542    0.219517
H      1.921726   -1.673112    1.346028
H      2.252403    0.081229   -0.974936
H      2.411579    2.293124   -0.168296
H     -0.253321    2.404959    0.270429
H     -1.234910   -0.071137   -0.537796
12

C      0.438756   -1.117462   -0.504536
C      1.619384   -0.983862    0.534303
C      2.336619    0.225379    0.016091
C      1.633902    1.567602   -0.177202
C      0.363695    1.457377   -0.016072
C     -0.266425    0.079100    0.029679
H     -0.180608   -1.959374   -0.502482
H      1.733083   -1.465434    1.675192
H      3.359670    0.018421   -0.643315
H      2.299646    2.517288   -0.443604
H     -0.172642    2.392275    0.210946
H     -1.310669    0.028629    0.392591
12

C      0.310191   -0.930038    0.105547
C      1.780371   -0.935495    0.527309
C      2.331881   -0.035983   -0.507875
C      1.623859    1.119252   -0.115506
C      0.324176    1.309911    0.147338
C     -0.493738    0.212544    0.031399
H      0.214462   -1.702961   -0.669453
H      1.889387   -0.613338    1.752604
H      3.274271   -0.009711   -0.950812
H      2.257761    2.090496    0.090485
H     -0.030581    2.244268    0.321479
H     -1.627628    0.010994   -0.160924
12

C      0.147225   -1.006814    0.262636
C      1.636720   -0.944148    0.516976
C      2.451254   -0.180508   -0.611060
C      1.742823    1.104377   -0.113226
C      0.296410    1.262264    0.194823
C     -0.573305    0.103713    0.045231
H     -0.068854   -1.744611   -0.462365
H      2.316045   -0.635628    1.363287
H      3.569248    0.171075   -0.650604
H      2.140638    2.153866    0.185570
H     -0.146466    2.271680    0.169892
H     -1.657329    0.204675   -0.329569
12

C      0.211793   -1.148813   -0.235279
C      1.924036   -1.207056    0.377310
C      2.456446    0.110766   -0.121775
C      1.712529    1.291020   -0.186677
C      0.316685    1.228382    0.070653
C     -0.487479    0.103632    0.044385
H     -0.182525   -1.999073   -0.534124
H      1.656986   -0.746667    1.381749
H      3.445741    0.333835   -0.489384
H      2.361944    2.393108   -0.228499
H     -0.072807    2.241507    0.135726
H     -1.488938    0.159299    0.357504
12

C      0.392587   -1.135459    0.045660
C      1.743819   -1.192031    0.104285
C      2.385158    0.154469   -0.326317
C      1.820497    1.323971    0.018111
C      0.403049    1.263155    0.251341
C     -0.282475   -0.006814    0.164993
H     -0.295427   -1.845267   -0.261626
H      1.638281   -0.719374    1.352959
H      3.413656    0.090095   -0.582206
H      2.255146    2.448543   -0.283316
H     -0.339613    2.178976    0.329448
H     -1.280269    0.199676   -0.241743
12

C      0.410393   -1.112871    0.040789
C      1.727122   -1.077820    0.057106
C      2.345164    0.190428   -0.352586
C      1.827655    1.400716    0.067383
C      0.367472    1.305113    0.296507
C     -0.279514    0.022864    0.173096
H     -0.343944   -2.009263   -0.166267
H      1.596086   -0.675319    1.204861
H      3.390457    0.238777   -0.513862
H      2.220618    2.165091   -0.256085
H     -0.165090    2.210081    0.285306
H     -1.242008    0.102143   -0.264659
12

C      0.263399   -1.111103   -0.002791
C      1.698293   -1.159854    0.115322
C      2.327172    0.119510   -0.215426
C      1.818635    1.358029    0.071002
C      0.307241    1.266303    0.423607
C     -0.406501    0.058985    0.159930
H     -0.191951   -1.936804   -0.285184
H      1.688958   -0.611593    1.265616
H      3.374075    0.224139   -0.507942
H      2.466378    2.338417   -0.519333
H     -0.152639    2.278574    0.401775
H     -1.338651   -0.064663   -0.334985
12

C      0.231952   -0.947461    0.255457
C      1.786513   -0.923984    0.674207
C      2.455882    0.073097   -0.123444
C      1.599347    1.269508   -0.242341
C      0.183758    1.373599    0.049140
C     -0.495480    0.193112    0.183331
H      0.378506   -0.856820   -0.857975
H      1.993636   -1.583716    1.522426
H      3.398626   -0.128524   -0.619957
H      2.158198    2.106097   -0.457117
H     -0.275478    2.227229    0.073609
H     -1.561049   -0.042199    0.114255
12

C      0.521852   -0.836746    0.141963
C      1.740098   -0.959162    1.003361
C      2.263758    0.119106   -0.010415
C      1.576958    1.391915   -0.155600
C      0.238236    1.420611   -0.169463
C     -0.454566    0.284944    0.109858
H      0.110557   -1.535051   -0.307111
H      2.349060   -1.862293    0.885575
H      3.066164   -0.054960   -0.663135
H      2.089104    2.253173    0.030270
H     -0.086641    2.359494   -0.276223
H     -1.560168    0.178910   -0.017491
12

C      0.225197   -1.018816    0.176279
C      1.723306   -0.826071    0.414934
C      2.391993    0.052755   -0.588726
C      1.668782    1.220714   -0.053763
C      0.174248    1.410364    0.054807
C     -0.492115    0.321768    0.143266
H     -0.141354   -1.818168   -0.413905
H      2.329025   -1.162915    1.280447
H      3.573616    0.243669   -0.464671
H      2.399653    1.930169    0.220953
H     -0.332012    2.291259   -0.241174
H     -1.665929    0.115212    0.043144
12

C      0.411838   -0.996276   -0.039178
C      1.657201   -1.022585    0.679181
C      2.161937    0.015369   -0.177310
C      1.711369    1.411047    0.029447
C      0.316133    1.658648    0.233616
C     -0.349376    0.283837    0.128315
H      0.359669   -1.985373   -0.816750
H      2.103668   -1.378667    1.626997
H      3.093248   -0.188652   -0.738595
H      2.361595    2.211355   -0.468070
H     -0.552981    2.437762    0.119853
H     -1.419891    0.313474   -0.005916
12

C      0.176093   -0.983253    0.127257
C      1.651128   -0.912006    0.451974
C      2.435927    0.018932   -0.596817
C      1.665959    1.229355   -0.091550
C      0.271544    1.474461    0.157327
C     -0.507739    0.355647    0.210794
H      0.003495   -1.915854   -0.453314
H      2.247520   -1.134878    1.295986
H      3.436731    0.152329   -0.556083
H      2.296670    2.093945    0.338205
H     -0.245002    2.294845   -0.409544
H     -1.577917    0.086419    0.097355
12

C      0.547043   -1.127157   -0.026302
C      1.755732   -0.932877    0.741531
C      2.281009    0.232689   -0.049513
C      1.692934    1.591176   -0.087666
C      0.388618    1.533333    0.246517
C     -0.241378    0.188119    0.183010
H      0.073896   -1.732797   -0.806226
H      1.936039   -1.574133    1.619541
H      2.804907   -0.095002   -0.860326
H      2.482966    2.307218   -0.305777
H     -0.352710    2.324780   -0.167880
H     -1.514647    0.044592    0.084680
12

C      0.407794   -1.024587    0.072452
C      1.764667   -0.801373    0.764674
C      2.196042    0.005793   -0.421534
C      1.753698    1.386575   -0.108858
C      0.281754    1.393869    0.037437
C     -0.405474    0.261933   -0.108762
H      0.168198   -1.994904   -0.507432
H      2.080250   -1.570991    1.525950
H      3.190598   -0.104210   -0.758311
H      2.118155    2.454376    0.020786
H     -0.209351    2.339771   -0.003972
H     -1.491919    0.413688    0.059162
12

C      0.292831   -1.060111    0.020371
C      1.671397   -1.121281    0.052116
C      2.385831    0.089671   -0.187087
C      1.763515    1.323485    0.049995
C      0.360587    1.234607    0.240271
C     -0.299505    0.088256    0.119356
H     -0.196347   -1.967997   -0.345613
H      1.719584   -0.640170    1.244467
H      3.409225    0.160068   -0.453353
H      2.195812    2.364404   -0.353125
H     -0.098202    2.087442    0.260948
H     -1.350315    0.201565   -0.076755
12

C      0.367892   -1.006792   -0.136819
C      1.725796   -1.055655    0.115885
C      2.445100    0.106380   -0.168721
C      1.800103    1.291778    0.078803
C      0.380336    1.267864    0.234805
C     -0.328834    0.140559    0.130987
H     -0.111872   -1.997246   -0.226588
H      1.535749   -0.603839    1.184289
H      3.439125    0.090908   -0.583132
H      2.216286    2.191615   -0.342805
H     -0.239546    2.277057    0.356947
H     -1.375725    0.057310   -0.072059
12

C      0.406705   -0.984385   -0.242142
C      1.805049   -0.960423    0.220639
C      2.493150    0.216978   -0.192465
C      1.758394    1.325486   -0.009676
C      0.347270    1.394817    0.161136
C     -0.417718    0.161645    0.062608
H     -0.163917   -2.017884   -0.124766
H      1.561227   -1.004001    1.296429
H      3.485649    0.096885   -0.604398
H      2.278916    2.276967   -0.292884
H     -0.194171    2.205701    0.289242
H     -1.506142    0.048154    0.007868
12

C      0.414383   -1.137523   -0.361449
C      1.581683   -0.896234    0.469775
C      2.365805    0.237694   -0.130968
C      1.737383    1.506550   -0.212629
C      0.430043    1.418847    0.163079
C     -0.276732    0.123948   -0.024245
H      0.103045   -2.129723   -0.707281
H      1.437094   -0.915801    1.672902
H      3.177775   -0.086881   -0.700430
H      2.244126    2.294539   -0.372013
H     -0.075209    2.318715    0.415754
H     -1.284985    0.025809    0.359093
12

C      0.416339   -1.079148   -0.308686
C      1.569271   -0.911990    0.626803
C      2.449965    0.103452   -0.084691
C      1.730146    1.463685   -0.080889
C      0.354809    1.407194    0.157617
C     -0.274147    0.144162    0.047479
H      0.175850   -1.967700   -0.802697
H      1.457228   -1.037138    1.590080
H      3.302474   -0.188540   -0.729679
H      2.285195    2.448838   -0.634816
H     -0.313783    2.223846    0.452953
H     -1.298937    0.153279    0.338114
12

C      0.514191   -0.904138   -0.078948
C      1.774059   -1.015403    0.627029
C      2.328663    0.157995   -0.041370
C      1.653448    1.379981   -0.009268
C      0.302216    1.414223    0.216643
C     -0.409426    0.218087    0.159949
H      0.198957   -1.789717   -0.781647
H      1.902644   -1.188631    1.764875
H      2.841275   -0.117945   -0.997336
H      2.255538    2.200174   -0.283233
H     -0.058626    2.396309    0.058215
H     -1.448529    0.009004   -0.063319
12

C      0.499982   -0.985211   -0.008960
C      1.811687   -1.076081    0.643067
C      2.273785    0.135311   -0.086488
C      1.605691    1.341450   -0.095267
C      0.298641    1.453560    0.147784
C     -0.433308    0.253617    0.079545
H      0.341612   -1.807006   -0.580574
H      1.958624   -1.328488    1.669543
H      2.763521   -0.047000   -0.979803
H      2.349753    2.227093   -0.132859
H     -0.143588    2.431506    0.047938
H     -1.471990    0.161189   -0.132336
12

C      0.533836   -0.846313    0.118271
C      1.727850   -0.877233    0.918797
C      2.130358    0.125375    0.016539
C      1.619649    1.456406   -0.062288
C      0.273903    1.450967   -0.079253
C     -0.421957    0.268082   -0.027709
H      0.154683   -1.721193   -0.471368
H      2.286141   -1.733693    1.131269
H      2.809113   -0.206422   -0.749487
H      2.381995    2.391249   -0.084980
H     -0.193701    2.406550   -0.126727
H     -1.447458    0.046165   -0.011475
12

C      0.566870   -0.805652    0.114937
C      1.747560   -0.918363    0.866395
C      2.094433    0.121484   -0.022051
C      1.617679    1.421144   -0.018414
C      0.252870    1.462938   -0.021489
C     -0.424197    0.296135    0.003036
H      0.239863   -1.644873   -0.492185
H      2.310960   -1.758060    1.220872
H      2.803371   -0.203122   -0.718976
H      2.351326    2.276078   -0.181042
H     -0.225963    2.454085   -0.107148
H     -1.480360    0.058143   -0.072346
12

C      0.563113   -0.781592    0.119227
C      1.762914   -0.915700    0.911669
C      2.087603    0.145777    0.001211
C      1.622817    1.437140   -0.007418
C      0.254756    1.540735    0.040450
C     -0.393478    0.321799    0.050859
H      0.338151   -1.697879   -0.252549
H      2.266234   -1.938605    0.893039
H      2.869770   -0.153065   -0.640174
H      2.233937    2.140178   -0.211890
H     -0.256240    2.495465   -0.182870
H     -1.495166    0.165687   -0.149962
12

C      0.527311   -0.780598    0.189963
C      1.750013   -0.935333    0.965667
C      2.080705    0.157073    0.031257
C      1.615638    1.435475   -0.036016
C      0.237446    1.565276    0.045048
C     -0.386347    0.319545    0.091392
H      0.390907   -1.796538   -0.215973
H      2.123683   -1.915339    0.640383
H      2.898628   -0.166317   -0.609272
H      2.324914    2.247824   -0.231983
H     -0.298242    2.416186   -0.184980
H     -1.410245    0.212684   -0.113895
12

C      0.525234   -0.836834    0.168331
C      1.761768   -0.989149    1.003538
C      2.125906    0.093826    0.030448
C      1.596362    1.404808    0.016059
C      0.203702    1.601673    0.122996
C     -0.372769    0.307485    0.130187
H      0.272196   -1.898475   -0.151623
H      2.080798   -1.876348    0.525809
H      3.004498   -0.054945   -0.588281
H      2.326956    2.301670   -0.336607
H     -0.333418    2.451730   -0.168194
H     -1.336824    0.254498   -0.181073
12

C      0.439362   -1.009374    0.035642
C      1.800155   -1.101667    0.627044
C      2.352008    0.106777   -0.041186
C      1.676302    1.415316   -0.194617
C      0.290144    1.447085   -0.075430
C     -0.372049    0.210573    0.000541
H      0.372057   -1.770587   -0.747386
H      1.811783   -1.408186    1.681034
H      2.934242   -0.213941   -0.891770
H      2.237842    2.440336   -0.161337
H     -0.263379    2.388940    0.122142
H     -1.424057    0.254669    0.216914
12

C      0.375262   -1.055411    0.044447
C      1.825999   -1.159778    0.289868
C      2.469991    0.151391   -0.245440
C      1.778313    1.310850   -0.055650
C      0.344264    1.315015    0.127749
C     -0.348671    0.081648    0.066040
H     -0.247886   -1.890830   -0.055040
H      1.568205   -0.662099    1.112122
H      3.439633    0.255571   -0.743121
H      2.364067    2.146769   -0.104486
H     -0.333611    2.149561    0.394484
H     -1.381155    0.117254   -0.259384
12

C      0.325493   -1.093012   -0.049762
C      1.780896   -1.164401    0.095455
C      2.514326    0.143088   -0.245120
C      1.790245    1.285060   -0.162567
C      0.369224    1.279833    0.095225
C     -0.346139    0.062266    0.009297
H     -0.340779   -1.931228   -0.286497
H      1.646141   -0.585689    1.437094
H      3.611773    0.261171   -0.604340
H      2.228445    2.182565   -0.125559
H     -0.266818    2.152695    0.405371
H     -1.458397    0.167590    0.002993
12

C      0.271324   -1.056632    0.022051
C      1.847748   -1.162698    0.209749
C      2.521183    0.161781   -0.084650
C      1.816785    1.305351   -0.084099
C      0.376867    1.256412    0.106962
C     -0.343801    0.070101   -0.037614
H     -0.356156   -1.881627   -0.186484
H      1.553799   -0.717291    1.047099
H      3.413431    0.323709   -0.513884
H      2.310188    2.341989   -0.209633
H     -0.162643    2.133236    0.230332
H     -1.394314   -0.014391    0.071759
12

C      0.422595   -1.111433   -0.132222
C      1.790261   -1.156350    0.127326
C      2.444636    0.143058   -0.176964
C      1.796763    1.336899   -0.023379
C      0.428870    1.236914    0.303066
C     -0.461489    0.097725    0.067386
H     -0.001028   -1.969659   -0.542312
H      1.599965   -0.720392    1.516677
H      3.386927   -0.016586   -0.492681
H      1.973549    2.372137   -0.479126
H     -0.050292    2.179538    0.350535
H     -1.476346    0.368090    0.053283
12

C      0.581998   -0.854243    0.261907
C      1.751642   -1.005791    0.933895
C      2.235260    0.089447    0.035540
C      1.605557    1.452457    0.098762
C      0.243563    1.565490    0.035024
C     -0.430853    0.310062   -0.027225
H      0.483830   -1.730234   -0.330701
H      2.295939   -1.912364    0.952657
H      2.718647   -0.352373   -0.855108
H      2.148615    2.320688   -0.123023
H     -0.299617    2.510448   -0.223574
H     -1.480171    0.366352   -0.186563
12

C      0.391240   -1.127932   -0.143913
C      1.761275   -1.134255    0.104594
C      2.465479    0.174524   -0.166183
C      1.755348    1.375233   -0.061088
C      0.432431    1.255871    0.272733
C     -0.464844    0.095058    0.134831
H      0.014956   -2.061898   -0.469492
H      1.517377   -0.720739    1.482673
H      3.520356    0.047558   -0.531566
H      2.099572    2.279326   -0.517595
H     -0.149798    2.202843    0.471161
H     -1.488982    0.374351   -0.004565
12

C      0.314797   -1.121258   -0.197805
C      1.824110   -1.159138    0.184907
C      2.470171    0.163149   -0.136004
C      1.748568    1.321783   -0.171445
C      0.379468    1.288035    0.056073
C     -0.317331    0.029343    0.111531
H     -0.397570   -1.784394   -0.582230
H      1.655664   -0.672650    1.040947
H      3.512499    0.099203   -0.016555
H      2.191374    2.358854   -0.353518
H     -0.241889    2.158021    0.105582
H     -1.285450    0.078992    0.530108
12

C      0.230129   -1.045699    0.437043
C      1.585101   -0.983522    0.668521
C      2.314787    0.086878   -0.079064
C      1.595200    1.228546   -0.224293
C      0.274342    1.387798    0.021898
C     -0.532508    0.271645    0.318934
H      0.391247   -1.084360   -0.851441
H      2.225810   -1.608903    1.319260
H      3.323336    0.029184   -0.573553
H      2.112665    2.148683   -0.358732
H     -0.109767    2.311473   -0.098535
H     -1.555929    0.018215   -0.008447
12

C      0.534518   -1.007073   -0.211883
C      1.752420   -0.898275    0.851719
C      2.221345    0.131274   -0.167410
C      1.735828    1.561827   -0.008922
C      0.264690    1.486424   -0.066406
C     -0.264071    0.258685   -0.148655
H     -0.152228   -1.904245   -0.251829
H      2.275040   -1.492915    1.520531
H      2.892606   -0.388804   -0.891262
H      2.356163    2.545621   -0.072525
H     -0.391477    2.365686    0.341265
H     -1.370423    0.101736   -0.323035
12

C      0.530003   -0.999856   -0.210366
C      1.714950   -0.903551    0.810713
C      2.231066    0.128826   -0.149231
C      1.674017    1.545153   -0.037942
C      0.248496    1.523777   -0.083957
C     -0.311639    0.273104   -0.144438
H      0.039756   -1.832592   -0.270391
H      2.147219   -1.499251    1.532591
H      2.872615   -0.307775   -0.904198
H      2.355498    2.435593   -0.072063
H     -0.284757    2.276039    0.291799
H     -1.362813    0.120473   -0.190928
12

C      0.262971   -1.014466    0.184585
C      1.645284   -0.915437    0.470857
C      2.298902   -0.031275   -0.465163
C      1.602893    1.233185   -0.265524
C      0.160066    1.316113    0.046906
C     -0.443622    0.182848    0.186219
H      0.293317   -1.428253   -0.767959
H      2.083845   -1.179381    1.458739
H      3.486837    0.058457   -0.338156
H      2.293775    2.021000   -0.205379
H     -0.265015    2.373180    0.112633
H     -1.564843    0.143968    0.153830
12

C      0.271569   -0.988349    0.224609
C      1.640253   -0.941163    0.552848
C      2.297067   -0.084193   -0.411042
C      1.524813    1.171378   -0.264165
C      0.190395    1.389000    0.045041
C     -0.451840    0.191590    0.166264
H      0.284858   -1.435353   -0.913298
H      2.230677   -0.955550    1.596725
H      3.379379   -0.101756   -0.535073
H      2.192333    1.978825   -0.116413
H     -0.272490    2.322491    0.234437
H     -1.432603    0.213020   -0.008342
12

C      0.299975   -1.062020   -0.114841
C      1.794452   -1.150653    0.118490
C      2.397918    0.139090   -0.161067
C      1.825570    1.346809   -0.023405
C      0.432523    1.279326    0.215156
C     -0.382728    0.047716    0.134367
H     -0.291557   -1.844349   -0.646280
H      1.718437   -0.716495    1.524758
H      3.473020    0.289505   -0.466952
H      2.251073    2.200034   -0.338045
H     -0.179724    2.198667    0.033320
H     -1.484547    0.032309    0.296090
12

C      0.288705   -1.127827   -0.127334
C      1.771871   -1.142076    0.094639
C      2.367341    0.081591   -0.284210
C      1.776418    1.323196   -0.038079
C      0.380666    1.279612    0.223663
C     -0.425617    0.083873    0.183393
H     -0.094024   -1.978246   -0.591528
H      1.705192   -0.557648    1.409095
H      3.396690    0.047004   -0.363434
H      2.179512    2.387936   -0.273800
H     -0.021676    2.243868    0.181204
H     -1.470667    0.118656    0.157981
12

C      0.316318   -1.131749   -0.060509
C      1.709230   -1.024730    0.207192
C      2.409665    0.127332   -0.327916
C      1.684203    1.368251   -0.114840
C      0.323262    1.336855    0.157200
C     -0.416479    0.163494    0.190398
H     -0.040282   -2.158715   -0.340030
H      1.808383   -0.757980    1.070181
H      3.531219   -0.051300   -0.286702
H      2.133288    2.262477   -0.198059
H     -0.101887    2.371369    0.307645
H     -1.502510    0.254637   -0.032969
12

C      0.419979   -1.150129   -0.017144
C      1.813224   -1.180043    0.252857
C      2.446981    0.124327   -0.328557
C      1.746608    1.310627   -0.092722
C      0.311690    1.320231    0.095941
C     -0.401790    0.091311    0.105811
H     -0.106381   -2.060320   -0.288782
H      1.560186   -0.624152    1.412102
H      3.398299    0.096576   -0.791791
H      2.300808    2.347044   -0.039163
H     -0.227637    2.170570    0.387138
H     -1.407558    0.313900   -0.124101
12

C      0.281087   -1.114487   -0.181558
C      1.796291   -1.028829    0.032920
C      2.540559    0.137267   -0.184181
C      1.771402    1.372318   -0.083502
C      0.308079    1.288072    0.027007
C     -0.428313    0.016019    0.205901
H     -0.239324   -2.025901   -0.413525
H      1.477620   -0.784644    1.302187
H      3.736313    0.283783   -0.492192
H      2.346656    2.156753   -0.159696
H     -0.373835    2.252509    0.044112
H     -1.362124    0.207081    0.474116
12

C      0.400217   -1.058160   -0.273183
C      1.843769   -1.138566    0.167941
C      2.490315    0.202161   -0.268520
C      1.729945    1.337477    0.039492
C      0.384894    1.281772    0.244761
C     -0.426279    0.126749    0.058590
H     -0.195815   -2.026216   -0.324314
H      1.522652   -0.617393    1.209003
H      3.459328    0.025238   -0.458497
H      2.153843    2.369704   -0.174632
H      0.027920    2.215882    0.069905
H     -1.536379    0.041292    0.281044
12

C      0.391450   -1.120195   -0.064858
C      1.846705   -1.058204    0.237087
C      2.562760    0.211626   -0.187821
C      1.752123    1.361208   -0.085293
C      0.344463    1.176349    0.098129
C     -0.381607   -0.045800   -0.002564
H     -0.218061   -1.971930   -0.429358
H      1.228076   -0.763861    1.298450
H      3.546944    0.319753   -0.569263
H      2.354605    2.356182   -0.381084
H     -0.113927    2.124533    0.314719
H     -1.459120    0.170278    0.343447
12

C      0.427675   -1.144237   -0.120769
C      1.919187   -1.010055    0.289318
C      2.540708    0.182279   -0.181226
C      1.767593    1.381099   -0.111808
C      0.420655    1.185716    0.037365
C     -0.412475   -0.019238   -0.168228
H     -0.223114   -2.041126   -0.289245
H      1.244814   -0.692099    1.251861
H      3.477506    0.155585   -0.575938
H      2.260049    2.475151   -0.322309
H     -0.109089    1.964084    0.531693
H     -1.459098    0.322782    0.230877
12

C      0.337087   -1.097704   -0.114492
C      1.704018   -1.139098    0.197504
C      2.412375    0.179820   -0.098563
C      1.802238    1.362799   -0.222029
C      0.319060    1.339326    0.291975
C     -0.396052    0.184175    0.224570
H      0.013815   -2.035288   -0.556707
H      1.629305   -0.646652    1.115495
H      3.488640   -0.109300   -0.220556
H      2.192177    2.264667   -0.573239
H     -0.247943    2.274498    0.506844
H     -1.400311    0.182695    0.020787
12

C      0.336452   -1.144291   -0.095052
C      1.736309   -1.170805    0.132165
C      2.448920    0.162388   -0.182376
C      1.653006    1.367603   -0.191594
C      0.321133    1.319008    0.365183
C     -0.367344    0.035618    0.248923
H     -0.079314   -1.901598   -0.689421
H      1.755463   -0.630626    1.304787
H      3.592806   -0.004806   -0.194002
H      2.323293    2.148562   -0.596508
H     -0.404000    2.212898    0.391135
H     -1.462313    0.365988    0.078350
12

C      0.317976   -1.040824   -0.128191
C      1.735472   -1.170130    0.166158
C      2.427009    0.128518   -0.184038
C      1.844165    1.290932   -0.107539
C      0.371124    1.282629    0.056354
C     -0.382370    0.219136    0.206558
H     -0.236050   -1.952847   -0.618397
H      1.719785   -0.722944    1.405563
H      3.449054    0.129234   -0.356130
H      1.996301    2.343846   -0.278583
H      0.011585    2.244176    0.153947
H     -1.399640    0.008213    0.255888
12

C      0.256919   -0.961010    0.211463
C      1.617963   -0.781714    0.562295
C      2.317554   -0.052337   -0.628735
C      1.714801    1.138618   -0.178980
C      0.400757    1.223438    0.228985
C     -0.506696    0.144534   -0.003491
H      0.087035   -1.864161   -0.284929
H      1.995650   -0.566311    1.436331
H      3.397054    0.146971   -0.826987
H      2.157606    2.002555    0.078425
H     -0.043907    2.100527    0.618560
H     -1.540325    0.228830   -0.641346
12

C      0.372598   -1.001626   -0.061078
C      1.778804   -0.742068    0.502282
C      2.399357    0.111787   -0.490383
C      1.690217    1.327454   -0.121305
C      0.098703    1.371562    0.115877
C     -0.464718    0.140876   -0.137431
H     -0.051352   -1.989458   -0.387834
H      1.855459   -0.821702    1.539100
H      3.409271   -0.150473   -0.839630
H      2.477050    2.152284    0.115294
H     -0.214740    2.347099    0.397901
H     -1.496239    0.014206   -0.061202
12

C      0.274191   -0.951726   -0.123016
C      1.808315   -0.953841    0.365054
C      2.272748    0.070692   -0.586106
C      1.659829    1.213681   -0.025986
C      0.243614    1.324260    0.141383
C     -0.414979    0.168183    0.060794
H     -0.067780   -1.978465   -0.391333
H      2.123455   -0.750862    1.535255
H      3.417802    0.149916   -0.603676
H      2.295062    1.953540    0.198113
H     -0.153345    2.289442    0.018916
H     -1.604502    0.225120   -0.017807
12

C      0.469948   -0.865529    0.056054
C      1.683103   -0.693844    0.857518
C      2.451428    0.101248   -0.119698
C      1.610034    1.434472    0.085162
C      0.328611    1.520734   -0.178235
C     -0.309270    0.311818   -0.256656
H      0.214326   -1.890883   -0.143797
H      2.245788   -1.588373    1.106804
H      2.567677   -0.301379   -1.020681
H      2.242773    2.206912    0.421323
H     -0.280060    2.385478   -0.208637
H     -1.369946    0.139285   -0.027569
12

C      0.405081   -0.982928   -0.063656
C      1.711327   -0.736441    0.460711
C      2.408742    0.013141   -0.443145
C      1.672705    1.231747   -0.131986
C      0.295299    1.266117    0.315567
C     -0.388345    0.129500    0.144042
H     -0.000038   -1.830456   -0.582391
H      1.807093   -0.893092    1.564808
H      3.408692   -0.030965   -0.666768
H      2.166315    2.166706   -0.195989
H     -0.200874    2.173254    0.263612
H     -1.431586    0.253357   -0.093217
12

C      0.434580   -0.911322    0.070817
C      1.754344   -0.876736    0.625982
C      2.464088    0.051750   -0.182700
C      1.702725    1.230083    0.057595
C      0.235257    1.471618    0.118645
C     -0.334479    0.261103   -0.020351
H      0.177091   -1.788672   -0.632451
H      2.012828   -0.993612    1.641986
H      2.962231   -0.352808   -1.143809
H      2.218288    2.183998    0.023287
H     -0.359069    2.411320    0.188294
H     -1.413474    0.073219   -0.175703
12

C      0.475198   -1.165511   -0.397140
C      1.622975   -1.001751    0.554306
C      2.508587    0.209689    0.050950
C      1.883335    1.469966    0.035438
C      0.418116    1.346493    0.166100
C     -0.226830    0.175183   -0.212232
H      0.005706   -2.059865   -0.427307
H      1.460108   -0.844768    1.627583
H      2.716022    0.047507   -1.007184
H      2.322374    2.394693   -0.316818
H     -0.096352    2.208538    0.366752
H     -1.234830   -0.020236    0.131142
12

C      0.531542   -1.204429   -0.294664
C      1.657365   -0.983824    0.538148
C      2.510261    0.234623    0.096482
C      1.890358    1.583929    0.018245
C      0.443449    1.383629    0.086712
C     -0.163241    0.126510   -0.170980
H     -0.177164   -2.128703   -0.474779
H      1.494619   -0.965450    1.639964
H      2.780976    0.101138   -0.993690
H      2.477695    2.376458   -0.395539
H     -0.349193    2.147821    0.427858
H     -1.242256    0.088238    0.093832
12

C      0.606580   -0.889520   -0.106835
C      1.725438   -0.803170    0.874754
C      2.299934    0.176142   -0.091144
C      1.526136    1.356884   -0.130907
C      0.172619    1.512635   -0.102960
C     -0.389971    0.219757   -0.142994
H      0.051236   -1.881884   -0.436889
H      2.161904   -1.735891    1.400954
H      3.155530   -0.144563   -0.815152
H      2.175937    2.208241   -0.059863
H     -0.123767    2.609233    0.028232
H     -1.507165    0.132074    0.154394
12

C      0.581943   -0.881706   -0.057660
C      1.742998   -0.842596    0.938380
C      2.309109    0.133716   -0.068089
C      1.544207    1.317500   -0.121351
C      0.217407    1.502000   -0.058089
C     -0.376712    0.230649   -0.043950
H      0.131874   -1.676186   -0.501468
H      2.169915   -1.689260    1.318048
H      3.020707   -0.064281   -0.679949
H      2.294286    2.118697   -0.297155
H     -0.330727    2.357493    0.128830
H     -1.450596    0.253915    0.014042
12

C      0.506121   -1.006465    0.143929
C      1.702417   -0.982177    0.977143
C      2.234341    0.160291    0.011434
C      1.574528    1.501910   -0.147757
C      0.302420    1.556630    0.075142
C     -0.369013    0.201513    0.077749
H      0.338500   -1.526559   -0.671108
H      2.154290   -1.868816    1.135181
H      2.838688   -0.250471   -0.557122
H      2.209988    2.355812   -0.432830
H     -0.222277    2.463369   -0.043843
H     -1.415593    0.154901    0.003672
12

C      0.429545   -0.875268    0.002297
C      1.612305   -0.979333    0.835057
C      2.280449    0.058112   -0.080179
C      1.607555    1.381912   -0.159560
C      0.285259    1.469884    0.063671
C     -0.431423    0.243865   -0.123017
H      0.423918   -1.761214   -0.790473
H      1.835667   -1.390360    1.724169
H      3.212910   -0.007285   -0.900972
H      2.305952    2.183182   -0.534794
H     -0.192186    2.229293    0.421442
H     -1.515542    0.207152    0.113950
12

C      0.316165   -1.110060    0.025770
C      1.595001   -0.685720    0.539669
C      2.357573    0.061363   -0.325761
C      1.698622    1.322081   -0.210898
C      0.296024    1.322511    0.228865
C     -0.357697    0.155947    0.087446
H      0.066413   -1.867054   -0.798113
H      1.782285   -0.907822    1.530014
H      3.453178   -0.026911   -0.559604
H      2.250811    2.150914   -0.443171
H     -0.135109    2.266641    0.516277
H     -1.468855    0.078049   -0.018904
12

C      0.369749   -1.029100   -0.268153
C      1.690964   -1.086920    0.701788
C      2.251045    0.112082   -0.229679
C      1.693577    1.479894   -0.197751
C      0.364894    1.469222    0.082659
C     -0.413891    0.219614   -0.027018
H      0.136016   -1.982093   -0.699899
H      1.837386   -1.238146    1.732199
H      3.246825   -0.043808   -0.685252
H      2.323074    2.387587   -0.351015
H     -0.210851    2.379921    0.292377
H     -1.434377    0.091685    0.221334
12

C      0.552288   -1.011801   -0.219306
C      1.777663   -1.202219    0.648399
C      2.264657    0.154597   -0.100098
C      1.676161    1.432591   -0.128472
C      0.286317    1.513089    0.121682
C     -0.289402    0.163995    0.034292
H     -0.033540   -1.746409   -0.577736
H      1.937495   -1.330757    1.766305
H      2.986305   -0.042612   -0.812335
H      2.317222    2.357578   -0.336126
H     -0.288728    2.399023    0.205350
H     -1.332027    0.072864   -0.030366
12

C      0.431325   -0.947918    0.035177
C      1.800904   -0.994320    0.603452
C      2.327911   -0.033212   -0.457150
C      1.603589    1.288433   -0.191748
C      0.238692    1.287492    0.310896
C     -0.477941    0.157961    0.108153
H      0.037119   -1.837025   -0.551251
H      1.900716   -0.827238    1.674151
H      3.388187   -0.007209   -0.940028
H      2.247170    2.149287   -0.034541
H     -0.163240    2.326065    0.318841
H     -1.480022    0.197623   -0.304360
12

C      0.260255   -1.102867    0.097967
C      1.587986   -0.689872    0.468600
C      2.366752    0.025987   -0.405112
C      1.690405    1.326905   -0.165732
C      0.329996    1.333668    0.238654
C     -0.456368    0.176029    0.138509
H      0.173384   -1.977943   -0.512868
H      1.834498   -0.782004    1.555184
H      3.315012   -0.026409   -0.911573
H      2.493249    2.123475   -0.063393
H     -0.317806    2.182952    0.467706
H     -1.422952    0.170020   -0.336353
12

C      0.279683   -0.927386   -0.029980
C      1.735925   -0.772772    0.528006
C      2.469919    0.059601   -0.642982
C      1.666619    1.233465   -0.174919
C      0.230490    1.170416    0.286331
C     -0.521304    0.087180   -0.184616
H     -0.089364   -1.871983   -0.298911
H      2.000600   -0.585669    1.574951
H      3.467400   -0.070180   -0.724106
H      2.152717    2.106357    0.048105
H      0.064093    2.216873    0.627753
H     -1.602368    0.114039   -0.438044
12

C      0.413485   -1.053917    0.034709
C      1.721878   -0.994995    0.775347
C      2.573384    0.359066    0.262508
C      1.766299    1.623283    0.052680
C      0.461393    1.373534   -0.068041
C     -0.253198    0.210335   -0.158193
H     -0.071050   -1.903251   -0.372700
H      2.324582   -1.790202    1.243940
H      2.234067   -0.085847   -0.751176
H      2.215507    2.471234   -0.130554
H     -0.161387    2.375664   -0.193820
H     -1.370550    0.175036   -0.123109
12

C      0.419486   -1.028195   -0.005399
C      1.736234   -0.985014    0.774842
C      2.601088    0.343454    0.283110
C      1.811502    1.616769    0.059656
C      0.481948    1.381080   -0.112721
C     -0.225138    0.207756   -0.201713
H     -0.134548   -1.906655   -0.278157
H      2.274888   -1.835412    1.201649
H      2.296858   -0.121654   -0.768069
H      2.197893    2.585944   -0.118160
H     -0.252893    2.280639   -0.179243
H     -1.352906    0.221228   -0.084206
12

C      0.483158   -1.109563   -0.130467
C      1.807765   -0.950461    0.799300
C      2.304014    0.088587   -0.165584
C      1.652896    1.349809   -0.085101
C      0.403631    1.443476    0.389858
C     -0.443880    0.139534    0.200824
H      0.298062   -1.677882   -1.126640
H      1.750246   -1.157253    1.973081
H      3.121657   -0.256852   -0.894212
H      2.156462    2.385614   -0.714636
H     -0.093783    2.423762    0.396320
H     -1.585818    0.081168   -0.071155
12

C      0.487520   -0.831761   -0.006569
C      1.671021   -0.899496    1.002963
C      2.065151    0.061228    0.110131
C      1.637899    1.480891   -0.217562
C      0.218407    1.437094   -0.014936
C     -0.465024    0.262890   -0.002301
H      0.383508   -1.741641   -0.326768
H      2.219345   -1.970797    1.098048
H      3.011174    0.026504   -0.466528
H      2.425985    2.299087   -0.741853
H     -0.273384    2.309182    0.443738
H     -1.527190    0.326758   -0.306772
12

C      0.414831   -0.937137    0.060705
C      1.611423   -0.726373    0.752110
C      2.414816    0.127410   -0.322158
C      1.694843    1.384197   -0.092507
C      0.274326    1.414893   -0.184070
C     -0.391740    0.291183   -0.245761
H      0.229202   -2.007702   -0.445443
H      1.963141   -1.397500    1.557920
H      3.082991   -0.103746   -1.096796
H      2.303851    2.143390    0.336034
H     -0.294048    2.401089    0.011956
H     -1.449224    0.170236    0.239600
12

C      0.204823   -1.217520   -0.070795
C      1.638966   -1.014374   -0.004110
C      2.447805    0.162559    0.014455
C      1.776832    1.455513   -0.029314
C      0.264092    1.230181    0.073352
C     -0.276726    0.039038    0.288784
H     -0.383902   -1.953558   -0.600276
H      1.881833   -0.763265    1.129254
H      3.607993    0.215248   -0.353239
H      2.365458    2.316478   -0.123382
H     -0.309595    1.866901   -0.306249
H     -1.363169    0.422738    0.553109
12

C      0.413267   -1.054829    0.074383
C      1.590585   -1.004438    0.804003
C      2.178331   -0.152012   -0.368449
C      1.610314    1.133458   -0.185936
C      0.340827    1.433516    0.334404
C     -0.388929    0.072973    0.021028
H      0.479585   -1.629275   -0.811862
H      1.782262   -0.210860    1.546523
H      3.151351   -0.172313   -0.823267
H      2.161371    1.970969   -0.531860
H     -0.052206    2.178926    1.113193
H     -1.412347    0.193823   -0.600571
12

C      0.429794   -1.015663   -0.011273
C      1.720809   -0.896749    0.744114
C      2.178995   -0.110976   -0.303638
C      1.636600    1.109744    0.029611
C      0.358631    1.236696    0.481781
C     -0.399789    0.150148    0.009732
H      0.576629   -1.897849   -0.665991
H      1.637094   -0.434553    1.659062
H      2.914171   -0.202302   -1.160006
H      2.042242    2.069704   -0.391829
H     -0.130423    2.224303    0.755591
H     -1.110341    0.527438   -0.575565
12

C      0.347321   -1.178095    0.093860
C      1.701224   -0.996522    0.733359
C      2.308492    0.004106   -0.134361
C      1.656033    1.345792   -0.193809
C      0.359089    1.446882   -0.013170
C     -0.220310    0.243978    0.196209
H      0.165245   -1.574965   -0.945016
H      2.094691   -1.172332    1.657239
H      3.102914   -0.226300   -0.903031
H      2.146577    2.278988   -0.054908
H     -0.427430    2.357475    0.047144
H     -1.379435    0.230933    0.088074
12

C      0.425081   -1.048837   -0.045008
C      1.889912   -1.052681    0.259343
C      2.361043    0.156960   -0.194587
C      1.844036    1.359753    0.032731
C      0.406413    1.252783    0.255443
C     -0.415764    0.083513    0.005305
H     -0.261042   -2.058365   -0.345457
H      1.619640   -0.649442    1.273988
H      3.361577    0.080324   -0.639198
H      2.254057    2.335159   -0.265611
H     -0.151673    2.136023    0.307809
H     -1.478868    0.164751   -0.073168
12

C      0.355757   -1.041467   -0.023787
C      1.845276   -1.036266    0.221199
C      2.343768    0.147520   -0.225690
C      1.813984    1.332993    0.040979
C      0.403140    1.261979    0.205843
C     -0.385736    0.134537   -0.037639
H     -0.207250   -1.971286   -0.221049
H      1.614385   -0.585321    1.164715
H      3.385330    0.146803   -0.637525
H      2.278691    2.185035   -0.144423
H     -0.140376    2.131049    0.276788
H     -1.452556    0.054366   -0.047822
12

C      0.552606   -1.052486   -0.295696
C      1.676746   -0.980997    0.495890
C      2.447648    0.199250   -0.078887
C      1.845250    1.386223   -0.014801
C      0.455242    1.459275    0.090384
C     -0.152326    0.151900   -0.009584
H     -0.164569   -1.951097   -0.377099
H      1.526673   -1.150157    1.546062
H      2.968895    0.029602   -0.937350
H      2.245558    2.440271   -0.119238
H     -0.325252    2.189444    0.033041
H     -1.222060    0.038712    0.238868
12

C      0.477025   -1.048017   -0.449424
C      1.624617   -0.944538    0.498937
C      2.326268    0.156168   -0.215416
C      1.792323    1.424950    0.016207
C      0.391424    1.330173    0.085108
C     -0.251381    0.141927   -0.082942
H     -0.100143   -1.943830   -0.261938
H      1.606885   -0.978828    1.553522
H      3.277797    0.002951   -0.881563
H      2.215372    2.307078   -0.124885
H     -0.199565    2.291307    0.225583
H     -1.306211    0.020600    0.208403
12

C      0.275823   -1.195434   -0.141060
C      1.497711   -0.813565    0.564447
C      2.433548    0.227824    0.019842
C      1.724543    1.465637   -0.068993
C      0.351854    1.334653    0.294725
C     -0.285747    0.092941    0.000200
H      0.123078   -1.972527   -0.741008
H      1.651869   -1.110256    1.650035
H      3.080089    0.120933   -0.819257
H      2.396228    2.289240   -0.623568
H     -0.091910    2.205257    0.364552
H     -1.302675    0.115237    0.071674
12

C      0.318700   -1.123272   -0.013680
C      1.715692   -1.100813    0.682978
C      2.214854    0.070593   -0.084436
C      1.659532    1.447692    0.061724
C      0.313698    1.356107   -0.046658
C     -0.305089    0.174357   -0.010280
H      0.113983   -1.731918   -0.801886
H      2.124546   -1.222034    1.740685
H      2.932469   -0.098099   -0.824972
H      2.223580    2.474389   -0.322820
H     -0.133140    2.221440    0.166582
H     -1.324413    0.291498    0.024352
12

C      0.322666   -1.117056    0.037448
C      1.629480   -0.970111    0.671104
C      2.262808   -0.012893   -0.184836
C      1.642504    1.399015   -0.228387
C      0.258324    1.442202    0.019084
C     -0.362122    0.195435    0.128359
H      0.294494   -1.629470   -0.886312
H      2.077115   -1.250548    1.660163
H      3.069700   -0.212146   -0.783107
H      2.236215    2.396846   -0.052491
H     -0.211122    2.330680   -0.009463
H     -1.365653    0.187986    0.200027
12

C      0.449661   -0.955858   -0.052774
C      1.817783   -1.006944    0.659736
C      2.203478    0.093931   -0.233161
C      1.741952    1.361399   -0.114149
C      0.329225    1.335687   -0.007776
C     -0.315873    0.192579    0.092453
H     -0.049170   -1.706936   -0.619357
H      1.912031   -1.286999    1.853408
H      3.005103    0.094506   -0.970744
H      2.197601    2.390690   -0.066180
H      0.012750    2.259344    0.073632
H     -1.450132   -0.011458   -0.043499
12

C      0.270981   -1.131240    0.079141
C      1.644085   -0.732441    0.354890
C      2.322500    0.045805   -0.614326
C      1.721506    1.202076   -0.196370
C      0.292252    1.265082    0.158690
C     -0.433523    0.139303    0.143037
H      0.211343   -2.006575   -0.388586
H      1.741297   -0.900958    1.439667
H      3.483968    0.083729   -0.606973
H      2.160195    2.186879    0.014884
H     -0.053018    2.286359    0.329668
H     -1.507175    0.321920   -0.142131
12

C      0.338206   -1.133049   -0.404112
C      1.472486   -0.778461    0.483162
C      2.418648    0.213880   -0.133803
C      1.773124    1.488158    0.001318
C      0.442757    1.250465    0.160780
C     -0.276782    0.107205   -0.220045
H     -0.189115   -1.995986   -0.260089
H      1.776894   -0.823180    1.502813
H      3.328292   -0.048791   -0.819501
H      2.382678    2.312251   -0.272296
H     -0.294850    2.025727    0.503067
H     -1.317929    0.141720    0.030295
12

C      0.241272   -1.009206   -0.068700
C      1.641549   -0.638691    0.518558
C      2.443201    0.075968   -0.443369
C      1.768025    1.335174   -0.243046
C      0.260462    1.226162    0.234372
C     -0.429546    0.044376    0.034421
H     -0.250798   -1.943501   -0.484905
H      2.040975   -0.780559    1.518058
H      3.425740    0.016782   -0.602387
H      2.427652    2.228173   -0.095286
H     -0.207274    2.084553    0.464803
H     -1.506848    0.120708   -0.260927
12

C      0.467397   -1.155249   -0.404059
C      1.613381   -0.739024    0.560008
C      2.455212    0.296040    0.009574
C      1.936447    1.583554   -0.129438
C      0.385302    1.300974    0.211983
C     -0.166444    0.016377   -0.183835
H     -0.395292   -1.852021   -0.232659
H      1.612945   -1.265218    1.504513
H      3.087995   -0.081209   -0.770659
H      2.295413    2.527832   -0.433729
H     -0.291658    2.225375    0.464917
H     -1.146287   -0.097491   -0.025025
12

C      0.297799   -1.047318   -0.003210
C      1.747364   -0.834251    0.498234
C      2.513630   -0.011713   -0.394927
C      1.697603    1.275680   -0.142520
C      0.238795    1.459267    0.236938
C     -0.473889    0.202968    0.090017
H      0.302806   -1.978404   -0.645150
H      1.740478   -0.895172    1.582322
H      3.383533   -0.221183   -0.878302
H      2.290961    2.181482   -0.055791
H     -0.374340    2.447471    0.280896
H     -1.510331    0.181114    0.003082
12

C      0.361329   -0.923443   -0.036828
C      1.579519   -0.565132    0.496686
C      2.489645    0.125420   -0.243757
C      1.728368    1.272150   -0.047558
C      0.353881    1.289115    0.211688
C     -0.393466    0.122465    0.093318
H      0.127814   -2.006817   -0.346776
H      1.713803   -0.999841    1.528508
H      3.141355   -0.070623   -1.022403
H      2.287736    2.208477   -0.144359
H     -0.084224    2.302263    0.442226
H     -1.451350    0.005907   -0.359156
12

C      0.428052   -1.102681   -0.455304
C      1.533694   -0.813440    0.496500
C      2.371602    0.189386   -0.200498
C      1.769826    1.454467   -0.086750
C      0.455526    1.392522    0.226442
C     -0.257582    0.079675   -0.131741
H     -0.085807   -2.113923   -0.398253
H      1.775641   -1.089428    1.681075
H      3.299809   -0.052192   -0.648637
H      2.179188    2.363732   -0.457119
H     -0.163811    2.267950    0.519343
H     -1.451727    0.183872    0.026530
12

C      0.370940   -1.133168   -0.322308
C      1.540642   -0.990610    0.466429
C      2.351207    0.243978   -0.021932
C      1.761395    1.486440   -0.091939
C      0.430728    1.434502    0.139292
C     -0.197232    0.106716   -0.005786
H      0.036352   -2.054049   -0.691348
H      1.513908   -0.942577    1.539241
H      3.251469    0.062927   -0.688950
H      2.252322    2.238188   -0.445923
H     -0.117659    2.270140    0.261494
H     -1.339663    0.037453    0.433319
12

C      0.385950   -1.093284   -0.641719
C      1.619573   -0.974923    0.179956
C      2.388971    0.323056    0.062376
C      1.702057    1.443747   -0.159521
C      0.355092    1.367107   -0.153496
C     -0.350656    0.024277    0.110007
H     -0.216731   -2.031503   -0.327914
H      1.429035   -1.367044    1.257377
H      3.375251    0.215805   -0.184469
H      2.119074    2.466982   -0.359481
H      0.074269    2.448213   -0.098646
H     -1.027474   -0.062493    0.887120
12

C      0.475939   -0.769640    0.023462
C      1.771240   -0.980205    0.784791
C      2.267885    0.024564   -0.019382
C      1.677208    1.283396   -0.112322
C      0.250068    1.456151    0.048979
C     -0.465912    0.305082   -0.048364
H      0.192313   -1.675930   -0.639298
H      2.263973   -1.547121    1.649446
H      2.909992   -0.171799   -0.834129
H      2.014447    2.340980   -0.254087
H     -0.020746    2.407314    0.121157
H     -1.481996    0.087149   -0.148664
12

C      0.478846   -0.821835   -0.083892
C      1.710922   -0.975526    0.809091
C      2.325750   -0.004909   -0.029349
C      1.703329    1.321672   -0.078878
C      0.250594    1.488554    0.005249
C     -0.406965    0.302482   -0.071758
H      0.294659   -1.735569   -0.486409
H      2.042537   -1.553617    1.555265
H      2.983581   -0.066280   -0.902365
H      2.162391    2.232751   -0.285701
H     -0.208736    2.551953    0.193509
H     -1.482496    0.020263   -0.053173
12

C      0.572181   -0.981978   -0.037326
C      1.769226   -0.877698    0.923289
C      2.352462    0.069165    0.000058
C      1.599709    1.405817   -0.037151
C      0.215596    1.447318    0.050225
C     -0.455458    0.265065   -0.039447
H      0.167597   -1.859256   -0.439557
H      2.232008   -1.692707    1.433015
H      2.924276   -0.107895   -0.962812
H      2.211787    2.319896   -0.181847
H     -0.114141    2.549674    0.045546
H     -1.620832    0.222538   -0.182402
12

C      0.430208   -0.843329    0.267411
C      1.664082   -1.006626    1.070685
C      2.097547    0.044768   -0.048304
C      1.576184    1.416124   -0.128002
C      0.149495    1.504106   -0.023280
C     -0.307232    0.241940    0.065834
H      0.330699   -1.644494   -0.554420
H      2.258679   -1.810231    0.928897
H      2.997486   -0.127119   -0.575960
H      2.387897    2.305585   -0.357979
H     -0.351253    2.518211    0.009898
H     -1.379384    0.161005   -0.083192
12

C      0.441372   -0.897331    0.249219
C      1.697368   -0.978296    1.078758
C      2.117644    0.024916   -0.014971
C      1.581343    1.460953   -0.081955
C      0.166614    1.492799   -0.008762
C     -0.279979    0.244429    0.059511
H      0.177148   -1.595195   -0.502013
H      2.279947   -1.884247    0.850181
H      3.127760   -0.001252   -0.540832
H      2.309155    2.220890   -0.398723
H     -0.363937    2.486278   -0.085181
H     -1.400025    0.185995   -0.033642
12

C      0.521228   -0.971017   -0.065027
C      1.559917   -0.801212    0.887503
C      2.206076    0.137899   -0.044129
C      1.667437    1.569029   -0.192197
C      0.335694    1.570186    0.052881
C     -0.368044    0.199325    0.150211
H      0.168497   -1.884155   -0.662255
H      2.214437   -1.575772    1.233684
H      3.020184   -0.477238   -0.661112
H      2.325687    2.415344   -0.220233
H     -0.437890    2.362906    0.085730
H     -1.358811    0.214645    0.006534
12

C      0.339506   -1.062274   -0.160074
C      1.769764   -1.117286    0.065367
C      2.553950    0.169854   -0.095806
C      1.792104    1.292968   -0.095226
C      0.410254    1.255588    0.136803
C     -0.379688    0.116674    0.145959
H     -0.214778   -1.902671   -0.098996
H      1.572194   -0.692232    1.075050
H      3.526754    0.212368   -0.418576
H      2.208909    2.223803   -0.298195
H     -0.237556    2.081984    0.342662
H     -1.487002    0.181165   -0.027378
12

C      0.315447   -1.083060   -0.184547
C      1.806096   -0.990329    0.088627
C      2.546579    0.179246   -0.151835
C      1.832015    1.344971   -0.097668
C      0.324402    1.290080    0.057487
C     -0.433475   -0.000401    0.176024
H     -0.087146   -2.059711   -0.585329
H      1.273205   -0.782916    1.094572
H      3.597361    0.127696   -0.213981
H      2.197815    2.343828   -0.372325
H     -0.095103    2.329674    0.072648
H     -1.422786    0.060861    0.687918
12

C      0.409314   -1.096171   -0.078961
C      1.672908   -0.856194    0.688297
C      2.247732    0.105173   -0.193518
C      1.703296    1.349939   -0.095734
C      0.375956    1.372898    0.080604
C     -0.307817    0.206249   -0.163468
H      0.262154   -1.872361   -0.722444
H      1.680061   -0.697103    1.697843
H      3.012555   -0.135899   -1.001337
H      2.400342    2.173047   -0.238426
H     -0.231009    1.945631    0.603431
H     -1.371082    0.264728   -0.004696
12

C      0.541597   -1.003247   -0.169123
C      1.776829   -0.954558    0.676888
C      2.316933    0.166451   -0.160569
C      1.727043    1.463642   -0.054024
C      0.341165    1.334733    0.064111
C     -0.322793    0.160194   -0.184367
H      0.118158   -1.957768   -0.683512
H      1.720671   -0.891291    1.811764
H      2.925854   -0.180672   -0.925486
H      2.379842    2.223811   -0.401456
H     -0.290470    2.109385    0.681282
H     -1.380417    0.289261   -0.083919
12

C      0.535060   -0.930156   -0.216582
C      1.760532   -1.074819    0.688689
C      2.366225    0.094889   -0.077408
C      1.777011    1.508679    0.025162
C      0.272433    1.402124    0.198998
C     -0.334883    0.178662   -0.054259
H      0.112396   -1.814170   -0.453525
H      1.830258   -1.325843    1.696432
H      2.899671   -0.212876   -0.957470
H      2.160225    2.486960   -0.403096
H     -0.108035    2.406340    0.313671
H     -1.416483    0.040151   -0.189023
12

C      0.262788   -1.117407   -0.215388
C      1.725924   -1.109561   -0.032165
C      2.522768    0.149556   -0.240967
C      1.780868    1.276806   -0.041214
C      0.318002    1.262027    0.040766
C     -0.403027    0.122233    0.165360
H     -0.197167   -1.959474   -0.011933
H      1.573092   -0.624768    0.936979
H      3.606197    0.249987   -0.264557
H      2.361549    2.261013   -0.128067
H     -0.221869    2.165394    0.184123
H     -1.474716    0.084132    0.178653
12

C      0.253899   -1.046620   -0.005724
C      1.726770   -1.118898    0.040942
C      2.558939    0.175226   -0.329102
C      1.768353    1.316484   -0.098987
C      0.407433    1.287080    0.075889
C     -0.411542    0.065463    0.223596
H     -0.189262   -2.162493   -0.167327
H      1.572933   -0.631083    1.060955
H      3.594082    0.238541   -0.578797
H      2.177621    2.214895    0.237294
H     -0.139133    2.205090   -0.088921
H     -1.465682    0.216256    0.201773
12

C      0.308890   -1.072346   -0.098772
C      1.723997   -1.182650    0.194353
C      2.412068    0.151561   -0.114569
C      1.775646    1.376646    0.042022
C      0.369430    1.346184    0.279345
C     -0.320860    0.070032    0.148917
H     -0.033997   -2.042141   -0.486187
H      1.502147   -0.714973    1.295507
H      3.421809    0.198273   -0.494251
H      2.251620    2.208756   -0.601645
H     -0.187204    2.261609    0.360321
H     -1.369135    0.158989    0.046549
12

C      0.454517   -1.104706   -0.393817
C      1.593439   -0.904843    0.566850
C      2.322767    0.257586   -0.145482
C      1.749092    1.537858   -0.080136
C      0.471719    1.437208    0.257573
C     -0.156608    0.124749   -0.126695
H     -0.238310   -1.930373   -0.234383
H      1.755431   -1.250944    1.617255
H      3.043041   -0.048281   -0.889094
H      2.326144    2.432872   -0.184940
H     -0.256865    2.313241    0.206190
H     -1.209958   -0.104427   -0.021730
12

C      0.232727   -1.033541    0.116563
C      1.585016   -0.868334    0.621345
C      2.381287   -0.132489   -0.353487
C      1.711495    1.287703   -0.178884
C      0.224008    1.469227   -0.016079
C     -0.545638    0.251392    0.153457
H      0.253999   -1.623158   -0.821409
H      2.366179   -1.033071    1.542785
H      3.356219   -0.246747   -0.688552
H      2.254404    2.218040    0.084469
H     -0.264739    2.471282    0.079323
H     -1.700545   -0.000364    0.032061
12

C      0.258567   -1.017130    0.130057
C      1.657604   -0.813580    0.628154
C      2.322689   -0.031052   -0.296471
C      1.713153    1.272180   -0.114477
C      0.204026    1.416299    0.051874
C     -0.517773    0.287079    0.164707
H      0.400174   -1.590218   -0.707734
H      2.154903   -1.144990    1.429628
H      3.294813   -0.315545   -0.765845
H      2.183935    2.211881   -0.012304
H     -0.224290    2.389212    0.088884
H     -1.593389    0.095805   -0.024882
12

C      0.545112   -0.922972    0.183131
C      1.753055   -0.882289    0.973969
C      2.230942    0.045056   -0.211701
C      1.516762    1.465229   -0.227918
C      0.203051    1.475378    0.081173
C     -0.467546    0.270402   -0.021234
H      0.167162   -1.605437   -0.511203
H      2.374597   -1.733248    1.134678
H      3.227364   -0.393164   -0.517955
H      2.064615    2.333023   -0.271109
H     -0.144541    2.536075    0.211946
H     -1.616162    0.171886   -0.252189
12

C      0.571283   -0.894634    0.167933
C      1.749929   -0.813911    0.943090
C      2.243235    0.052345   -0.249815
C      1.559738    1.464852   -0.262636
C      0.256687    1.528713    0.064017
C     -0.474464    0.264172    0.030720
H      0.108151   -1.685030   -0.500191
H      2.319543   -1.690741    1.073017
H      3.167078   -0.328279   -0.448487
H      2.201506    2.324314   -0.205552
H     -0.190831    2.435747    0.157573
H     -1.657445    0.102390   -0.198080
12

C      0.435221   -0.904810   -0.146354
C      1.730792   -0.844060    0.518323
C      2.410565    0.034470   -0.481903
C      1.692904    1.192037   -0.077527
C      0.223468    1.330141    0.002556
C     -0.425131    0.198024    0.006103
H     -0.125534   -1.663188   -0.409500
H      1.999689   -1.062648    1.487618
H      3.475305    0.141960   -0.593821
H      2.217798    2.038186    0.049022
H     -0.162427    2.324940    0.036978
H     -1.618240   -0.025113    0.180094
12

C      0.456932   -0.860029   -0.095726
C      1.743245   -0.814065    0.497563
C      2.391921    0.046318   -0.565672
C      1.680222    1.172884   -0.221454
C      0.194954    1.348121   -0.059411
C     -0.455802    0.166061    0.050949
H     -0.261751   -1.680191   -0.437210
H      2.209648   -1.115578    1.502841
H      3.420268    0.170516   -0.380473
H      2.313102    2.026167    0.121558
H     -0.216541    2.303372    0.060402
H     -1.621787   -0.003636    0.098222
12

C      0.332259   -1.179163   -0.286898
C      1.580246   -0.912840    0.549946
C      2.404329    0.336861    0.064368
C      1.727350    1.524268   -0.081632
C      0.488187    1.346866   -0.055914
C     -0.207592    0.048194    0.002234
H     -0.111881   -2.021110   -0.594638
H      1.633596   -1.377139    1.471757
H      3.124627    0.130279   -0.715130
H      2.340956    2.470609   -0.292065
H     -0.186318    2.297279   -0.035935
H     -1.271347    0.095837    0.545496
12

C      0.401552   -1.088112   -0.051366
C      1.842337   -0.959349    0.455031
C      2.488732    0.208550    0.215734
C      1.806275    1.442405    0.264466
C      0.421052    1.453527    0.066423
C     -0.303435    0.198194   -0.025969
H     -0.005478   -2.032643   -0.086911
H      2.086860   -1.666087    1.211536
H      2.333233    0.349450   -0.840693
H      2.232620    2.277205   -0.063680
H     -0.068694    2.293581   -0.466160
H     -1.380643    0.283219   -0.106823
12

C      0.254023   -1.021833    0.044469
C      1.707686   -1.149051    0.132772
C      2.391809    0.148799   -0.142647
C      1.754459    1.308379   -0.020331
C      0.349830    1.273209    0.093392
C     -0.443136    0.086438    0.233258
H     -0.101821   -1.806567   -0.435506
H      1.711975   -0.751364    1.204975
H      3.514881    0.237250   -0.498831
H      2.314852    2.223271   -0.255362
H     -0.148937    2.118402    0.090778
H     -1.451211    0.093006    0.124622
12

C      0.295406   -1.107552   -0.073299
C      1.705294   -1.149170    0.139305
C      2.473002    0.199926   -0.064847
C      1.809498    1.324474    0.047907
C      0.403720    1.263744    0.114893
C     -0.408858    0.079982    0.291328
H     -0.086851   -2.126871   -0.586989
H      1.702369   -0.761431    1.274119
H      3.373459    0.247211   -0.536081
H      2.226372    2.256505   -0.239157
H     -0.094176    2.328553   -0.085657
H     -1.544826    0.204569    0.290069
12

C      0.259520   -1.160203   -0.158294
C      1.674548   -1.073134    0.179765
C      2.460782    0.224707   -0.042945
C      1.756234    1.374517    0.037775
C      0.361034    1.304505    0.092788
C     -0.441316    0.109257    0.268179
H     -0.161409   -2.039904   -0.456178
H      1.763635   -1.079373    1.279518
H      3.575295    0.223731   -0.540280
H      2.167247    2.371251   -0.269238
H     -0.090185    2.262751   -0.157906
H     -1.470974    0.241835    0.338407
12

C      0.391272   -1.187815   -0.164250
C      1.925889   -1.127264    0.050333
C      2.522461    0.202131   -0.146801
C      1.839995    1.410722    0.061748
C      0.369711    1.273851    0.108048
C     -0.327761    0.049720    0.281403
H     -0.493307   -2.017633   -0.367915
H      1.606326   -0.996262    1.330996
H      3.514772    0.313271   -0.537682
H      2.243969    2.406816   -0.130421
H     -0.267670    2.225414   -0.268455
H     -1.471246    0.206989    0.354587
12

C      0.225962   -1.099950   -0.151241
C      1.834125   -1.112029    0.040651
C      2.452145    0.185405   -0.159511
C      1.784576    1.392573    0.056317
C      0.328926    1.310056    0.135677
C     -0.332552    0.073964    0.251440
H     -0.349279   -1.835323   -0.299838
H      1.566405   -0.813355    1.193183
H      3.586490    0.267259   -0.465232
H      2.392157    2.286609   -0.237348
H     -0.290105    2.087853   -0.062405
H     -1.344441    0.016877    0.269897
12

C      0.382637   -1.143575   -0.157869
C      1.849028   -1.103784    0.211760
C      2.528640    0.114085   -0.222927
C      1.800851    1.363213   -0.156454
C      0.324883    1.277262    0.146963
C     -0.378555    0.027065    0.143541
H     -0.032067   -2.137903   -0.358309
H      1.248316   -0.773183    1.277244
H      3.562328    0.160610   -0.583451
H      2.110100    2.349217   -0.272525
H     -0.147741    2.301446    0.311741
H     -1.394010    0.325486    0.231874
12

C      0.527712   -1.158024   -0.081305
C      1.648908   -0.971777    0.697696
C      2.239638    0.205516   -0.115280
C      1.748738    1.515648    0.018945
C      0.351914    1.502010    0.179824
C     -0.236674    0.213133    0.159834
H      0.251284   -2.025208   -0.656390
H      1.838610   -1.128735    1.627443
H      2.646233   -0.175553   -1.030861
H      2.429934    2.182551   -0.246955
H     -0.406063    2.333140    0.247318
H     -1.185823    0.267239   -0.228680
12

C      0.392280   -1.093944   -0.137580
C      1.638597   -1.022289    0.827319
C      2.378231    0.088773   -0.074144
C      1.801845    1.451724    0.018374
C      0.318457    1.500771    0.115057
C     -0.278554    0.208196    0.022048
H     -0.031018   -1.876561   -0.769927
H      2.093438   -1.259111    1.814371
H      2.800047   -0.045132   -1.049321
H      2.290491    2.356552   -0.215858
H     -0.287352    2.439010    0.076264
H     -1.262051    0.011949   -0.055012
12

C      0.301447   -1.164997    0.283290
C      1.697182   -1.018699    0.553568
C      2.445661    0.073548   -0.231038
C      1.629286    1.282087   -0.190001
C      0.196579    1.327219   -0.129900
C     -0.393249    0.171076    0.114839
H      0.259857   -1.206077   -0.876024
H      1.996719   -1.554458    1.558127
H      3.432549   -0.093340   -0.455780
H      1.963161    2.390535   -0.426733
H     -0.103551    2.360105    0.141925
H     -1.571232    0.192941    0.229318
12

C      0.480331   -1.080432   -0.417936
C      1.640931   -0.923452    0.537433
C      2.366096    0.245934   -0.012368
C      1.809253    1.490244    0.045010
C      0.420950    1.409397    0.236539
C     -0.172253    0.143028   -0.201738
H     -0.052297   -2.097518   -0.616555
H      1.643774   -1.075849    1.660619
H      3.018292   -0.077019   -0.777363
H      2.160804    2.265695   -0.448938
H     -0.203068    2.371059    0.230868
H     -1.258401    0.088852    0.336020
12

C      0.554880   -1.110426   -0.387679
C      1.688910   -0.976038    0.450223
C      2.362772    0.215156    0.007500
C      1.850538    1.531767   -0.047540
C      0.515628    1.429751    0.273591
C     -0.143988    0.158380   -0.025352
H     -0.110282   -1.943558   -0.366807
H      1.531080   -1.309347    1.744339
H      2.905237    0.019605   -0.876014
H      2.175804    2.478326   -0.464155
H     -0.153674    2.346271    0.269686
H     -1.322495   -0.079949   -0.006203
12

C      0.445258   -1.162102   -0.344600
C      1.551003   -0.784101    0.384305
C      2.507092    0.198545   -0.170948
C      1.832225    1.473914   -0.111322
C      0.539852    1.291389    0.390243
C     -0.273572    0.167423   -0.018398
H     -0.153792   -2.176061   -0.363885
H      1.563349   -0.891173    1.657485
H      3.269561   -0.042644   -0.856156
H      2.116692    2.399415   -0.343122
H     -0.054703    2.278637    0.482596
H     -1.488556    0.006696   -0.134607
12

C      0.382246   -0.966107    0.230637
C      1.736812   -1.004638    0.606497
C      2.296335   -0.089703   -0.357898
C      1.600573    1.194507   -0.237351
C      0.276501    1.393358    0.198327
C     -0.538785    0.306155    0.195985
H      0.245369   -1.532726   -0.799397
H      2.226469   -1.184054    1.764768
H      3.265384    0.025051   -0.712511
H      2.067728    2.058865   -0.243793
H     -0.093546    2.471360    0.263717
H     -1.610676    0.087873   -0.337390
12

C      0.379109   -0.964204    0.297574
C      1.732425   -0.986899    0.690783
C      2.282323   -0.057293   -0.289628
C      1.532844    1.172088   -0.178620
C      0.195528    1.399872    0.166056
C     -0.587649    0.254172    0.222535
H      0.312277   -1.454870   -0.755551
H      2.067406   -1.184055    1.521891
H      3.296704    0.022395   -0.766884
H      2.193818    2.078495   -0.303187
H     -0.120802    2.361782    0.252460
H     -1.429572    0.118458   -0.285838
12

C      0.510313   -1.092390   -0.259215
C      1.664807   -0.861121    0.595458
C      2.469905    0.229841   -0.053103
C      1.786050    1.481885   -0.096099
C      0.385820    1.394733   -0.005166
C     -0.231184    0.163616   -0.080062
H     -0.167391   -1.913945   -0.691283
H      1.893130   -0.958627    1.869891
H      2.885786   -0.269844   -0.960962
H      2.175097    2.382692   -0.173321
H     -0.075627    2.226861    0.458041
H     -1.442295   -0.023761   -0.032588
12

C      0.472379   -1.193932   -0.262659
C      1.519572   -0.767874    0.539940
C      2.296226    0.215959   -0.212284
C      1.762633    1.444237   -0.077600
C      0.407000    1.389965    0.322718
C     -0.217320   -0.002897   -0.040582
H     -0.172590   -1.926629   -0.425977
H      1.748120   -0.961876    1.457170
H      3.257005   -0.056920   -0.661140
H      2.309647    2.359111   -0.437427
H     -0.134361    2.215374    0.476103
H     -1.393902    0.045421   -0.106673
12

C      0.418351   -1.160765   -0.331533
C      1.598914   -0.821904    0.456847
C      2.305478    0.277844   -0.282340
C      1.814638    1.586055   -0.148348
C      0.478461    1.448423    0.281613
C     -0.184914    0.085420   -0.026176
H     -0.112934   -2.198621   -0.502642
H      1.565050   -1.133833    1.603951
H      3.190478   -0.140391   -0.655195
H      2.320422    2.456062   -0.288889
H     -0.249772    2.350580    0.281769
H     -1.289763    0.011068    0.182531
12

C      0.330409   -1.087206    0.023635
C      1.642166   -0.722163    0.506473
C      2.433208   -0.023504   -0.466954
C      1.687961    1.315074   -0.219188
C      0.387748    1.294995    0.157011
C     -0.397924    0.108402    0.137099
H      0.041029   -1.953449   -0.656019
H      1.761435   -0.666676    1.565426
H      3.462450    0.036788   -0.709265
H      2.312913    2.109176   -0.162925
H     -0.178063    2.214273    0.558150
H     -1.628921    0.134228   -0.161852
12

C      0.447777   -1.107453   -0.278038
C      1.780492   -1.107254    0.649845
C      2.307309    0.152806   -0.094005
C      1.680913    1.476606    0.005674
C      0.282473    1.404238    0.114484
C     -0.268733    0.166712   -0.133414
H      0.137707   -1.891572   -0.797375
H      1.615762   -1.056460    1.894368
H      2.947465   -0.051249   -0.973207
H      2.414794    2.327925   -0.383616
H     -0.293413    2.258413    0.250058
H     -1.198135    0.187228    0.316815
12

C      0.424106   -1.073421   -0.052035
C      1.883307   -1.177928    0.243963
C      2.425793    0.183324   -0.224633
C      1.754103    1.257671   -0.066925
C      0.391595    1.295750    0.325467
C     -0.370084    0.079490    0.148177
H     -0.225603   -1.933755   -0.362359
H      1.637385   -0.649989    1.248672
H      3.491493    0.261212   -0.568787
H      2.250231    2.096194   -0.267498
H     -0.296743    2.076920    0.183811
H     -1.511173    0.344473   -0.036263
12

C      0.258554   -1.044819   -0.039391
C      1.766556   -1.182250    0.221896
C      2.473429    0.077360   -0.212446
C      1.808968    1.251007    0.008345
C      0.448544    1.333580    0.324080
C     -0.382584    0.129608    0.095927
H     -0.261059   -1.895388   -0.298969
H      1.814686   -0.517358    1.058161
H      3.487253    0.186586   -0.304678
H      2.336830    2.171409   -0.499868
H     -0.468772    2.059122    0.446244
H     -1.427995    0.191083   -0.227710
12

C      0.378455   -0.865227    0.167528
C      1.704686   -0.764746    1.053558
C      2.180068    0.083249   -0.045826
C      1.699248    1.463488   -0.196805
C      0.190566    1.533699   -0.064269
C     -0.447184    0.394979    0.016450
H      0.271217   -1.824136   -0.492439
H      2.110152   -1.644056    0.862582
H      3.059397   -0.229140   -0.634502
H      2.356356    2.237025   -0.184820
H     -0.211968    2.529273    0.119176
H     -1.436582   -0.154467   -0.029044
12

C      0.336592   -0.884622    0.272530
C      1.701052   -0.858283    0.717395
C      2.381239    0.037716   -0.315937
C      1.643208    1.273494   -0.164482
C      0.064570    1.422997   -0.102330
C     -0.517733    0.238765    0.200380
H      0.297466   -1.346367   -0.712928
H      2.361021   -1.389791    1.369464
H      3.207340   -0.244603   -0.696360
H      2.375013    2.067087    0.090621
H     -0.334874    2.462612   -0.066733
H     -1.660484   -0.019066   -0.020031
12

C      0.291828   -0.789904    0.201387
C      1.749006   -0.892612    0.572343
C      2.346622    0.041838   -0.387350
C      1.667408    1.313301   -0.062288
C     -0.005728    1.396128   -0.036314
C     -0.527560    0.227270    0.191659
H      0.255395   -1.368789   -0.692464
H      2.099901   -1.407270    1.519896
H      3.454190   -0.226240   -0.800114
H      2.306717    2.128960    0.062616
H     -0.294374    2.384865   -0.186240
H     -1.488995   -0.047608    0.188459
12

C      0.275521   -1.109780   -0.096588
C      1.789985   -1.033081    0.339209
C      2.510948    0.254168   -0.176625
C      1.734782    1.432454   -0.094877
C      0.365723    1.273101    0.150263
C     -0.368144    0.105944   -0.013785
H     -0.291344   -2.059818   -0.252565
H      1.640370   -1.073134    1.356460
H      3.530349    0.324896   -0.486096
H      2.305906    2.310621   -0.541189
H     -0.114871    2.193674    0.504761
H     -1.524814    0.140895   -0.117377
12

C      0.404654   -0.915500   -0.080325
C      1.672866   -1.007014    0.627178
C      2.110165    0.083620   -0.279123
C      1.661837    1.383392   -0.125814
C      0.289815    1.543801   -0.108479
C     -0.451043    0.289552   -0.091053
H      0.215413   -1.903538   -0.585214
H      2.278356   -1.332911    1.598232
H      3.070353   -0.021442   -0.693226
H      2.344722    2.073837    0.140033
H     -0.216381    2.477692   -0.090448
H     -1.526348    0.088449    0.259829
12

C      0.446869   -1.082072   -0.258431
C      1.613728   -0.842923    0.770632
C      2.278510    0.124832   -0.114310
C      1.715436    1.461585   -0.230181
C      0.331451    1.508676   -0.033924
C     -0.364269    0.150681   -0.068989
H      0.062255   -2.084837   -0.599715
H      1.835472   -1.509770    1.606309
H      3.179093   -0.014479   -0.789423
H      2.282444    2.411409   -0.194079
H     -0.270254    2.429138    0.147197
H     -1.256324    0.207700    0.336505
12

C      0.332423   -1.116132   -0.142018
C      1.786273   -1.194078    0.264190
C      2.512530    0.083506   -0.146837
C      1.718111    1.316751   -0.234568
C      0.352310    1.252207    0.223551
C     -0.319849    0.097156    0.165382
H     -0.392297   -1.762223   -0.627795
H      1.579242   -0.606942    1.233182
H      3.601745    0.282423   -0.121478
H      2.129788    2.225854   -0.667639
H     -0.145415    2.132233    0.466249
H     -1.300451    0.049185    0.159370
12

C      0.343262   -0.931495    0.127115
C      1.667000   -0.925731    0.936856
C      2.225974    0.024299   -0.060493
C      1.703136    1.375376   -0.136310
C      0.230994    1.579892   -0.167073
C     -0.417598    0.394740    0.165300
H      0.431403   -1.607254   -0.630542
H      2.174039   -1.833985    1.165047
H      3.129548   -0.106626   -0.710794
H      2.240918    2.243891   -0.130310
H     -0.383353    2.383751   -0.217482
H     -1.490910    0.163083    0.230276
12

C      0.279939   -1.052742    0.003740
C      1.844834   -1.209687    0.140868
C      2.500531    0.178478   -0.148803
C      1.873610    1.296557    0.060806
C      0.453783    1.250930    0.130519
C     -0.392969    0.113567    0.258705
H     -0.317995   -1.853313   -0.403802
H      1.679703   -0.823651    1.248082
H      3.485531    0.270388   -0.492597
H      2.095135    2.343996   -0.310734
H     -0.145263    2.146902    0.030171
H     -1.502427    0.098513    0.054636
12

C      0.356018   -1.110144    0.015073
C      1.730704   -1.058548    0.143826
C      2.425217    0.122031   -0.195087
C      1.721942    1.325202   -0.048237
C      0.278808    1.255678    0.206114
C     -0.339274   -0.000201    0.177027
H     -0.094493   -1.994343   -0.398103
H      1.670632   -0.605781    1.224286
H      3.406702    0.035754   -0.683634
H      2.309460    2.285416   -0.021261
H     -0.200324    2.234299    0.088344
H     -1.410981    0.270577    0.063242
12

C      0.331938   -1.054466   -0.044311
C      1.744537   -1.082788    0.128167
C      2.385556    0.168663   -0.192465
C      1.776927    1.353562   -0.064643
C      0.311755    1.336821    0.205568
C     -0.362384    0.040388    0.057860
H     -0.140815   -2.002836   -0.266973
H      1.635717   -0.530824    1.043757
H      3.441815    0.012338   -0.513840
H      2.351374    2.202698   -0.079541
H     -0.224887    2.250567    0.218699
H     -1.397123    0.065818    0.079312
12

C      0.347113   -1.134285   -0.098355
C      1.773788   -1.130527    0.182948
C      2.408339    0.122818   -0.200675
C      1.830316    1.319980   -0.194258
C      0.407442    1.352496    0.163034
C     -0.373092    0.088495   -0.069079
H     -0.170434   -2.075488   -0.279051
H      1.554074   -0.498307    1.151582
H      3.423832    0.094793   -0.399153
H      2.292135    2.359476   -0.245612
H     -0.123035    2.233162    0.534436
H     -1.516067    0.027326    0.025774
12

C      0.283023   -1.137334   -0.115779
C      1.803182   -1.138999    0.197963
C      2.435337    0.190736   -0.216416
C      1.820646    1.368627   -0.151935
C      0.413433    1.325865    0.172414
C     -0.405336    0.119417   -0.045303
H     -0.237385   -2.025800   -0.336418
H      1.392480   -0.517281    1.379244
H      3.505969    0.279089   -0.529562
H      2.316804    2.230505   -0.411600
H     -0.065523    2.140570    0.648609
H     -1.408221   -0.075455   -0.019626
12

C      0.471893   -0.948606   -0.017738
C      1.732375   -1.101783    0.721258
C      2.336937    0.087936    0.067429
C      1.623666    1.377174    0.064360
C      0.278385    1.522562    0.120962
C     -0.324547    0.234576    0.189139
H     -0.044387   -1.641433   -0.703033
H      2.125995   -1.437336    1.657008
H      2.770075    0.176133   -0.956623
H      2.313004    2.159572   -0.326495
H     -0.115436    2.531201   -0.131434
H     -1.313550   -0.200054   -0.113243
12

C      0.434349   -0.967248    0.143969
C      1.744328   -0.981467    0.755459
C      2.319410    0.059579   -0.232638
C      1.577271    1.355831   -0.160434
C      0.243882    1.412883    0.068492
C     -0.468337    0.178496    0.278638
H      0.404325   -1.413227   -0.839636
H      2.031988   -1.569654    1.584732
H      3.271416   -0.123886   -0.701269
H      2.146224    2.146798   -0.400110
H     -0.274834    2.354973    0.082840
H     -1.575610    0.306860   -0.008452
12

C      0.392061   -1.015384    0.151899
C      1.726104   -1.057319    0.783555
C      2.274322    0.083408   -0.170946
C      1.623379    1.418163   -0.031512
C      0.272334    1.373822    0.112686
C     -0.591646    0.145787    0.198402
H      0.402008   -1.559338   -0.912720
H      2.176366   -1.568261    1.675712
H      3.134494   -0.045497   -0.793429
H      2.184168    2.275984   -0.380291
H     -0.043943    2.448543   -0.079643
H     -1.695235    0.260030    0.017876
12

C      0.389435   -1.066501    0.146312
C      1.777490   -0.954658    0.735470
C      2.214143   -0.010591   -0.255395
C      1.620394    1.321034   -0.184347
C      0.240287    1.368834    0.041532
C     -0.497621    0.225143    0.238811
H      0.444853   -1.617505   -0.836818
H      2.068951   -1.516128    1.591064
H      3.174534    0.021091   -0.753356
H      2.257378    2.223446   -0.155467
H     -0.303875    2.202895   -0.142465
H     -1.531557    0.562879    0.146248
12

C      0.315704   -1.016461   -0.058663
C      1.848036   -1.144816    0.187142
C      2.495022    0.101249   -0.233612
C      1.803185    1.264725   -0.070381
C      0.388346    1.428631    0.127869
C     -0.314941    0.125816    0.076285
H     -0.083640   -2.017084   -0.314004
H      1.386650   -0.716607    1.237754
H      3.484727    0.175456   -0.692777
H      2.306581    2.221544   -0.062000
H     -0.390978    2.277827    0.112684
H     -1.384283    0.059661    0.261292
12

C      0.290126   -1.012781   -0.090925
C      1.684171   -0.773716    0.512208
C      2.377097    0.128527   -0.525848
C      1.742015    1.315603   -0.181186
C      0.305383    1.360628   -0.000638
C     -0.402907    0.080116    0.088443
H     -0.047827   -1.789869   -0.625041
H      1.837790   -0.888628    1.618534
H      3.447475   -0.058633   -0.758915
H      2.299667    2.133163    0.203242
H     -0.244996    2.238695    0.087294
H     -1.433582    0.026836    0.244421
12

C      0.288471   -1.048107    0.323060
C      1.650579   -0.944558    0.607267
C      2.402907    0.016392   -0.220901
C      1.561362    1.138015   -0.156384
C      0.285004    1.303367    0.242883
C     -0.481870    0.208761    0.175018
H      0.276223   -1.308866   -0.857070
H      2.119316   -1.205764    1.503231
H      3.330991    0.020807   -0.621740
H      1.922044    2.113694   -0.402037
H      0.067452    2.350383    0.139471
H     -1.568069    0.115816   -0.161209
12

C      0.436966   -0.966875    0.013578
C      1.771383   -0.903216    0.687298
C      2.273499    0.048702   -0.236548
C      1.721909    1.427468   -0.070129
C      0.300081    1.371163    0.058076
C     -0.515323    0.165808    0.173152
H      0.534249   -1.547082   -0.779717
H      1.924182   -1.470647    1.587373
H      3.116511   -0.352340   -0.727211
H      2.251442    2.384953   -0.336783
H     -0.344102    2.222170    0.100134
H     -1.616386    0.379835    0.102368
12

C      0.447788   -0.898677    0.015047
C      1.784590   -1.003707    0.729622
C      2.295075    0.153835   -0.054299
C      1.705820    1.429359    0.069722
C      0.255310    1.500507    0.131541
C     -0.433484    0.173068    0.244683
H      0.227246   -1.501444   -0.880622
H      2.053623   -1.429030    1.683274
H      2.882315   -0.174267   -0.912961
H      2.317106    2.166824   -0.360233
H     -0.240226    2.394448   -0.088796
H     -1.440751   -0.050977   -0.005389
12

C      0.227364   -1.031050    0.308635
C      1.671504   -0.949510    0.648907
C      2.419731    0.042143   -0.044110
C      1.626839    1.233609   -0.164375
C      0.262203    1.436185    0.067170
C     -0.584337    0.175474    0.107461
H      0.633647   -1.148857   -0.907581
H      1.956217   -1.487964    1.410282
H      3.383377   -0.113344   -0.670567
H      2.325033    2.105470   -0.506318
H     -0.422604    2.408813    0.097611
H     -1.644563    0.088971    0.224474
12

C      0.267332   -1.042534   -0.227694
C      1.631957   -0.979091    0.130108
C      2.484533    0.096613   -0.056241
C      1.723213    1.268520   -0.230127
C      0.346535    1.335552    0.226449
C     -0.402653    0.079685    0.163374
H     -0.017833   -1.939812   -0.818703
H      1.675274   -0.544714    1.152867
H      3.539576    0.004283   -0.002899
H      2.329413    2.192208   -0.586439
H     -0.237558    2.218272    0.301339
H     -1.485379    0.070956    0.519553
12

C      0.297261   -1.073117   -0.019660
C      1.793263   -1.100028    0.205509
C      2.475061    0.173270   -0.044570
C      1.880519    1.392711   -0.116230
C      0.368518    1.299152    0.179073
C     -0.427599    0.135886    0.082834
H     -0.064801   -1.987359   -0.688080
H      1.483632   -0.739527    1.278758
H      3.466499    0.118052   -0.456963
H      2.336601    2.253756   -0.451073
H     -0.336602    2.133268    0.214748
H     -1.417942    0.153875    0.387243
12

C      0.420248   -1.166482   -0.189820
C      1.689886   -0.946359    0.561793
C      2.206895    0.179966   -0.147431
C      1.716756    1.458889   -0.001833
C      0.283633    1.483643    0.000942
C     -0.264297    0.097211   -0.201600
H      0.054257   -2.152328   -0.576337
H      1.746155   -1.022082    1.630654
H      3.038877   -0.018979   -0.897929
H      2.498602    2.319906   -0.131838
H     -0.233641    2.366720    0.249624
H     -1.302962    0.159835    0.275365
12

C      0.297497   -1.093240   -0.133465
C      1.687591   -1.114336   -0.023591
C      2.491865    0.141257   -0.227434
C      1.781788    1.351106    0.004116
C      0.273479    1.310419    0.020404
C     -0.335664    0.086589    0.283367
H     -0.465915   -1.898076   -0.347102
H      1.856478   -0.676811    1.122756
H      3.535381    0.227253   -0.352759
H      2.444705    2.342427    0.109220
H     -0.245835    2.066438   -0.305105
H     -1.466960    0.016915    0.421183
12

C      0.329915   -1.070173   -0.184188
C      1.677930   -1.058867   -0.048348
C      2.470453    0.134994   -0.231838
C      1.788278    1.295474    0.096566
C      0.346591    1.334514    0.130014
C     -0.392888    0.096687    0.272427
H     -0.360009   -1.794782   -0.380900
H      1.903795   -0.643708    1.200301
H      3.524152    0.126043   -0.439734
H      2.298119    2.154929    0.118822
H     -0.302568    2.183764   -0.374102
H     -1.429359    0.001065    0.412570
12

C      0.332652   -1.208257   -0.133154
C      1.607295   -0.939064    0.688553
C      2.324683    0.203318   -0.066459
C      1.745080    1.463492    0.007950
C      0.458767    1.480453    0.046878
C     -0.212328    0.163774   -0.110255
H     -0.030355   -1.858275   -0.799092
H      1.930655   -1.034623    1.667967
H      2.958520   -0.169285   -0.904746
H      2.287690    2.333230   -0.212309
H     -0.356416    2.177210    0.182253
H     -1.191833    0.147966    0.204003
12

C      0.314371   -1.136694    0.002286
C      1.827585   -1.147132    0.248294
C      2.435303    0.142840   -0.249588
C      1.701095    1.416363   -0.113865
C      0.341193    1.292137    0.213651
C     -0.466890    0.105386    0.115777
H     -0.030312   -1.922979   -0.589059
H      1.564639   -0.625250    1.356783
H      3.438598    0.161019   -0.539025
H      2.393334    2.179227   -0.277663
H     -0.164426    2.120892    0.244045
H     -1.500082    0.174130    0.159954
12

C      0.324059   -1.128785   -0.047402
C      1.834925   -1.164720    0.189255
C      2.428773    0.098705   -0.233776
C      1.707773    1.299094   -0.098845
C      0.387985    1.249210    0.257283
C     -0.429242    0.080838    0.197140
H     -0.145487   -2.022016   -0.484022
H      1.645062   -0.648076    1.164653
H      3.517857    0.270988   -0.266242
H      2.415040    2.259969   -0.464259
H     -0.264122    2.231182    0.291861
H     -1.568212    0.233551    0.065944
12

C      0.340781   -1.022405   -0.190686
C      1.722999   -1.017864    0.133238
C      2.594113    0.185901   -0.008857
C      1.674205    1.396459   -0.229146
C      0.321850    1.271198    0.081838
C     -0.388980    0.111244    0.231550
H     -0.207417   -1.881627   -0.710544
H      1.471463   -0.749732    1.161646
H      3.622186    0.086859   -0.164795
H      2.216746    2.214905   -0.507917
H     -0.142130    2.122719    0.203967
H     -1.371405    0.042283    0.571295
12

C      0.339142   -1.018223   -0.038208
C      1.772812   -1.103704    0.195488
C      2.475471    0.136417   -0.060367
C      1.767004    1.419710   -0.074119
C      0.351212    1.226489    0.225317
C     -0.410784    0.099751    0.108960
H     -0.013287   -1.787733   -0.592488
H      1.468453   -0.775099    1.345608
H      3.467371    0.141709   -0.546536
H      2.483576    2.233255   -0.512660
H     -0.307793    2.198722    0.264693
H     -1.538767   -0.011354    0.255902
12

C      0.368951   -1.117457   -0.439921
C      1.577800   -0.985442    0.258554
C      2.414351    0.136166   -0.176495
C      1.834919    1.484110    0.051695
C      0.414451    1.421636    0.184367
C     -0.130777    0.105671    0.001914
H     -0.416170   -2.013782    0.006738
H      1.496663   -1.060387    1.278520
H      3.319633    0.153542   -0.715596
H      2.325432    2.570176   -0.088873
H     -0.264605    2.274691   -0.035563
H     -1.086239   -0.208984    0.246249
12

C      0.470689   -1.018194   -0.139116
C      1.631509   -0.892456    0.816215
C      2.324537    0.174056   -0.023292
C      1.569691    1.416336   -0.250993
C      0.275306    1.567936   -0.006449
C     -0.343754    0.189639   -0.132401
H      0.223904   -2.024100   -0.673139
H      2.097775   -1.337876    1.595778
H      2.823513   -0.206963   -0.869679
H      2.313479    2.207078   -0.058383
H     -0.179771    2.512513    0.211739
H     -1.352469    0.171971    0.101311
12

C      0.545275   -1.030949    0.022945
C      1.679983   -0.865926    0.871004
C      2.162101    0.092857   -0.085459
C      1.634298    1.415872    0.019996
C      0.246371    1.525247   -0.078437
C     -0.469639    0.312149   -0.038393
H      0.143095   -2.050924   -0.135781
H      2.409385   -1.633812    1.038276
H      2.875231    0.014363   -0.903458
H      2.363621    2.154998    0.244052
H     -0.178469    2.646216   -0.226994
H     -1.556842    0.179848   -0.156161
12

C      0.381053   -1.144891    0.085010
C      1.773219   -0.997164    0.772950
C      2.374567    0.110107   -0.118238
C      1.693049    1.459659   -0.058145
C      0.367455    1.469456    0.158486
C     -0.389147    0.290366    0.027002
H      0.179849   -1.777541   -0.850315
H      2.084955   -1.477184    1.738584
H      2.914219   -0.214626   -1.047977
H      2.203756    2.470069   -0.034866
H     -0.284018    2.314099   -0.230409
H     -1.444545    0.257590    0.129506
12

C      0.208934   -1.129791   -0.536239
C      1.583999   -0.919005    0.292203
C      2.452180    0.185523   -0.107794
C      1.844417    1.507478   -0.080783
C      0.419425    1.361260   -0.092893
C     -0.378398    0.147550   -0.023799
H     -0.226593   -2.060100   -0.413423
H      1.590226   -1.122972    1.353590
H      3.447356    0.028498   -0.392880
H      2.119827    2.500227   -0.152053
H     -0.219261    2.208409   -0.066499
H     -0.987700    0.052863    0.792159
12

C      0.337735   -1.119943   -0.406342
C      1.632199   -0.899948    0.578327
C      2.386307    0.275657   -0.203857
C      1.826035    1.557739   -0.067794
C      0.413276    1.432226   -0.020662
C     -0.171181    0.080620    0.176429
H     -0.354131   -1.881692   -0.644225
H      1.677447   -1.522211    1.437511
H      3.472847    0.120635   -0.290068
H      2.196647    2.442211   -0.560828
H     -0.330906    2.253577    0.005444
H     -1.231864    0.021068    0.567656
12

C      0.343145   -1.081334   -0.359221
C      1.611383   -0.840384    0.510136
C      2.385029    0.313086   -0.145934
C      1.709552    1.562382   -0.049245
C      0.373199    1.510091   -0.014385
C     -0.224602    0.080888    0.125653
H     -0.272121   -1.917863   -0.720051
H      1.733395   -1.402797    1.427501
H      3.379910   -0.135352   -0.387635
H      2.302967    2.454839   -0.397456
H     -0.306409    2.285459   -0.050140
H     -1.181038   -0.069074    0.632366
12

C      0.253278   -1.103449    0.118019
C      1.724369   -0.931969    0.599543
C      2.437286   -0.040842   -0.285268
C      1.615907    1.181787   -0.245009
C      0.255750    1.391248    0.127502
C     -0.572552    0.132905    0.087153
H      0.343967   -1.456977   -0.972817
H      2.014776   -1.119368    1.589227
H      3.547872   -0.154202   -0.458554
H      1.988992    2.217091   -0.467233
H     -0.154380    2.347171    0.343410
H     -1.600854    0.296543    0.135618
12

C      0.282007   -1.083851    0.186709
C      1.670401   -0.964336    0.692578
C      2.313872   -0.116935   -0.305062
C      1.501208    1.179050   -0.190321
C      0.223498    1.364248    0.170812
C     -0.575511    0.205313    0.083322
H      0.486490   -1.509307   -0.836954
H      2.091031   -1.062403    1.643623
H      3.356338    0.039676   -0.818967
H      2.188811    2.024800   -0.212182
H     -0.103445    2.429289    0.217828
H     -1.580290    0.254396   -0.059796
12

C      0.386525   -0.937879    0.135117
C      1.727695   -0.916507    0.668792
C      2.229477    0.045981   -0.338299
C      1.638205    1.280824   -0.168274
C      0.205267    1.398206    0.185444
C     -0.460789    0.284005    0.111129
H      0.185675   -1.659193   -0.636298
H      2.152216   -1.195433    1.667953
H      3.129094   -0.004173   -0.838241
H      2.367051    2.042442   -0.134909
H     -0.229275    2.374876    0.224118
H     -1.476728    0.046790   -0.304941
12

C      0.271414   -1.131183   -0.075977
C      1.838024   -1.086720    0.065991
C      2.534182    0.196435   -0.348038
C      1.801825    1.378460   -0.134557
C      0.424707    1.201412    0.129622
C     -0.368500    0.084005   -0.041010
H     -0.274635   -1.990054   -0.239106
H      1.421812   -0.534514    1.313763
H      3.566626   -0.013401   -0.462543
H      2.143899    2.436849   -0.193893
H     -0.143805    2.109987    0.551924
H     -1.361138    0.108664    0.005414
12

C      0.328961   -1.142933   -0.094941
C      1.769398   -1.162005    0.004034
C      2.569416    0.172523   -0.300760
C      1.823663    1.352837    0.158113
C      0.246742    1.409812    0.211450
C     -0.355837    0.048391    0.068878
H     -0.415613   -2.066108    0.005346
H      1.720573   -0.635376    0.982171
H      3.613187   -0.031795   -0.479158
H      2.359667    2.423945   -0.092147
H     -0.410051    2.315337    0.168091
H     -1.395696    0.075310   -0.059487
12

C      0.343167   -1.145867   -0.050719
C      1.771478   -1.054964    0.091660
C      2.528448    0.099951   -0.106062
C      1.840127    1.338628   -0.051064
C      0.301491    1.324232    0.070578
C     -0.339115    0.095152    0.184629
H     -0.159009   -2.114026   -0.426170
H      1.426733   -0.875011    1.191409
H      3.572477    0.119548   -0.516006
H      2.143866    2.479435   -0.260547
H     -0.173182    2.320044    0.104908
H     -1.402068    0.172818    0.338974
12

C      0.270059   -1.032441    0.153934
C      1.640430   -0.860104    0.551095
C      2.532292   -0.044906   -0.179448
C      1.641999    1.216659   -0.161402
C      0.308782    1.299750    0.355351
C     -0.579466    0.145360    0.201502
H      0.306928   -1.465356   -0.724297
H      1.973074   -0.995700    1.596534
H      3.355652   -0.066260   -0.886019
H      2.201911    2.122493   -0.344770
H     -0.258012    2.272088    0.295682
H     -1.539241    0.168357   -0.286573
12

C      0.332780   -0.966615    0.195275
C      1.694144   -0.813817    0.511324
C      2.610565   -0.104716   -0.262704
C      1.637480    1.190106   -0.186961
C      0.245979    1.361429    0.329803
C     -0.584880    0.095766    0.223559
H      0.166184   -1.612309   -0.846064
H      1.878463   -0.793029    1.557304
H      3.547176   -0.242548   -0.766141
H      2.072654    2.205667   -0.417503
H     -0.209853    2.279625    0.525996
H     -1.536284    0.160380   -0.292299
12

C      0.506360   -1.064984   -0.002263
C      1.751938   -1.085397    0.802581
C      2.472134    0.096542    0.117531
C      1.701256    1.475330   -0.049796
C      0.334707    1.485693    0.022535
C     -0.252821    0.259968    0.030211
H     -0.062657   -1.648097   -0.774674
H      2.125382   -1.421231    1.760545
H      2.592038   -0.141701   -0.908067
H      2.190604    2.453048   -0.451002
H     -0.264740    2.239132    0.280779
H     -1.239790    0.111639   -0.256789
12

C      0.498917   -1.019631   -0.079686
C      1.766956   -1.116275    0.730667
C      2.476979    0.147370    0.118092
C      1.794021    1.557878   -0.017995
C      0.355350    1.417115    0.092052
C     -0.258646    0.210292    0.081214
H      0.141609   -1.795191   -0.706529
H      2.011397   -1.473967    1.726187
H      2.674902   -0.189082   -0.941025
H      2.193661    2.356530   -0.465738
H     -0.454392    2.304431    0.212442
H     -1.346341    0.360470   -0.178090
12

C      0.280870   -1.207177   -0.545518
C      1.584791   -0.879955    0.293261
C      2.429771    0.198162   -0.269291
C      1.734002    1.394244   -0.162149
C      0.310013    1.386939    0.000918
C     -0.272247    0.035516   -0.026177
H     -0.366123   -2.177529   -0.196017
H      1.642499   -0.936029    1.385730
H      3.648447    0.135150   -0.523986
H      2.255115    2.432366    0.002944
H     -0.162561    2.241809    0.130560
H     -1.230167    0.136445    0.481316
12

C      0.287636   -1.051734    0.186445
C      1.693031   -0.945993    0.872476
C      2.169430   -0.005017   -0.302274
C      1.662374    1.337066   -0.189285
C      0.254320    1.353793    0.183277
C     -0.530529    0.251448   -0.083138
H      0.327140   -1.701358   -0.676883
H      2.292012   -1.147674    1.568204
H      3.055906   -0.207408   -0.872953
H      2.259064    2.251472   -0.101351
H     -0.181744    2.415252    0.337350
H     -1.434229    0.210091   -0.350277
12

C      0.428245   -1.132542   -0.358192
C      1.591805   -0.699413    0.559171
C      2.445949    0.225271   -0.204714
C      1.773565    1.382608   -0.024432
C      0.407418    1.342365    0.174346
C     -0.250184    0.106194   -0.161381
H     -0.023287   -1.986641   -0.247227
H      1.741073   -1.051810    1.541410
H      3.124602   -0.255945   -0.914894
H      2.024463    2.409448   -0.106925
H     -0.048036    2.270491    0.389074
H     -1.361203    0.149913   -0.074647
12

C      0.433777   -1.115065   -0.222253
C      1.519728   -0.796803    0.635339
C      2.323966    0.139886    0.002346
C      1.794541    1.410301   -0.080738
C      0.468772    1.307507    0.194363
C     -0.208881    0.136000   -0.171640
H     -0.104650   -2.097595   -0.444535
H      1.837537   -0.997749    1.555877
H      2.841588    0.020928   -0.962666
H      2.284228    2.442994   -0.173796
H     -0.084062    2.247106    0.297039
H     -1.252133    0.062429   -0.057746
12

C      0.307547   -1.145618   -0.090524
C      1.764871   -1.186785    0.014974
C      2.580733    0.145681   -0.269275
C      1.789925    1.334395    0.146833
C      0.264407    1.407197    0.230228
C     -0.363214    0.047337    0.042701
H     -0.508290   -2.076220   -0.009000
H      1.809337   -0.615456    1.051654
H      3.662867    0.047048   -0.517996
H      2.354021    2.400077   -0.104711
H     -0.438224    2.272401    0.183062
H     -1.369568    0.129883   -0.106357
12

C      0.385157   -1.003407   -0.481889
C      1.517057   -0.829229    0.442898
C      2.460583    0.270895   -0.120032
C      1.803638    1.372672   -0.143100
C      0.432393    1.360608    0.162537
C     -0.252218    0.124269   -0.025593
H     -0.232816   -1.960572   -0.395945
H      1.452745   -0.829598    1.364290
H      3.498502   -0.023744   -0.547518
H      2.212978    2.284319   -0.466861
H     -0.143768    2.215214    0.509135
H     -1.279840   -0.221488    0.273668
12

C      0.330786   -1.203563   -0.280531
C      1.534053   -0.945537    0.476524
C      2.426249    0.264691   -0.175663
C      1.824546    1.514859    0.015205
C      0.484685    1.468587    0.168379
C     -0.301735    0.176817    0.052861
H      0.102688   -2.261887   -0.654184
H      1.563373   -0.982563    1.493015
H      3.314121   -0.260547   -0.782059
H      2.093550    2.491850   -0.261051
H     -0.139552    2.364873    0.168598
H     -1.378353    0.132358    0.350496
12

C      0.538554   -0.977783    0.056238
C      1.752436   -0.969096    0.752787
C      2.508314    0.293962    0.249502
C      1.740783    1.548270    0.054165
C      0.346630    1.526284    0.048600
C     -0.294232    0.261296   -0.097518
H     -0.008713   -2.007436   -0.064762
H      2.227977   -1.910507    1.233608
H      2.103871   -0.079967   -0.927537
H      2.155709    2.492306   -0.135931
H      0.002070    2.561402   -0.030358
H     -1.218988    0.021209   -0.567204
12

C      0.441483   -1.116917    0.063469
C      1.773928   -0.991300    0.801697
C      2.613072    0.144318    0.158065
C      1.744384    1.492405    0.111630
C      0.372499    1.463103    0.060850
C     -0.272205    0.214020   -0.134980
H     -0.041105   -2.003309   -0.357237
H      2.110292   -1.645094    1.443431
H      2.364305    0.024236   -1.073623
H      2.171306    2.508555   -0.143727
H     -0.124906    2.558453   -0.049199
H     -1.298644    0.111469   -0.308786
12

C      0.331311   -1.096638   -0.105925
C      1.865804   -1.202312    0.197001
C      2.491317    0.120995   -0.340326
C      1.826517    1.333866   -0.050689
C      0.319500    1.307523    0.081904
C     -0.430321    0.069744    0.024238
H     -0.329250   -1.928639   -0.474372
H      1.726032   -0.593114    1.369222
H      3.502546    0.146223   -0.492745
H      2.262188    2.320704    0.007035
H     -0.149088    2.252345    0.039118
H     -1.562144    0.029242    0.317128
12

C      0.337502   -1.047025   -0.159673
C      1.808657   -1.192737    0.163569
C      2.446392    0.097861   -0.260959
C      1.805996    1.337014    0.024901
C      0.312272    1.307706    0.127497
C     -0.475597    0.060180    0.073471
H     -0.233432   -1.894805   -0.352792
H      1.617682   -0.694953    1.401307
H      3.558478    0.272785   -0.598197
H      2.352572    2.256591   -0.183533
H     -0.150572    2.327848    0.121385
H     -1.525541   -0.070525    0.214614
12

C      0.467692   -1.088082   -0.076907
C      1.776139   -0.910953    0.722521
C      2.566564    0.173617    0.155748
C      1.727558    1.494582    0.118669
C      0.328518    1.518465    0.171631
C     -0.269421    0.250996   -0.116353
H      0.066908   -2.064519   -0.286013
H      2.015896   -1.721065    1.589041
H      2.433054    0.070340   -1.142475
H      2.184934    2.386148   -0.215154
H     -0.069868    2.498705   -0.039747
H     -1.373565    0.151705   -0.309371
12

C      0.456683   -1.134642   -0.410652
C      1.638852   -0.900123    0.563573
C      2.359568    0.163183   -0.184661
C      1.784267    1.492420   -0.147059
C      0.431613    1.359946    0.165037
C     -0.201696    0.151750    0.036436
H     -0.124446   -2.043790   -0.691162
H      1.298027   -0.847674    1.701502
H      3.377347   -0.055595   -0.860054
H      2.131122    2.428007   -0.355795
H     -0.060440    2.185110    0.384293
H     -1.236486   -0.038653    0.370133
