10

C     19.867965    8.275282    0.855619
H     19.003481    8.292362    1.603797
C     20.587136    9.476362    0.898815
H     21.645224    9.453339    0.911094
C     19.923348   10.736175    1.022664
H     18.897161   10.983980    1.092609
H     20.618279   11.590467    0.978382
C     20.717114    6.995580    0.549152
H     20.347230    6.745400    1.707943
H     19.812778    6.413614    0.224356
10

C     19.866722    8.316637    0.878230
H     18.963696    8.227189    1.551458
C     20.589756    9.462083    0.897294
H     21.864174    9.423398    0.845359
C     19.974177   10.745730    1.037526
H     18.872471   10.872727    1.141839
H     20.529929   11.637306    1.008631
C     20.662556    7.036566    0.510336
H     20.297468    6.873462    1.824154
H     19.798766    6.367463    0.149605
10

C     19.680535    8.278486    0.104953
H     19.305236    8.482118    1.476746
C     20.424774    9.539373    0.571545
H     21.312102    9.209823    1.033877
C     20.067294   10.684691    1.111704
H     18.969906   10.939436    0.985456
H     20.687206   11.546674    1.485225
C     20.361084    7.071660    0.629378
H     20.787710    7.138598    1.723954
H     19.823867    6.071702    0.721595
10

C     19.672811    8.276233    0.099156
H     19.299984    8.515220    1.476435
C     20.424387    9.518867    0.569930
H     21.311160    9.189410    1.063246
C     20.064284   10.677178    1.094093
H     18.965192   11.009522    1.021222
H     20.669558   11.559745    1.466112
C     20.353995    7.048927    0.647212
H     20.820710    7.141189    1.690107
H     19.837635    6.026271    0.716919
10

C     19.928374    8.296678    0.767167
H     18.854267    8.099935    1.118449
C     20.619701    9.430657    0.770467
H     21.609613    9.526050    0.746534
C     20.115341   10.670928    1.152352
H     18.907414   11.102192    1.222662
H     20.561537   11.719656    1.120804
C     20.493456    7.007582    0.442201
H     20.386766    6.881937    1.705873
H     19.943246    6.226947    0.797925
10

C     19.601823    8.211102    0.405616
H     18.975082    8.574980    1.657935
C     20.312769    9.603719    0.887129
H     21.381504    9.386196    0.697308
C     19.981956   10.803856    1.056954
H     18.954412   11.137148    1.041167
H     20.878135   11.186054    1.298784
C     20.139900    6.980082    0.934804
H     20.971201    6.871665    1.604129
H     20.222934    6.207759    0.260607
10

C     19.890589    8.288685    1.334360
H     18.759836    8.239556    1.150940
C     20.687946    9.609341    0.873161
H     21.672841    9.411274    0.631687
C     20.091110   10.765134    1.141554
H     19.020840   10.664398    1.412946
H     20.430178   11.762694    0.548904
C     20.662758    7.069155    1.230689
H     20.320781    6.116047    1.506672
H     19.882837    7.036278    0.013518
10

C     19.569510    8.156579    1.198946
H     18.459054    7.994311    1.594304
C     20.335415    9.398831    1.119686
H     21.357638    9.020804    0.746693
C     20.007301   10.672880    1.054392
H     19.158233   11.464423    1.459755
H     20.710229   11.028126    0.409253
C     20.001754    6.994357    0.848719
H     21.039972    7.037519    1.428372
H     20.780607    7.194733   -0.015687
10

C     19.735885    8.369976    0.958105
H     18.687764    8.568391    0.918109
C     20.554772    9.460634    0.992420
H     21.655078    9.200983    0.849081
C     20.086867   10.735643    1.051724
H     18.900521   11.049500    1.190723
H     20.663145   11.575740    1.002649
C     20.215172    7.079198    1.016908
H     21.374626    6.731193    1.093645
H     19.545886    6.191304    0.771069
10

C     19.665989    8.251976    0.920886
H     18.647176    8.560486    0.840007
C     20.558475    9.492027    0.853289
H     21.889822    9.165944    0.975195
C     20.012283   10.744860    1.045256
H     19.123952   10.709948    1.534806
H     20.504012   11.750705    0.808994
C     20.218761    6.999784    0.980971
H     21.186796    7.012366    1.311715
H     19.612448    6.274466    0.573312
10

C     19.845278    8.269199    0.947568
H     18.861940    8.568439    0.348093
C     20.478235    9.581639    0.855424
H     21.489299    9.627207    0.444406
C     19.937811   10.848233    1.273507
H     19.218330   10.812995    1.916479
H     20.603970   11.489307    0.792538
C     20.427798    6.985912    1.073087
H     20.490828    6.509336    1.952192
H     20.066226    6.270296    0.241139
10

C     19.961988    8.254497    1.092452
H     18.750664    8.190793    0.666177
C     20.636860    9.702331    0.785337
H     21.453673    9.768052    0.087892
C     20.075664   10.847465    1.209959
H     18.941923   10.675919    1.572870
H     20.733718   11.741070    1.020610
C     20.731556    6.992919    1.274652
H     19.953291    6.229225    1.700176
H     20.180376    6.560290    0.434308
10

C     19.875012    8.323509    0.890299
H     18.692957    8.281403    0.388335
C     20.669697    9.588729    0.826047
H     21.637239    9.402079    0.257406
C     20.197539   10.814134    1.264977
H     19.326379   11.038014    1.929206
H     20.084896   11.802991    0.900682
C     20.287598    6.908904    1.077719
H     20.313604    6.499926    2.043455
H     20.334795    6.302872    0.266307
10

C     19.549423    8.285062    0.618119
H     18.577936    8.452131    1.126786
C     20.403875    9.463744    0.620817
H     21.555986    9.076103    0.622684
C     20.031009   10.565264    1.205699
H     19.303904   10.580807    1.862330
H     20.556239   11.482331    0.854595
C     19.958545    6.915344    0.843687
H     20.600499    7.641475    1.774368
H     20.882298    6.500303    0.315349
10

C     19.828615    8.288816    0.762408
H     18.816374    8.729518    0.740038
C     20.588537    9.578833    0.817869
H     21.667855    9.629259    0.556475
C     20.049901   10.794113    1.285332
H     19.410439   10.447431    2.010527
H     20.228094   11.638501    0.584986
C     20.199396    6.976635    1.036487
H     20.182580    6.533302    1.921001
H     20.447924    6.346154    0.129309
10

C     19.789410    8.378322    0.698889
H     18.870061    8.496738    0.919881
C     20.582489    9.540110    0.709282
H     21.591072    9.578006    0.406804
C     19.947141   10.638274    1.120758
H     19.174920   10.787085    1.883088
H     20.493049   11.635346    0.961188
C     20.203112    7.026060    0.964214
H     20.122979    6.642668    1.981664
H     20.645483    6.239953    0.198664
10

C     19.583793    8.129671    1.023376
H     18.529681    8.501538    1.296182
C     20.468248    9.402697    0.635016
H     21.349048    9.181236    0.153819
C     20.093994   10.657955    1.099951
H     18.865671   10.890254    1.191225
H     20.892564   11.264617    1.487466
C     20.003305    6.964804    1.011611
H     20.907517    7.253881    1.770778
H     20.725893    6.715908    0.175011
10

C     19.918564    8.238644    0.707254
H     18.947480    8.024722    0.963428
C     20.562332    9.487229    0.633729
H     21.737053    9.773899    0.583596
C     19.932624   10.667068    1.148358
H     19.064891   10.763024    1.571797
H     20.631997   11.454482    1.023845
C     20.688506    7.124174    1.028682
H     20.064757    6.883640    1.917554
H     19.871510    6.545679    0.266190
10

C     20.021446    8.242483    1.195829
H     18.990737    8.282268    1.787709
C     20.881631    9.541576    0.775651
H     21.963743    9.852730    0.795646
C     19.992979   10.561830    1.047004
H     18.943468   10.508567    0.588091
H     20.374136   11.756030    1.106721
C     20.515691    6.979170    0.739383
H     20.227838    6.294544    1.473450
H     19.508048    6.943361    0.334949
10

C     20.040495    8.270075    1.087085
H     19.020687    8.371894    1.300681
C     20.819702    9.523810    1.190822
H     21.751457    9.871801    0.936818
C     20.108278   10.685261    1.279450
H     18.974568   10.770915    1.450690
H     20.281054   11.404585    0.299832
C     20.667711    6.964495    0.689899
H     20.032828    6.646135    1.662127
H     19.722935    6.453589   -0.052970
10

C     19.809593    8.259313    1.206028
H     18.968519    8.479420    1.758843
C     20.503496    9.444631    0.836806
H     21.438519    9.466458    0.546478
C     20.030023   10.721651    1.042818
H     18.853101   10.946340    1.463803
H     20.544212   11.466114    0.493543
C     20.319474    7.036288    0.954920
H     19.774083    6.174037    1.092739
H     21.178694    6.968310    0.448455
10

C     19.726626    8.272449    1.074664
H     18.629425    8.347941    0.926840
C     20.532144    9.599381    1.010956
H     21.667310    9.288303    0.834784
C     20.120268   10.908833    0.901709
H     19.094423   10.952113    1.273207
H     20.613327   11.758371    0.991803
C     20.161106    6.952695    0.994516
H     21.284063    6.701392    1.184826
H     19.591023    6.181084    0.651128
10

C     19.843408    8.175654    0.907100
H     18.885630    8.528111    1.329439
C     20.466646    9.654584    0.802718
H     21.487785    9.219901    0.855157
C     19.824388   10.808003    0.995708
H     19.054435   11.402749    1.322989
H     20.605655   11.435237    0.967952
C     20.367959    7.040667    0.859895
H     20.854167    6.289630    1.740708
H     20.029643    6.408026    0.062766
10

C     19.732547    8.368131    0.955349
H     18.656838    8.359594    1.467054
C     20.572911    9.492431    0.950739
H     21.587554    9.835879    0.374743
C     20.137651   10.780108    1.191754
H     19.106075   10.692520    1.112319
H     20.680942   11.638206    1.107634
C     20.184507    6.980080    0.839359
H     20.506731    6.534587    1.873763
H     20.253960    6.281026   -0.028280
10

C     19.885020    8.352338    1.041031
H     18.829758    8.581374    1.084432
C     20.710816    9.510115    0.913652
H     21.692251    9.398492    0.372641
C     20.078268   10.717195    1.211438
H     19.063987   10.269005    1.239121
H     20.403410   11.876717    1.123057
C     20.686767    7.080728    0.790805
H     20.095041    6.817350    1.785544
H     19.974399    6.359249    0.282711
10

C     19.765453    8.228113    1.139857
H     18.897103    8.227541    1.783898
C     20.336624    9.472407    0.994074
H     21.306220    9.618956    0.692337
C     20.110854   10.770001    1.132269
H     18.952265   11.093716    1.344002
H     20.796489   11.557319    0.494349
C     20.384519    7.068475    0.858608
H     20.210111    6.310413    1.534141
H     20.660077    6.615620   -0.129102
10

C     19.537421    8.147186    0.964757
H     18.520249    8.444358    1.260654
C     20.394289    9.444016    0.755833
H     21.507235    9.207498    0.400238
C     20.035353   10.553585    1.084910
H     19.088654   10.758323    1.344594
H     20.797636   11.361699    1.122456
C     19.967020    6.877838    1.070222
H     21.011392    7.227310    1.637114
H     20.560465    6.940748    0.203655
10

C     19.585471    8.109131    1.008747
H     18.493319    8.502325    1.289089
C     20.456957    9.412110    0.664526
H     21.403843    9.169907    0.194861
C     20.089734   10.625589    1.096643
H     18.876718   10.860767    1.216977
H     20.882207   11.264320    1.417815
C     19.984187    6.946129    1.021108
H     20.953406    7.278975    1.730182
H     20.693874    6.793309    0.204483
10

C     19.644098    8.277640    0.877734
H     18.835909    8.646963    1.397170
C     20.542219    9.615888    0.861981
H     21.584133    9.503231    0.690878
C     19.975330   10.722572    1.111087
H     18.898582   10.941722    1.194158
H     20.797334   11.532600    1.077689
C     20.180956    6.997443    0.740341
H     20.878050    6.501364    1.820086
H     20.083105    6.223138    0.073308
10

C     19.687928    8.283170    0.920639
H     18.787713    8.677182    1.600625
C     20.579456    9.483134    0.775705
H     21.665930    9.670704    0.598377
C     19.944125   10.797801    1.052759
H     18.923201   11.051741    1.167888
H     20.708216   11.480247    1.152995
C     20.145534    6.991241    0.895641
H     20.656975    6.464533    1.591030
H     20.320635    6.062809    0.088774
10

C     19.608770    8.350064    0.539605
H     19.435652    8.355487    1.798128
C     20.589562    9.472946    0.837168
H     21.683451    9.652643    0.871512
C     19.929567   10.860928    1.005774
H     18.919484   11.139733    0.912710
H     20.604179   11.556593    1.290219
C     20.094084    6.995186    0.821848
H     20.602614    6.696845    1.585866
H     19.952350    5.882136    0.181604
10

C     20.048344    8.282625    0.933063
H     18.877382    8.286364    1.306675
C     20.634344    9.617028    0.811761
H     21.679145    9.243243    0.595069
C     20.070423   10.686468    1.085604
H     18.985629   10.474681    1.089395
H     20.442477   11.715761    1.126929
C     20.625318    7.030731    1.041464
H     20.439990    6.636009    1.941154
H     19.616663    6.989650   -0.086681
10

C     19.785809    8.290629    1.161514
H     18.735058    8.548010    0.938841
C     20.530628    9.534564    0.776969
H     21.400194    9.223821    0.352369
C     20.060862   10.657035    1.102744
H     19.004679   10.538403    1.370215
H     20.699350   11.621101    1.046888
C     19.892438    6.813203    1.127686
H     20.916414    6.600168    1.722660
H     20.394284    7.135628    0.244548
10

C     20.026077    8.154204    1.323283
H     18.961748    8.422156    1.160093
C     20.484818    9.577776    1.053175
H     21.418227    9.448965    0.653209
C     19.937320   10.720852    0.988695
H     19.032623   10.877805    1.449277
H     20.577132   11.742818    0.511642
C     20.649053    6.951613    1.183827
H     20.313646    5.940617    1.488018
H     20.019071    7.125756    0.033214
10

C     19.999770    8.212644    1.214829
H     18.906509    8.623151    1.167000
C     20.522157    9.571560    1.035078
H     21.476078    9.451914    0.573989
C     20.000662   10.723416    0.829980
H     18.883382   10.633784    1.439413
H     20.622379   11.587923    0.758977
C     20.624328    6.931688    1.119008
H     20.354055    6.033733    1.570172
H     20.030396    7.192750    0.135987
10

C     19.900623    8.342823    0.246560
H     19.348603    8.123259    0.992161
C     20.445511    9.548221    0.618319
H     21.562076    9.520791    0.550398
C     19.987130   10.667416    1.205159
H     18.935813   10.999082    1.266821
H     20.674138   11.480083    1.550877
C     20.272413    7.060457    0.915916
H     20.395189    7.231598    1.976693
H     19.898219    5.988832    0.521529
10

C     19.620464    8.113500    0.646973
H     18.443786    8.280664    0.900136
C     20.427303    9.366994    0.573478
H     21.328870    9.151017    0.462081
C     20.108092   10.502458    1.116027
H     19.061529   10.947769    1.336139
H     20.859074   11.439452    1.370640
C     20.570866    7.128098    1.287207
H     21.198902    6.990663    1.995516
H     20.124588    7.606226   -0.505929
10

C     19.810646    8.279219    1.008665
H     18.723809    8.390143    1.280476
C     20.495908    9.373697    0.976515
H     21.681119    9.308616    0.628731
C     19.966241   10.770022    1.068365
H     19.225849   10.902755    1.650848
H     20.372378   11.600814    0.672160
C     19.979303    6.940827    0.522388
H     20.290958    6.971602    1.572759
H     20.873504    6.424867    0.463526
10

C     19.929265    8.281640    1.231918
H     18.953948    8.390577    1.668566
C     20.558279    9.497581    0.802975
H     21.595955    9.204581    0.516369
C     19.963820   10.807548    0.988555
H     18.915977   10.962222    1.502609
H     20.379692   11.837935    0.631632
C     20.337217    7.070730    0.940607
H     19.699243    6.275012    1.142343
H     21.086319    6.634735    0.418859
10

C     19.660286    8.222087    0.911133
H     18.778690    8.570274    1.393394
C     20.643429    9.305071    0.936122
H     21.643505    9.320215    0.880994
C     20.055048   10.662154    1.103570
H     19.127094   11.133107    1.821890
H     20.292886   11.625829    0.492223
C     20.022405    6.910807    0.619529
H     20.502163    6.993033    1.796516
H     20.694210    6.219984   -0.110938
10

C     20.358287    8.177375    0.674318
H     19.187638    7.998965    0.426303
C     20.694185    9.717043    0.721603
H     21.513707   10.106857    0.181833
C     20.051382   10.814410    1.436184
H     18.916997   10.941980    1.852148
H     20.574804   11.783207    0.985760
C     20.128970    6.916870    1.060094
H     19.635901    6.642913    2.023973
H     20.357843    5.862942    0.482217
10

C     20.321340    8.373620    0.479656
H     19.235144    7.965079    0.657752
C     20.631569    9.678679    0.781387
H     21.379519    9.925353    0.032147
C     19.957629   10.722916    1.023294
H     19.159522   10.805717    1.800783
H     20.478253   11.575478    1.360967
C     20.219784    6.980698    1.211640
H     19.527714    6.685127    2.127791
H     20.509240    6.249895    0.369017
10

C     19.838101    8.264691    1.216864
H     18.884954    8.276297    1.730575
C     20.462237    9.547597    0.856544
H     21.382977    9.121153    0.398450
C     20.022299   10.860339    1.006049
H     18.974451   10.986144    1.387333
H     20.478826   11.809208    0.670999
C     20.405109    7.070137    0.920776
H     19.791821    6.049211    1.332099
H     21.178942    6.977785    0.324745
10

C     19.845918    8.229741    1.269775
H     18.857190    8.307081    1.669671
C     20.430339    9.492061    0.842260
H     21.305376    9.068451    0.407585
C     20.050197   10.841475    0.997446
H     19.044210   11.071241    1.443288
H     20.457784   11.822972    0.699737
C     20.278261    7.023879    1.010535
H     19.972309    6.256948    1.358614
H     21.178129    6.848712    0.145522
10

C     19.849231    8.243237    1.259705
H     18.836502    8.316382    1.638674
C     20.410488    9.493266    0.827306
H     21.326463    9.195433    0.408805
C     20.036437   10.846457    0.987853
H     19.124429   11.071896    1.426534
H     20.448868   11.763026    0.733044
C     20.267388    7.043621    0.995936
H     20.000479    6.134342    1.420685
H     21.119429    6.854903    0.145891
10

C     19.761275    8.304669    0.878247
H     18.849332    8.289298    1.476712
C     20.523961    9.461982    0.926830
H     21.630445    9.265617    0.744445
C     20.120647   10.887699    1.112672
H     19.001330   10.838046    1.302864
H     20.522212   11.928795    0.789178
C     20.230908    7.058792    0.827315
H     20.627751    6.362317    1.848040
H     20.151855    6.565346   -0.061870
10

C     19.766163    8.307650    0.856985
H     18.908767    8.329173    1.496916
C     20.518788    9.465949    0.907571
H     21.602163    9.222121    0.735123
C     20.088389   10.888975    1.095385
H     18.969194   10.872268    1.249144
H     20.544447   11.921811    0.886170
C     20.237334    7.064495    0.783504
H     20.633276    6.378186    1.878527
H     20.151194    6.511933   -0.044892
10

C     19.783432    8.274198    0.898395
H     18.885932    8.437399    1.477730
C     20.559685    9.548323    0.935906
H     21.510945    9.235675    0.781171
C     20.101748   10.823306    1.113302
H     19.010573   10.819177    1.227228
H     20.556080   11.808390    0.898546
C     20.310990    7.046366    0.850447
H     20.699243    6.636716    1.778200
H     20.001086    6.333011   -0.116492
10

C     19.778724    8.281774    0.932371
H     18.862840    8.368170    1.445978
C     20.556555    9.523053    0.945385
H     21.510104    9.293503    0.796076
C     20.123249   10.822488    1.126598
H     19.058574   10.799790    1.292455
H     20.537159   11.791337    0.796158
C     20.312226    7.021138    0.911589
H     20.677915    6.649892    1.752523
H     20.002368    6.411417   -0.154700
10

C     20.116994    8.235110    0.636799
H     18.906295    8.375313    0.354580
C     20.487319    9.543128    0.689163
H     21.612846    9.748109    0.231263
C     19.905564   10.586926    1.300174
H     19.130280   10.555392    2.051647
H     20.580159   11.451010    0.926742
C     20.709850    7.122675    1.255355
H     19.740716    6.909774    1.924218
H     20.229693    6.435124    0.474492
10

C     19.668123    8.194572    0.229773
H     18.705477    8.542438    0.883048
C     20.567580    9.570620    0.911031
H     21.731061    9.485670    0.516695
C     19.951561   10.660195    1.241920
H     19.323973   11.019614    2.017694
H     20.326961   11.498357    0.776162
C     20.261817    7.086946    0.916731
H     20.306962    6.745845    2.031807
H     20.576200    6.158305    0.319572
10

C     19.624281    8.142333    1.110483
H     18.838169    8.503432    1.355415
C     20.474405    9.586382    1.037419
H     21.589644    9.325126    0.730312
C     19.934816   10.778710    1.142721
H     18.995245   11.291955    1.631320
H     20.590457   11.448739    0.442045
C     20.174606    6.954463    0.862801
H     20.644860    6.389756    1.662087
H     20.553232    6.541666   -0.130171
10

C     19.853848    8.383313    1.295615
H     18.906084    8.391619    1.661599
C     20.511866    9.489586    0.913742
H     21.634642    9.500449    0.470877
C     20.008936   10.714005    0.974436
H     19.052737   10.983113    1.419013
H     20.366106   11.586022    0.608274
C     20.272204    7.067584    1.073243
H     19.830244    6.145417    1.017405
H     20.983047    6.701454    0.410229
10

C     19.742078    8.312207    1.204233
H     18.894544    8.472270    1.637972
C     20.530795    9.561418    0.845134
H     21.484088    9.206892    0.461253
C     20.002924   10.797566    1.035942
H     18.904838   10.858356    1.526686
H     20.499451   11.712315    0.536170
C     20.193698    7.023673    0.868704
H     19.883335    6.015238    1.275047
H     21.283962    7.002625    0.453291
10

C     19.796682    8.261251    0.934865
H     18.659622    8.664602    0.524448
C     20.438745    9.547541    0.955903
H     21.597707    9.316336    0.591561
C     19.997341   10.860531    1.252044
H     19.126819   10.706143    1.648654
H     20.653628   11.579289    0.849502
C     20.370617    7.008241    0.903381
H     20.924996    6.727080    1.772479
H     19.853559    6.291548    0.411596
10

C     19.795049    8.282042    0.918097
H     18.687349    8.670069    0.541661
C     20.440061    9.548514    0.932666
H     21.571694    9.298669    0.598394
C     19.992176   10.863469    1.247615
H     19.073162   10.706152    1.646884
H     20.703922   11.544355    0.882912
C     20.348356    7.028392    0.881283
H     20.925754    6.785159    1.769646
H     19.882192    6.235741    0.425276
10

C     19.820368    8.242472    1.052052
H     18.729977    8.433880    1.077190
C     20.659053    9.622376    1.045363
H     21.415771    9.400639    0.265218
C     20.099298   10.711122    1.296836
H     19.068792   10.521179    1.499297
H     20.575249   11.543278    0.889170
C     20.519010    7.015608    0.834437
H     20.095052    7.157068    1.822689
H     20.437146    6.314939    0.062180
10

C     19.577737    8.264735    0.686126
H     18.623780    8.664549    1.117165
C     20.576870    9.449977    0.746214
H     21.669313    9.447814    0.476460
C     20.078939   10.707823    1.052122
H     18.958994   10.863876    1.077874
H     20.728555   11.432606    1.540077
C     20.227428    7.056685    1.091928
H     21.164408    6.886009    1.576655
H     19.813691    6.188486    0.479811
10

C     19.750881    8.311887    0.796315
H     18.587894    8.566271    0.948222
C     20.592818    9.659713    0.476111
H     21.506577    9.549377    0.157961
C     20.092874   10.727227    1.211658
H     19.123310   10.230413    1.227938
H     20.753015   11.426248    1.735821
C     20.498901    7.160518    0.819673
H     20.319389    7.279340    1.966083
H     20.194054    6.051568    0.504653
10

C     19.710995    8.203155    0.800595
H     18.693047    8.676677    0.720314
C     20.549591    9.366856    0.628117
H     21.766347    9.573368    0.411706
C     19.966748   10.530608    1.027560
H     19.285845   10.475055    1.831232
H     20.446502   11.478413    1.035595
C     19.984051    6.952817    1.271022
H     20.722870    6.682627    2.061636
H     20.293717    7.022986    0.056654
10

C     19.978917    8.372034    1.110017
H     18.914252    8.306354    0.800631
C     20.711334    9.573199    0.903622
H     21.653640    9.288101    0.271857
C     20.106193   10.693361    1.096148
H     18.974607   10.814537    1.585167
H     20.281253   11.770156    1.014666
C     20.770657    7.134987    1.149047
H     19.972021    6.575002    1.746420
H     20.056843    6.434831    0.166860
10

C     19.859542    8.360524    0.975944
H     18.887535    8.436166    1.346135
C     20.598194    9.647142    0.764096
H     21.591572    9.382913    0.620110
C     19.991868   10.882394    1.044317
H     18.983914   10.753263    0.909174
H     20.676441   11.804966    1.402707
C     20.221011    6.973393    0.795455
H     20.805280    6.554228    1.701145
H     19.804357    6.167573    0.285350
10

C     19.972816    8.219188    0.988336
H     18.889395    8.398599    1.402092
C     20.633298    9.450052    0.991145
H     21.665149    9.589631    0.849506
C     20.020611   10.598520    1.051804
H     19.030181   10.879878    1.378762
H     20.426135   11.552898    0.706306
C     20.706631    7.067549    0.759721
H     20.236223    6.654740    1.761965
H     19.839277    6.551507   -0.045204
10

C     19.989918    8.256723    1.049740
H     18.825128    8.252580    1.293105
C     20.609735    9.485785    1.015362
H     21.602923    9.534732    0.911357
C     19.970830   10.637269    1.041873
H     19.083020   10.722174    1.531963
H     20.556350   11.584302    0.523481
C     20.719876    7.143126    0.832514
H     20.240899    6.744061    1.648454
H     19.821036    6.601809   -0.003415
10

C     19.965548    8.379525    0.914743
H     18.919855    8.502701    1.236390
C     20.572046    9.509653    0.551813
H     21.636393    9.417128    0.655795
C     20.058988   10.612171    1.019042
H     19.031313   10.745597    1.175874
H     20.382735   11.488349    1.278798
C     20.704705    7.167078    0.846773
H     20.312340    6.354887    1.912804
H     19.835791    6.785472    0.252400
10

C     19.956049    8.368004    0.964258
H     18.736678    8.433018    1.159121
C     20.619968    9.494946    0.678295
H     21.715914    9.396019    0.588762
C     20.053028   10.571297    1.017448
H     18.930111   10.560795    1.335424
H     20.525289   11.555916    1.129519
C     20.711687    7.144183    0.907931
H     20.344756    6.578064    1.928489
H     19.826235    6.860320    0.135186
10

C     20.106673    8.218784    0.982303
H     19.009039    8.014721    1.583098
C     20.598563    9.584670    0.997175
H     21.679400    9.601766    0.878588
C     19.920172   10.796455    0.995749
H     18.781671   10.956776    0.995405
H     20.739536   11.769547    0.912461
C     20.668287    6.945431    0.543149
H     20.312319    6.438504    1.825591
H     19.604054    6.635908    0.130915
10

C     19.670274    8.380901    0.808366
H     18.698000    8.262217    0.925873
C     20.477912    9.574160    0.812951
H     21.417125    9.360815    0.360067
C     19.927299   10.790674    1.072367
H     19.152478   11.137235    1.710816
H     20.708707   11.432937    1.012133
C     20.186639    7.027254    1.067716
H     20.646050    6.481518    1.966261
H     20.535231    6.514851    0.107882
10

C     19.582922    8.115099    0.877337
H     18.615079    8.380082    1.136706
C     20.371004    9.468903    0.828567
H     21.410802    9.467526    0.457431
C     20.131665   10.773764    1.023139
H     19.146120   10.850368    1.560052
H     20.767490   11.650233    1.006160
C     20.290868    7.048488    0.999390
H     20.699259    6.645356    1.902480
H     20.404505    6.562742    0.053170
10

C     19.483737    8.186029    0.895296
H     18.466705    8.537445    1.513265
C     20.306636    9.503514    0.867907
H     21.300771    9.074349    0.565764
C     20.123215   10.773576    1.193198
H     19.063276   11.155518    1.367654
H     20.807841   11.702695    0.897527
C     20.346635    7.099870    0.773211
H     20.843994    6.658097    1.710743
H     20.676903    6.271469    0.059867
10

C     19.446551    8.221780    0.912629
H     18.458238    8.484449    1.555287
C     20.305047    9.473774    0.883313
H     21.266051    9.037839    0.609500
C     20.100470   10.759359    1.234484
H     19.054261   11.269631    1.303370
H     20.837271   11.568064    0.860793
C     20.329496    7.066232    0.758034
H     20.936150    6.777925    1.586556
H     20.686179    6.303509    0.140465
10

C     19.949789    8.338546    0.846789
H     19.058226    8.803341    0.668194
C     20.867387    9.472519    1.011804
H     21.820482    9.311199    1.429788
C     20.064908   10.749205    0.875039
H     19.413605   10.705239    1.769560
H     19.805145   11.646979    0.352702
C     20.140572    6.994684    1.094098
H     20.987039    6.399848    1.050196
H     19.312564    6.541002    0.746262
10

C     19.736482    8.135736    0.989204
H     18.694484    8.017035    1.542306
C     20.312977    9.444750    0.832641
H     21.361596    9.406628    0.581765
C     19.979242   10.662793    1.048589
H     19.029006   11.238331    1.290202
H     20.915999   11.240663    1.073416
C     20.414404    7.063400    0.680767
H     20.510539    7.350408    1.782971
H     20.464986    6.402816    0.022571
10

C     19.933624    8.337961    1.772591
H     18.843011    8.399002    2.092418
C     20.582544    9.247220    1.064342
H     21.742941    9.218301    0.943418
C     20.022224   10.671656    0.620908
H     18.944268   10.752764    0.520983
H     20.538748   11.628531    1.066597
C     20.050355    7.213331    0.874141
H     21.077074    6.648484    1.055831
H     19.684926    6.845311   -0.166797
10

C     19.495878    8.148777    1.084270
H     18.771004    7.916530    1.947485
C     20.400228    9.490401    1.090373
H     21.527601    9.381598    0.926322
C     19.967881   10.829315    1.044523
H     19.076960   11.363195    0.894759
H     20.863971   11.392694    0.765159
C     20.304098    7.201308    0.700068
H     20.981523    6.732072    1.474800
H     20.030571    6.506672   -0.083325
10

C     20.045002    8.312102    1.088577
H     18.835887    7.805920    0.990985
C     20.366205    9.655196    0.717587
H     21.378683    9.524420    0.655148
C     20.025712   10.972903    1.030757
H     19.202351   11.107516    1.669142
H     20.702710   11.931759    0.771079
C     20.215650    6.982052    1.022078
H     20.382770    6.294288    1.802059
H     20.264744    6.376404    0.097020
10

C     19.882696    8.241592    1.110013
H     18.964166    8.517873    1.651503
C     20.429261    9.515905    0.714660
H     21.407846    9.470432    0.520174
C     19.945938   10.755484    0.966420
H     19.137319   10.980802    1.533257
H     20.422903   11.590965    0.722483
C     20.226977    6.988354    0.809293
H     19.754964    6.111935    1.429821
H     21.247644    6.789220    0.386810
10

C     19.623018    8.256632    1.230179
H     18.628018    8.265205    1.751047
C     20.324297    9.553518    0.925548
H     21.436556    9.133771    0.770205
C     19.941426   10.814354    1.051543
H     19.059506   11.375129    0.975550
H     20.826812   11.375133    0.908241
C     20.249145    7.103151    0.850067
H     21.100604    6.556340    1.438884
H     20.230333    6.529329   -0.056830
10

C     19.590091    8.205252    1.205672
H     18.688337    8.305021    1.573910
C     20.340358    9.436681    0.954712
H     21.379833    9.312079    0.786828
C     20.013211   10.795289    0.984077
H     19.100820   11.345082    1.026839
H     20.832385   11.439740    0.977087
C     20.152905    7.039688    0.906519
H     21.239571    6.665991    1.439726
H     20.082203    6.417739   -0.010938
10

C     19.609455    8.177347    1.203094
H     18.569818    8.297666    1.525608
C     20.365778    9.400215    0.968461
H     21.378015    9.412365    0.791397
C     20.050455   10.772133    0.959384
H     19.081775   11.316072    1.052315
H     20.898801   11.497373    0.982955
C     20.155427    7.028073    0.928365
H     21.306190    6.722685    1.392587
H     20.004001    6.338633    0.040268
10

C     19.657609    8.347196    1.297286
H     18.479620    8.483081    1.486836
C     20.507538    9.570094    0.927438
H     21.434918    8.969777    0.912133
C     20.023404   10.825198    0.812420
H     19.013906   11.013180    1.146908
H     20.773938   11.613974    0.914894
C     20.315846    6.953449    1.125060
H     21.296657    6.820639    0.900307
H     19.916279    6.365974    0.321151
10

C     19.735145    8.172561    1.252020
H     18.437986    8.484436    1.233607
C     20.509172    9.370200    0.797227
H     21.622968    9.596020    0.547324
C     20.095621   10.600054    1.142479
H     19.046221   10.871862    1.267217
H     20.696300   11.502162    0.813705
C     19.979416    6.809138    1.182490
H     21.087730    6.471989    1.511276
H     20.209155    7.084139    0.097089
10

C     19.770730    8.427878    0.911009
H     18.912944    8.658089    0.696522
C     20.730408    9.482300    0.792380
H     21.610943    9.104864    0.334607
C     19.968003   10.654909    0.967737
H     19.049300   10.589405    1.628661
H     20.398654   11.756621    1.121034
C     19.801220    6.945940    1.344456
H     20.834909    6.448525    1.666248
H     20.342604    6.894030    0.381779
10

C     19.751273    8.325658    1.366020
H     19.012221    8.385230    1.985136
C     20.542251    9.651090    1.145584
H     21.509340    9.163554    0.857617
C     20.083549   10.856215    1.173217
H     18.882807   10.943504    0.968504
H     20.503658   11.510030    0.373853
C     20.302521    7.075251    0.879406
H     20.528723    6.056295    1.322655
H     20.303372    6.995734   -0.227560
10

C     19.878364    8.291359    0.913682
H     18.767506    8.560408    1.251300
C     20.646632    9.447653    1.036169
H     21.533122    9.155089    0.650265
C     20.105542   10.716655    1.050247
H     19.246143   10.493784    1.432167
H     20.260062   11.826417    0.847993
C     20.695568    7.242102    0.789599
H     20.222327    6.752720    1.736867
H     20.064449    6.476375    0.136143
10

C     19.889185    8.308624    0.897316
H     18.713825    8.705488    1.313536
C     20.642699    9.480167    1.039173
H     21.479918    9.036005    0.742837
C     20.129806   10.729533    1.012823
H     19.226625   10.397047    1.433138
H     20.274808   11.795435    0.820192
C     20.670349    7.251222    0.811817
H     20.313262    6.859581    1.538291
H     20.079239    6.399459    0.235309
10

C     19.734208    8.184324    1.208371
H     18.907886    8.268442    2.022451
C     20.370472    9.491222    0.834311
H     21.424447    9.427636    0.785683
C     19.936513   10.728447    0.894763
H     19.067337   11.223757    1.287640
H     20.588813   11.460016    0.575195
C     20.104186    6.794500    0.703213
H     21.569508    7.131121    3.471656
H     21.010303    7.204252    0.011796
10

C     19.808349    8.186632    1.236744
H     18.809267    8.315012    1.956235
C     20.407891    9.506375    0.856721
H     21.451902    9.310779    0.772341
C     19.983587   10.749863    0.910202
H     19.009413   11.173614    1.333498
H     20.534572   11.471682    0.533701
C     20.173946    6.821513    0.711450
H     21.621877    7.176072    3.606959
H     20.965237    7.247127    0.012531
10

C     19.683719    8.271555    0.810546
H     18.711550    8.189494    1.295278
C     20.521708    9.495722    0.581154
H     21.541565    9.284993    0.512838
C     20.037384   10.592806    1.070762
H     19.004202   11.120200    1.243439
H     20.670406   11.449721    1.451199
C     20.488901    7.139982    0.621805
H     20.439611    7.315993    1.774136
H     20.320668    6.102096    0.483276
10

C     20.029923    8.242689    1.352076
H     18.853630    8.546349    1.497001
C     20.511389    9.543855    0.900731
H     21.708944    9.684379    0.433594
C     19.902018   10.724227    0.968441
H     18.937664   10.650606    0.881330
H     20.636714   11.599188    1.082589
C     20.692383    7.043654    1.035854
H     20.229943    5.916374    1.422294
H     19.917106    7.011240    0.270522
10

C     19.862849    8.343312    0.969277
H     18.748844    8.245462    1.011348
C     20.608892    9.623091    0.708052
H     21.567145    9.385477    0.443799
C     20.069522   10.841447    1.119891
H     19.118918   10.957943    1.092040
H     20.477789   11.895452    1.410104
C     20.625984    7.041428    0.592401
H     20.362786    6.476484    1.765806
H     19.976986    6.152467    0.731714
10

C     19.793031    8.287684    0.889261
H     18.752950    8.387670    1.853413
C     20.378208    9.459179    0.813572
H     21.455179    9.268341    0.746164
C     19.976709   10.750490    1.040933
H     18.981115   11.026714    0.679342
H     20.826989   11.609291    1.306353
C     20.366536    7.021933    0.849575
H     20.995106    6.610520    1.587019
H     19.893893    6.540740    0.078801
10

C     19.894947    8.259683    0.902559
H     18.918010    8.332967    1.291837
C     20.705126    9.564252    0.662027
H     21.793371    9.846463    0.604156
C     20.063981   10.668759    1.051571
H     19.022146   10.657331    1.092859
H     20.478087   11.510642    1.356984
C     20.616402    6.967240    0.719094
H     20.216389    6.803281    1.920946
H     19.711255    6.351945    0.242400
10

C     19.813696    8.297848    1.187782
H     18.626807    8.259185    1.106210
C     20.564613    9.641841    0.755081
H     21.506318    9.279263    0.470833
C     20.087206   10.888343    0.832925
H     18.941196   10.931057    0.954800
H     20.783596   11.557647    1.523217
C     20.210054    7.018173    1.175019
H     21.161852    6.608916    1.379705
H     19.724376    6.480289    0.458862
10

C     20.010438    8.274742    1.196970
H     19.033205    8.326979    1.617726
C     20.510070    9.651794    0.943724
H     21.710701    9.674565    0.871787
C     20.008868   10.811592    1.064122
H     18.999878   10.727585    1.068365
H     20.574011   11.678273    0.713205
C     20.332096    7.035086    0.889624
H     20.448020    6.128999    1.632248
H     19.792428    6.652946   -0.153337
10

C     20.102015    8.258066    1.177826
H     18.942038    8.399044    1.538727
C     20.558798    9.652576    0.968795
H     21.510046    9.368846    0.800330
C     19.900280   10.922185    1.026172
H     18.752297   10.729536    1.054665
H     20.832091   11.533601    0.841060
C     20.361146    7.022077    0.824034
H     20.590623    6.367154    1.567660
H     19.870382    6.709476    0.045165
10

C     19.982568    8.213038    1.175949
H     18.947782    8.511502    1.597682
C     20.587834    9.510594    1.014267
H     21.552934    9.612502    0.737576
C     19.972139   10.713233    0.867231
H     19.026761   11.373325    1.026521
H     20.453430   11.813954    1.038552
C     20.262272    6.831397    0.825742
H     20.633682    6.102922    1.566340
H     20.000314    6.280094   -0.005428
10

C     19.896083    8.354826    1.080854
H     18.970438    8.335529    1.530233
C     20.665193    9.627594    1.064993
H     21.771361    9.854996    0.936841
C     20.023649   10.777724    1.051498
H     18.894083   10.536003    1.163781
H     20.674205   11.615377    0.661356
C     20.651926    7.066927    0.630546
H     20.243644    6.401346    1.573098
H     19.629132    6.392239    0.151234
10

C     19.597440    8.302280    0.465229
H     18.801055    7.432033    1.212836
C     20.274251    9.618320    0.548073
H     21.266441    9.667785    0.283923
C     20.079929   10.910071    1.164142
H     19.138651   11.026814    1.517894
H     21.094698   11.583313    1.248974
C     20.210855    7.091329    1.044870
H     20.285745    6.861529    2.093121
H     20.670650    6.469087    0.265371
10

C     19.735229    8.134657    1.309850
H     18.593040    8.356288    1.788441
C     20.592499    9.351932    0.955678
H     21.517149    9.527356    0.814544
C     20.123685   10.619314    0.926854
H     19.009992   10.926955    1.325996
H     20.648249   11.505545    0.660497
C     19.949483    6.973988    0.651512
H     20.663187    6.937891    1.516483
H     20.587203    6.628637   -0.105422
10

C     20.294335    8.277286    1.341720
H     19.078299    7.940564    1.366034
C     20.665803    9.809728    0.948995
H     21.728543    9.687709    0.940566
C     19.921371   10.979995    0.993951
H     18.890410   10.640227    1.314075
H     20.627918   11.717301    0.456525
C     20.236431    6.998965    0.929138
H     20.211994    6.087497    1.473968
H     19.764611    6.823291    0.079463
10

C     19.799886    8.352929    1.157195
H     18.857187    8.358476    1.666766
C     20.504678    9.489393    0.807943
H     21.627545    9.594363    0.325398
C     19.977840   10.736197    1.004434
H     18.934772   10.702492    1.432716
H     20.584730   11.688951    0.675650
C     20.216162    7.046220    0.954773
H     19.673348    5.983397    1.177648
H     21.243568    7.010142    0.641911
10

C     20.405032    8.362578    1.482491
H     19.113481    8.169054    1.183372
C     20.843062    9.552022    1.016078
H     21.863174    9.548060    0.591166
C     20.120958   10.722314    1.061206
H     18.957324   10.765887    1.137220
H     20.041716   11.881815    0.823152
C     20.217239    6.959907    0.878642
H     20.092670    6.260583    1.696679
H     19.765059    6.740341   -0.025573
10

C     19.936298    8.236735    1.084903
H     18.869026    8.552125    1.447003
C     20.745357    9.364533    1.047021
H     21.758289    9.299941    0.661185
C     20.033969   10.541263    1.106082
H     18.953863   10.864698    1.337510
H     20.243305   11.620009    0.793904
C     20.530741    7.086242    0.621328
H     20.193546    6.845355    1.838993
H     20.155322    6.551661   -0.093497
10

C     19.760328    8.596876    0.894768
H     19.889560    6.678752    1.727606
C     20.602817    9.559477    0.870199
H     21.533648    9.375176    0.500673
C     20.031942   10.780252    1.276948
H     19.140908   10.730225    1.604017
H     20.382502   11.717808    0.689908
C     20.393362    6.961863    0.923338
H     21.379843    6.832143    1.334286
H     20.727572    6.182970   -0.079846
10

C     19.779976    8.307257    1.102691
H     18.682556    8.460704    1.208660
C     20.574650    9.584393    0.926999
H     21.624059    9.326649    0.707369
C     20.037532   10.869985    0.942430
H     18.896782   10.838510    1.076190
H     20.776814   11.662723    1.162181
C     20.298381    7.060467    0.940389
H     21.075117    6.587204    1.393807
H     19.673849    6.264669    0.383717
10

C     19.807891    8.305793    1.116953
H     18.686218    8.150571    1.320326
C     20.484872    9.572807    0.922934
H     21.693775    9.490580    0.605235
C     20.053530   10.841580    1.004106
H     18.962826   10.912326    1.053218
H     20.796316   11.704488    1.145674
C     20.254971    7.057385    0.925348
H     20.930242    6.550297    1.695478
H     19.749073    6.376734    0.055161
10

C     19.807348    8.316705    1.164635
H     18.769498    8.083437    1.316440
C     20.468436    9.533562    0.916750
H     21.455836    9.553274    0.580039
C     20.090268   10.827553    1.021568
H     19.114195   11.051553    1.017450
H     20.720639   11.580633    1.146198
C     20.215697    7.006161    0.888357
H     20.881592    6.499278    1.746891
H     19.896203    6.510404    0.046105
10

C     19.835502    8.256961    1.201083
H     18.811754    8.171829    1.459056
C     20.442287    9.475576    0.907196
H     21.339717    9.522971    0.558024
C     20.081026   10.748139    1.046545
H     19.057701   11.192282    1.030615
H     20.718264   11.601897    1.071565
C     20.255435    6.924103    0.912013
H     20.754615    6.472498    1.723501
H     20.123414    6.596305   -0.065165
10

C     19.724518    8.295558    1.069410
H     18.591350    8.109958    1.313501
C     20.562611    9.505347    0.979678
H     21.446171    9.460758    0.687949
C     20.158805   10.760528    0.950570
H     19.233102   11.037992    1.543260
H     20.501097   11.745487    0.665223
C     20.300258    6.993646    0.899853
H     20.597343    6.338923    1.768041
H     20.304459    6.714366   -0.033052
10

C     19.748901    8.298040    1.198498
H     18.569750    8.506720    1.005145
C     20.507504    9.488116    0.995124
H     21.605475    9.381799    0.426965
C     20.139575   10.795999    1.077124
H     19.119116   10.778262    1.200012
H     20.611035   11.702753    1.160776
C     20.213092    7.018532    1.016501
H     21.031957    6.691772    1.678187
H     19.873310    6.300570    0.086100
10

C     19.726689    8.292981    1.162133
H     18.629186    8.229527    0.907955
C     20.589229    9.471616    1.092022
H     21.544982    9.314342    0.484330
C     20.128051   10.780593    1.111975
H     19.237598   10.828285    1.573649
H     20.461404   11.676317    0.763278
C     20.239077    7.057966    0.913949
H     20.745183    6.695932    1.951524
H     20.118316    6.615003   -0.116380
10

C     20.078400    8.283659    1.169778
H     19.303832    8.452535    1.834472
C     20.826367    9.485630    0.954528
H     21.753095    9.685936    1.232246
C     20.030758   10.613122    0.909644
H     19.005540   10.575230    0.778724
H     20.204780   11.775763    0.737121
C     20.532057    6.974228    0.541758
H     20.261433    6.160427    1.468433
H     19.423451    6.956031    0.217729
10

C     19.695227    8.240801    1.221273
H     18.760927    8.222206    1.597201
C     20.689063    9.351743    1.133496
H     21.766232    9.208846    1.068641
C     19.996781   10.634821    0.961840
H     19.245802   11.041935    1.678353
H     20.158879   11.290080    0.109291
C     19.881960    6.955438    0.628583
H     20.623976    6.825278    1.538639
H     20.600869    7.191414   -0.092884
10

C     19.743240    8.272251    1.386088
H     18.608555    8.265526    1.833465
C     20.494585    9.486390    1.128528
H     21.365527    8.996536    0.822949
C     20.009841   10.754683    0.932472
H     19.085531   11.049378    1.298402
H     20.651839   11.577035    0.560991
C     19.894100    6.943983    0.583585
H     20.870068    6.875640    1.604000
H     20.696431    6.741140   -0.306047
10

C     19.899610    8.397260    1.140012
H     18.810215    8.531625    1.307816
C     20.713050    9.638640    1.014634
H     21.656500    9.090647    0.459406
C     20.001268   10.654029    1.058298
H     18.952199   10.648642    1.161094
H     20.395709   11.662587    1.044501
C     20.717056    7.230722    0.781515
H     20.227398    6.516118    1.641001
H     20.046710    6.592292    0.236154
10

C     19.912757    8.198932    0.758552
H     18.859943    8.223555    0.984604
C     20.469696    9.497331    0.686750
H     21.652634    9.740201    0.536415
C     19.895177   10.629047    1.189093
H     19.026870   11.141871    1.467318
H     20.677823   11.355273    1.097938
C     20.714971    7.094753    0.838584
H     20.183168    6.745131    1.850759
H     20.026675    6.336468    0.434419
10

C     19.655649    8.210628    0.891114
H     18.738543    8.457222    1.606317
C     20.415675    9.489540    0.968290
H     21.435720    9.439154    0.537920
C     19.984700   10.809261    1.053098
H     19.054746   10.933123    1.446683
H     20.729886   11.687244    0.780174
C     20.424718    6.953460    0.870392
H     20.343754    6.419129    1.786742
H     20.636323    6.563803   -0.096298
10

C     19.644822    8.288567    0.832513
H     18.802128    8.010020    1.502961
C     20.430602    9.503267    0.852723
H     21.431221    9.548856    0.617840
C     20.028685   10.833899    1.104432
H     19.038931   11.231820    1.345187
H     20.832606   11.709087    0.956941
C     20.389080    7.032932    0.835875
H     20.493618    6.639747    1.842002
H     20.328020    6.164367   -0.046040
10

C     19.853331    8.465595    0.922498
H     18.629880    8.379816    0.929039
C     20.773407    9.493206    0.914088
H     21.746151    9.214865    0.547376
C     20.096785   10.746510    1.047880
H     19.068136   10.655277    1.420233
H     20.320284   11.750229    1.110627
C     20.664636    7.151786    0.615716
H     20.312439    6.871516    1.660824
H     19.954665    6.233762    0.676152
10

C     20.069248    8.283254    0.991347
H     18.922564    8.342998    0.979071
C     20.829381    9.540695    0.968198
H     21.770593    9.838415    0.724205
C     20.082693   10.733628    1.091495
H     19.052660   10.601983    1.606239
H     20.294655   11.623871    0.716304
C     20.662336    6.906768    0.799960
H     19.975394    6.748279    1.777181
H     19.760192    6.342671    0.190432
10

C     19.746299    8.362980    1.042006
H     18.681341    8.376741    1.100285
C     20.610175    9.516125    1.039962
H     21.595243    9.283764    0.949362
C     20.090100   10.804386    1.081079
H     18.972021   10.720954    1.113609
H     20.736045   11.605345    0.823515
C     20.262888    7.102100    0.894530
H     21.179699    6.868324    0.999629
H     19.545904    6.321841    0.800457
10

C     19.753698    8.288103    1.080546
H     18.595644    8.536829    1.317948
C     20.511024    9.555481    0.908014
H     21.517946    9.199199    0.772798
C     20.098095   10.869021    0.949963
H     18.969965   11.147297    1.057318
H     20.675082   11.669469    1.135193
C     20.284381    7.028432    0.977158
H     21.212659    6.521949    1.267221
H     19.801223    6.146781    0.378273
10

C     19.914584    8.205874    1.014182
H     18.891261    8.468077    1.019986
C     20.651720    9.583786    1.034001
H     21.647514    9.558265    0.598877
C     20.013599   10.689344    1.006716
H     19.117245   10.629717    1.699511
H     20.367921   11.531763    0.624108
C     20.688078    7.069994    1.005098
H     20.086324    6.384064    1.810760
H     20.041470    6.841677    0.031194
10

C     19.912076    8.190055    1.006972
H     18.837060    8.424204    1.103302
C     20.669221    9.570011    1.029463
H     21.674365    9.572487    0.604488
C     20.028658   10.669483    1.004838
H     19.104217   10.577237    1.707624
H     20.383820   11.586245    0.588923
C     20.679220    7.058499    1.007836
H     20.053144    6.435334    1.826864
H     20.077935    6.879006   -0.035879
10

C     19.796221    8.215836    1.138782
H     18.931536    8.196007    2.029848
C     20.462811    9.460018    0.860644
H     21.500160    9.515462    0.689858
C     20.005946   10.772132    0.970792
H     18.901323   10.846037    1.209476
H     20.714333   11.684138    0.646723
C     20.396804    7.010249    0.921949
H     20.071667    6.261322    1.540341
H     20.638916    7.001361   -0.163979
10

C     19.786128    8.213012    1.328346
H     18.660401    8.413725    1.325222
C     20.516253    9.464994    0.944027
H     21.564046    9.550027    0.608965
C     20.013841   10.690589    1.123132
H     19.195469   10.898203    1.677329
H     20.445459   11.445945    0.328330
C     20.217527    6.993664    0.878123
H     20.251599    6.218690    1.597385
H     20.768992    7.073714    0.033573
10

C     19.700049    8.251473    1.195280
H     18.906176    8.397919    1.765562
C     20.683238    9.469764    1.074381
H     21.702763    9.445774    1.003709
C     20.042890   10.526068    0.918774
H     19.023312   10.787167    1.301943
H     20.475985   11.384416    0.456336
C     19.723159    6.919330    0.903883
H     20.877997    6.766768    1.380818
H     20.284145    7.013883   -0.156253
10

C     19.679649    8.220461    0.969580
H     18.726557    8.593142    1.598263
C     20.422875    9.511581    0.982371
H     21.349978    9.302916    0.568126
C     19.979907   10.807832    1.043535
H     19.043334   10.926345    1.527043
H     20.709976   11.734592    0.675176
C     20.412090    6.970288    0.912948
H     20.375419    6.305068    1.751309
H     20.719930    6.590336   -0.183918
10

C     20.167941    8.197797    1.631091
H     19.119948    8.293440    1.111675
C     20.539419    9.564780    1.045581
H     21.398059    9.515462    0.355192
C     19.986091   10.843423    1.028289
H     18.949689   11.059719    1.251859
H     20.524507   11.766999    0.815488
C     20.185615    6.966207    1.057269
H     20.250874    6.013434    1.561948
H     20.297572    6.741301   -0.013959
10

C     20.126663    8.319112    1.552067
H     19.098647    7.759661    1.360111
C     20.478665    9.661319    1.053616
H     21.572193    9.618553    0.937688
C     20.038318   11.011727    1.191405
H     18.988459   11.178917    1.079537
H     20.600532   11.513835    0.429750
C     20.308536    7.070832    0.775109
H     20.460939    6.214253    1.386579
H     19.746764    6.614352    0.078572
10

C     19.656335    8.225459    1.059033
H     18.665026    8.263336    1.338603
C     20.419258    9.452553    0.678175
H     21.492494    9.206058    0.525475
C     20.074698   10.685288    1.046170
H     19.056526   10.893940    1.343031
H     20.713169   11.430664    1.054198
C     19.967014    6.912310    1.204776
H     20.937123    7.047977    1.580757
H     20.438073    6.844977    0.014214
10

C     19.869096    8.314203    1.050171
H     18.906267    8.601442    1.528039
C     20.544061    9.523023    0.786895
H     21.538687    9.451291    0.237879
C     19.994881   10.712804    1.040830
H     18.908307   10.828216    1.441087
H     20.471798   11.627171    0.930764
C     20.289076    7.001509    0.880178
H     19.671190    6.258572    1.328489
H     21.226353    6.644330    0.620102
10

C     19.993418    8.295357    0.750178
H     18.798258    8.551421    0.619428
C     20.657468    9.552478    0.867785
H     21.623759    9.719345    0.489159
C     20.087479   10.730360    1.296325
H     19.027903   10.727287    1.649182
H     20.538084   11.656856    0.941179
C     20.227683    6.960854    1.022213
H     20.560761    6.594231    1.936512
H     19.904902    6.174371    0.272470
10

C     19.896939    8.305177    1.042329
H     18.776895    8.324536    1.418099
C     20.446376    9.562563    0.826001
H     21.503906    9.292715    0.781193
C     19.940735   10.776387    0.895922
H     19.031929   11.021961    1.447585
H     20.667997   11.574904    0.836724
C     20.362805    7.069102    0.947412
H     20.615144    6.365616    1.735773
H     20.176988    6.669601   -0.086606
10

C     19.916669    8.312261    1.138575
H     18.943944    8.526512    1.579135
C     20.467427    9.499291    0.874174
H     21.561512    9.572338    0.788169
C     19.924862   10.759366    0.905207
H     18.930569   10.971740    1.210952
H     20.702560   11.488004    0.890486
C     20.247193    7.013922    0.913977
H     20.601989    6.223816    1.575650
H     20.122990    6.595311   -0.031891
10

C     19.833916    8.384774    1.054738
H     18.716116    8.328349    1.140915
C     20.644255    9.544497    0.829312
H     21.597347    9.412426    0.308099
C     20.164177   10.706248    1.270183
H     19.074407   10.609645    1.328964
H     20.464074   11.705269    0.999482
C     20.151467    7.057094    1.007805
H     20.456092    6.532551    1.955259
H     20.317863    6.681706   -0.050326
10

C     20.089452    8.289148    1.339879
H     19.128385    8.514725    1.962089
C     20.685831    9.561188    1.058486
H     21.717177    9.727752    1.217460
C     20.030450   10.614497    0.740957
H     18.973785   10.722908    0.947139
H     20.400426   11.619683    0.603554
C     20.165373    6.987933    0.843672
H     20.589518    6.090933    1.305985
H     19.639319    6.833794   -0.174787
10

C     19.835022    8.365871    1.106905
H     18.830313    8.795408    1.056113
C     20.623811    9.529038    0.772439
H     21.691799    9.542896    0.716431
C     19.878932   10.731886    0.941770
H     19.096559   10.677783    1.702799
H     20.521589   11.599803    0.823383
C     20.245403    7.097598    0.887366
H     20.464990    6.292922    1.734220
H     20.231297    6.329359    0.103007
10

C     19.925245    8.248783    1.250303
H     18.816725    8.483017    1.207195
C     20.523463    9.569522    0.948959
H     21.467207    9.356397    0.478497
C     19.962926   10.727318    0.834827
H     19.052631   10.898659    1.447598
H     20.577691   11.611891    0.948109
C     20.140677    6.954159    1.014614
H     20.595710    6.237884    1.786077
H     20.357441    6.874931   -0.071747
10

C     19.773458    8.198692    1.203322
H     18.793187    8.518158    1.112501
C     20.497575    9.588507    0.872635
H     21.590735    9.642143    0.597709
C     20.137319   10.825498    1.104630
H     19.139239   10.800833    1.652066
H     20.482816   11.715581    0.660253
C     20.308949    6.948855    0.962299
H     20.416225    6.246743    1.903606
H     20.280212    6.477551   -0.224588
10

C     19.962172    8.292711    1.438122
H     19.494006    8.348446    0.529746
C     20.390289    9.492130    0.905189
H     21.124258    9.546047    0.117479
C     19.893983   10.727696    1.124211
H     19.090448   10.982232    1.792375
H     20.581984   11.541926    0.796638
C     20.210968    7.018569    1.118989
H     19.822614    6.236588    1.722588
H     20.848994    6.776216    0.299096
10

C     19.941011    8.284628    1.435385
H     19.469698    8.351434    0.487720
C     20.398465    9.483751    0.906783
H     21.207942    9.648133    0.085785
C     19.908837   10.722783    1.118931
H     19.062173   10.954893    1.805858
H     20.599101   11.540699    0.819638
C     20.207083    7.036088    1.108898
H     19.811836    6.203868    1.742215
H     20.813569    6.736283    0.333219
10

C     19.704810    8.516469    1.298313
H     18.873575    7.831992    0.545123
C     20.499401    9.659614    0.778386
H     21.650943    9.521719    0.168734
C     20.148883   10.866100    1.131531
H     19.161180   10.843572    1.632255
H     20.566536   11.823475    1.062810
C     20.176686    7.111618    1.046988
H     20.366267    6.391900    1.944535
H     20.271434    6.396102    0.235757
10

C     19.987492    8.181164    0.713982
H     18.947575    8.382368    1.154216
C     20.617925    9.509612    0.784777
H     21.554041    9.660341    0.496674
C     19.975472   10.636779    1.103022
H     18.943948   10.779012    1.358369
H     20.608294   11.555867    1.224472
C     20.724705    6.877992    0.784744
H     20.114684    6.897021    2.116891
H     19.945580    6.482406    0.107285
10

C     20.000041    8.348358    1.017278
H     18.944355    8.331310    0.832558
C     20.782465    9.679241    0.862140
H     21.543023    9.130988    0.358266
C     20.012811   10.772849    1.004843
H     19.124216   10.592565    1.510586
H     20.251862   11.915544    1.143524
C     20.728822    7.018356    0.997677
H     20.000434    6.677938    1.791492
H     20.031685    6.495413    0.326068
10

C     19.973314    8.295607    0.810682
H     18.918406    8.545673    1.385197
C     20.679963    9.580599    0.834654
H     21.708947    9.173602    0.607155
C     19.948705   10.794119    0.968675
H     18.880491   10.826498    1.070133
H     20.441108   11.505406    1.424983
C     20.627878    7.044007    0.666537
H     20.343858    7.048946    1.664654
H     19.897046    6.148103    0.411762
10

C     19.796616    8.254419    1.185972
H     18.975035    8.439300    1.864372
C     20.449057    9.482279    0.760202
H     21.398712    9.507678    0.496664
C     19.989139   10.745014    0.951891
H     18.982864   10.950306    1.344336
H     20.556363   11.530736    0.728278
C     20.251006    6.956224    0.907731
H     19.881927    6.026963    1.459043
H     21.138996    7.069641    0.145943
10

C     19.709905    8.245131    0.919281
H     18.878360    8.322595    1.775103
C     20.527639    9.526291    1.034326
H     21.617355    9.603366    0.769345
C     20.070077   10.767778    0.941209
H     18.967186   10.797906    1.035577
H     20.750530   11.652316    0.998914
C     20.070495    6.932549    0.812304
H     20.743266    6.797619    1.534047
H     20.084902    6.317010    0.024327
10

C     19.693433    8.286861    1.256773
H     18.714219    8.529014    1.590406
C     20.657776    9.297754    0.807914
H     21.796389    9.240025    0.642687
C     20.081321   10.625489    0.853127
H     19.038213   10.355303    0.991625
H     20.458136   11.641686    1.062123
C     19.936896    6.951337    1.184571
H     20.989692    6.694679    1.379952
H     20.053639    7.340412    0.075254
10

C     19.725743    8.274966    1.249363
H     18.723591    8.559328    1.516990
C     20.667309    9.307246    0.822937
H     21.733128    9.234710    0.607274
C     20.106744   10.610233    0.855778
H     19.058157   10.350426    0.985373
H     20.423840   11.586144    1.109220
C     19.975347    6.951299    1.157031
H     20.968172    6.722193    1.415195
H     20.037684    7.366016    0.125272
10

C     19.922908    8.265323    1.231360
H     18.789444    8.534322    1.356719
C     20.471022    9.490638    0.844878
H     21.474578    9.562545    0.630731
C     20.075864   10.657275    1.031705
H     19.085930   10.770617    1.330399
H     20.596816   11.551731    0.867418
C     20.237786    7.002736    0.985301
H     20.577293    6.443137    1.751790
H     20.188075    6.684237   -0.185868
10

C     19.832324    8.297082    1.223353
H     18.777276    8.380241    1.115478
C     20.468543    9.480454    0.907110
H     21.532083    9.545623    0.431095
C     20.027714   10.706039    1.039283
H     19.005346   10.918369    1.431561
H     20.700769   11.568407    0.941132
C     20.086166    6.971133    0.931734
H     20.644516    6.436542    1.857279
H     20.344980    6.658673   -0.033591
10

C     19.770785    8.277125    1.225810
H     18.638221    8.500812    1.083138
C     20.580447    9.574152    0.976783
H     21.436462    9.247958    0.368684
C     19.918755   10.844112    1.073336
H     19.027875   11.091032    1.545008
H     20.679150   11.620707    0.868246
C     20.147619    7.006712    1.032427
H     20.695171    6.400955    1.688808
H     20.525230    6.398997   -0.017807
10

C     19.738182    8.205464    1.151910
H     18.781097    8.592618    1.018532
C     20.613009    9.643747    0.956825
H     21.503116    9.337022    0.488419
C     19.984857   10.847994    1.053313
H     19.051036   11.077729    1.623515
H     20.513643   11.718967    0.789063
C     20.319458    7.010420    0.974403
H     20.549139    6.128122    1.787821
H     20.366179    6.400478    0.000631
10

C     20.056301    8.162667    0.705224
H     18.875918    8.527822    0.977810
C     20.464603    9.574415    0.638682
H     21.500980    9.538555    0.442000
C     19.983711   10.628145    1.238419
H     18.923424   10.796259    1.457080
H     20.678448   11.538835    1.117543
C     20.732990    7.118583    1.135154
H     20.161145    6.566599    1.803854
H     20.042195    6.510682    0.328667
10

C     20.018278    8.214559    0.744236
H     19.035487    8.225240    0.997378
C     20.400149    9.586444    0.558808
H     21.534289    9.583876    0.412657
C     19.997872   10.715126    1.187412
H     19.009347   10.709771    1.321579
H     20.664465   11.483945    1.256112
C     20.670271    7.144086    1.106598
H     20.120835    6.535598    1.951253
H     19.968721    6.763916    0.308399
10

C     20.111762    8.260111    1.091270
H     19.027412    8.512513    0.981736
C     20.619589    9.538663    0.800039
H     21.597597    9.384041    0.377136
C     19.812408   10.713092    0.968224
H     18.906291   10.873131    1.411758
H     20.488706   11.433170    1.080861
C     20.636620    7.010687    1.208446
H     20.175144    6.204658    1.737506
H     20.044186    7.032495    0.187458
10

C     19.531757    8.326832    0.963028
H     18.596527    8.486081    1.374947
C     20.743155    9.331084    0.986845
H     21.726319    9.043135    0.465602
C     20.113912   10.626963    1.012270
H     19.130279   10.485927    1.522245
H     20.322484   11.621985    0.909386
C     19.939518    6.960934    0.728100
H     20.597076    7.284784    1.796886
H     20.718689    6.794837    0.085124
10

C     19.583961    8.341338    1.100457
H     18.672580    8.525080    1.420849
C     20.724084    9.386771    0.956085
H     21.565903    8.909022    0.433683
C     20.067771   10.606099    1.043265
H     18.954192   10.602505    1.481086
H     20.460227   11.630672    0.876351
C     19.982621    6.900160    0.771033
H     20.562589    7.206067    1.688765
H     20.845786    6.854847    0.072859
10

C     19.673527    8.208636    1.338280
H     18.555657    8.321216    2.026745
C     20.560908    9.663165    0.965254
H     21.434576    9.064284    1.003077
C     20.087204   10.852776    0.699719
H     18.952236   10.918175    0.849252
H     20.722100   11.668623    0.768812
C     20.122949    6.685301    1.122315
H     21.294736    6.308721    1.005677
H     20.015823    7.271664    0.065302
10

C     19.620414    8.188282    1.457452
H     18.800231    8.385414    1.848282
C     20.491075    9.572841    0.987184
H     21.576340    9.203556    1.009670
C     20.038773   10.822998    0.762865
H     18.952775   10.789751    0.823011
H     20.724348   11.772157    0.720189
C     20.051022    6.657977    1.125616
H     21.269063    6.330248    0.884410
H     19.895674    7.239337    0.225753
10

C     19.635875    7.965608    1.314414
H     18.801046    8.226264    0.760791
C     20.880876    9.294032    0.442946
H     21.876579    9.757234    0.617375
C     19.886437   10.073028    1.098851
H     18.799129    9.906355    0.746347
H     20.071322   10.946818    1.788844
C     20.529389    7.901235    0.386874
H     19.655646    7.547818    2.236379
H     21.283416    7.344169    0.451612
10

C     19.753635    8.257432    0.989276
H     18.772477    8.609238    1.687046
C     20.391248    9.481407    0.681247
H     21.665374    9.411941    0.453953
C     19.896095   10.729016    1.009302
H     19.032866   10.697024    1.634228
H     20.533931   11.553966    0.648667
C     20.303705    7.058884    0.871325
H     19.698937    6.215537    1.310270
H     21.371446    6.948117    0.559118
10

C     19.921767    8.263951    0.953003
H     18.895107    8.629393    0.884753
C     20.506429    9.602705    0.675217
H     21.554088    9.579254    0.337679
C     20.070967   10.733634    1.216572
H     19.029470   10.712875    1.544827
H     20.563365   11.700422    1.118374
C     20.139625    6.980500    1.059314
H     20.403332    6.449064    1.974353
H     20.335565    6.310763    0.080342
10

C     19.941915    8.452316    0.917922
H     18.687171    8.141672    0.751067
C     20.578457    9.594378    0.671583
H     21.527618    9.603124    0.326975
C     19.988753   10.758272    1.180437
H     19.063609   10.860342    1.535155
H     20.741168   11.535373    1.188512
C     20.167252    6.959920    1.100245
H     20.602775    6.642611    1.990070
H     20.120998    6.414554    0.182466
10

C     19.905954    8.420579    0.873657
H     18.781812    8.252587    0.745351
C     20.604772    9.601181    0.701090
H     21.627929    9.587475    0.303967
C     19.972115   10.741669    1.120697
H     18.987554   10.938142    1.568941
H     20.680587   11.531911    1.258368
C     20.180730    6.983819    1.093092
H     20.566068    6.613113    2.031545
H     20.112196    6.292085    0.147724
10

C     19.587988    8.308683    0.894409
H     18.671634    9.058341    1.044456
C     20.558734    9.398980    0.547190
H     21.603209    9.281500    0.337569
C     19.981915   10.596114    0.946301
H     18.984790   10.784771    1.336592
H     20.589657   11.327303    1.495410
C     19.981182    6.812389    1.403848
H     21.088518    6.776002    1.404752
H     20.372089    6.618478    0.433907
10

C     19.631501    8.046312    1.208893
H     18.313415    8.276000    1.398549
C     20.325247    9.392105    0.910941
H     21.326401    9.284546    0.391651
C     20.131062   10.787409    1.264455
H     19.172306   11.306108    1.410983
H     20.724759   11.540777    0.822643
C     20.107789    6.788663    0.688326
H     20.797543    7.028656    1.851511
H     20.889691    6.511987   -0.103520
10

C     19.585105    8.201438    0.940822
H     18.647823    8.303753    1.842373
C     20.354440    9.476411    0.889266
H     21.456075    9.225096    0.624945
C     19.998619   10.719509    0.902492
H     18.900768   11.079531    1.293404
H     20.922832   11.319407    1.016552
C     19.898486    6.860227    0.791912
H     20.831432    7.260844    1.550790
H     20.824135    6.516347   -0.008124
10

C     19.642338    7.962765    1.281155
H     18.760516    8.277245    0.778624
C     20.906960    9.313020    0.474568
H     21.959653    9.764532    0.663537
C     19.846967   10.086882    1.015374
H     18.892833    9.992536    0.699863
H     19.907986   10.782429    1.819997
C     20.522158    7.981830    0.391571
H     19.568344    7.561274    2.205622
H     21.411961    7.240048    0.514121
10

C     19.906026    8.266137    0.232416
H     18.993296    8.120973    0.714629
C     20.627456    9.570731    0.527811
H     21.520014    9.334216   -0.004045
C     20.305221   10.676357    1.224087
H     19.130103   10.307929    1.432839
H     20.393476   11.688203    1.816507
C     19.955746    7.243821    1.090133
H     20.141436    7.510207    2.105272
H     20.446942    6.243987    0.704784
10

C     20.023243    8.257852    0.123301
H     18.913176    8.345004    0.894596
C     20.610336    9.537894    0.438336
H     21.718109    9.533016    0.180094
C     20.228695   10.586554    1.251265
H     19.226286   10.377945    1.298812
H     20.251926   11.417658    1.820879
C     19.872134    7.142734    1.070425
H     20.281742    7.434284    2.056118
H     20.294068    6.329620    0.710606
10

C     20.191027    8.305678    0.084349
H     19.193823    8.478346    0.828490
C     20.704591    9.657011    0.408981
H     21.722119    9.888991    0.398430
C     19.997760   10.417626    1.252292
H     18.767282   10.513214    1.388765
H     20.699728   11.332233    1.725846
C     19.963105    7.134416    1.046862
H     20.247413    7.257695    2.067227
H     19.932868    5.977351    0.643191
10

C     20.609150    8.195122    0.361419
H     19.502504    8.349019    0.702686
C     20.924743    9.462458    0.707364
H     21.903892    9.945946    0.421926
C     20.008988   10.390690    1.135430
H     19.121192   10.011125    1.397945
H     20.004283   11.502916    1.458125
C     20.156213    7.049755    1.153882
H     19.625546    7.460265    2.010147
H     19.563205    6.595265    0.495507
10

C     19.928990    8.204436    1.008981
H     18.911228    8.314368    1.395147
C     20.703722    9.521400    0.864064
H     21.768738    9.293080    0.600685
C     20.020972   10.622721    1.093621
H     18.822865   10.761065    1.141384
H     20.479304   11.657466    1.086555
C     20.594521    7.033456    0.753553
H     20.313731    6.886575    1.873938
H     19.875642    6.667995    0.026504
10

C     19.974685    8.276969    0.855700
H     18.872055    8.261414    0.824963
C     20.632408    9.527706    1.092702
H     21.608338    9.281431    0.703344
C     19.991785   10.771177    1.161408
H     19.136920   11.177941    1.788477
H     20.290598   11.580940    0.663404
C     20.594555    7.047658    0.642732
H     20.162264    7.056825    1.663128
H     20.156107    5.980502    0.448574
10

C     19.689638    8.394103    0.954813
H     18.654966    8.619638    1.068098
C     20.513295    9.385300    0.616582
H     21.582765    9.494386    0.519933
C     19.997987   10.478251    1.047838
H     19.015420   10.830892    1.471264
H     20.735598   11.288645    1.068870
C     20.020704    7.067400    1.469166
H     21.023487    6.617649    1.494661
H     20.185855    6.786298    0.133207
10

C     20.008537    8.255178    0.916483
H     19.137788    8.711816    1.281233
C     20.670401    9.530082    0.909366
H     21.681430    9.672021    0.565671
C     20.008934   10.811190    0.968486
H     19.039463   10.826120    1.292825
H     20.305326   11.846099    1.150169
C     20.255193    6.857833    0.938593
H     20.277387    6.313716    1.819634
H     20.035256    6.138506    0.001972
10

C     20.021243    8.262168    0.925295
H     18.858494    8.584494    1.172188
C     20.614660    9.646717    1.020967
H     21.698539    9.711452    0.563806
C     19.967471   10.768137    1.158139
H     18.920068   10.791402    1.501728
H     20.586318   11.613814    0.754760
C     20.256504    6.918865    0.874232
H     20.318494    6.323898    1.793660
H     20.177924    6.341614    0.079656
10

C     19.822905    8.351958    0.999166
H     18.750501    8.390621    1.075770
C     20.643890    9.558178    0.939472
H     21.629240    9.509871    0.430060
C     20.116490   10.659623    1.142024
H     19.010945   10.589873    1.349650
H     20.562400   11.661065    1.077644
C     20.534792    7.204141    0.617804
H     20.185551    6.838937    1.747031
H     20.163000    6.198293    0.465813
10

C     20.034766    8.280054    1.081843
H     18.911443    8.239542    0.965287
C     20.758441    9.683929    0.987256
H     21.744280    9.578402    0.638873
C     20.023819   10.710260    1.243758
H     18.965565   10.792895    1.612349
H     20.381647   11.487787    0.587603
C     20.672138    7.082305    0.815774
H     20.006185    6.627110    1.813502
H     19.921432    6.480277    0.098187
10

C     19.951131    8.332081    1.091343
H     19.021149    8.423513    0.916744
C     20.711131    9.546002    0.770508
H     21.803864    9.524868    0.400910
C     20.059734   10.693297    1.088318
H     19.091777   10.626050    1.534320
H     20.167928   11.778343    0.868300
C     20.558535    7.027489    1.335909
H     19.972606    6.183350    1.525589
H     20.081859    6.827568    0.312493
10

C     20.390152    8.263150    0.585862
H     19.382108    6.581249    0.559977
C     20.750605    9.582244    0.852010
H     21.720944    9.702129    0.895529
C     20.032852   10.712400    1.088034
H     18.918644   10.688248    0.836100
H     20.401224   11.708860    1.207214
C     20.452309    6.880153    0.646045
H     20.413802    6.464965    1.736842
H     20.987373    6.081772   -0.281296
10

C     21.020213    8.069943    0.971138
H     18.799890    7.633453    0.979357
C     21.076178    9.553680    0.971852
H     21.972824   10.070845    0.620264
C     20.003647   10.656038    1.225066
H     19.061638   10.195967    1.130510
H     19.983802   11.683014    0.716111
C     19.760432    7.219870    1.129021
H     19.785765    6.280995    1.685396
H     19.798141    6.853047   -0.041746
10

C     20.901229    8.285657    1.269392
H     18.754922    7.835996    1.651538
C     21.176332    9.774086    1.182654
H     22.138182    9.972749    0.860537
C     19.997924   10.506319    1.141620
H     19.077832    9.783354    1.214779
H     19.917975   11.129328    0.286943
C     19.747223    7.329378    1.014004
H     19.878388    6.391588    1.477283
H     19.627554    7.410940   -0.039599
10

C     19.751577    8.309090    1.017703
H     18.690268    8.488822    1.140626
C     20.604590    9.473075    0.976955
H     21.725810    9.372758    0.865985
C     20.068580   10.760219    0.998911
H     18.939247   10.783267    1.062525
H     20.701196   11.661337    1.027954
C     20.231409    7.047590    1.012836
H     21.207745    6.840287    1.033301
H     19.499292    6.226116    0.707638
10

C     19.752537    8.189238    1.250982
H     18.739564    8.588436    1.216140
C     20.351065    9.555367    0.959216
H     21.435738    9.329601    0.638389
C     19.997639   10.846881    1.180588
H     18.999279   11.081049    1.493745
H     20.729246   11.474343    0.586158
C     20.367279    7.015986    1.040246
H     20.760100    6.253599    1.660467
H     20.287268    6.628062   -0.181497
10

C     19.648380    8.267770    1.124319
H     18.468315    8.301955    1.296421
C     20.530328    9.451571    0.985332
H     21.590222    9.462576    0.629443
C     20.123029   10.738993    1.125193
H     19.256801   11.213765    1.649943
H     20.432020   11.593184    0.538188
C     20.191652    6.998790    0.942839
H     20.677047    6.447991    1.735626
H     20.501921    6.485967   -0.182872
10

C     19.605767    8.310780    1.057605
H     18.615752    8.284314    1.331937
C     20.521849    9.496019    1.000662
H     21.563886    9.373389    0.578634
C     20.062123   10.749449    1.088085
H     19.225654   10.989860    1.656428
H     20.515629   11.643374    0.595196
C     20.149822    7.059906    0.907631
H     20.546063    6.539656    1.771172
H     20.613170    6.515814   -0.142918
10

C     19.628897    8.333125    1.150292
H     18.629376    8.322979    1.064492
C     20.539101    9.518189    1.007004
H     21.492114    9.319533    0.519615
C     20.061500   10.750108    1.103120
H     19.189016   10.858079    1.710240
H     20.592373   11.608317    0.651614
C     20.152121    7.090062    0.878760
H     20.619203    6.663685    1.815395
H     20.516016    6.498483   -0.056098
10

C     19.776857    8.288819    1.230448
H     18.811748    8.599098    1.305600
C     20.502607    9.479883    0.707507
H     21.560364    9.489149    0.659079
C     20.025297   10.673943    1.081764
H     18.991286   10.873412    1.208205
H     20.687151   11.531805    1.085355
C     20.175626    6.982868    0.967575
H     20.849088    6.663993    1.691920
H     20.039692    6.379592   -0.093019
10

C     20.007074    8.275620    0.910214
H     18.935512    8.612419    1.287110
C     20.686137    9.597250    0.802632
H     21.806789    9.499711    0.592414
C     20.040067   10.823346    0.928067
H     18.909703   10.801431    1.173165
H     20.383799   11.795831    1.279599
C     20.219907    6.916252    0.899772
H     20.536755    6.295326    1.802728
H     19.893971    6.345375    0.168732
10

C     19.798289    8.162692    0.893278
H     18.965383    8.371990    1.443905
C     20.643965    9.528978    0.982656
H     21.755613    9.325671    0.774283
C     19.960356   10.685822    1.076742
H     19.058307   10.926498    1.514880
H     20.367671   11.651039    0.784467
C     20.449055    6.905654    0.720786
H     20.250757    7.207228    1.835568
H     20.170319    6.196989   -0.182131
10

C     19.819423    8.272621    1.164910
H     18.813796    8.440255    1.571434
C     20.515844    9.486950    0.862791
H     21.407205    9.423623    0.286521
C     19.947141   10.708587    1.041385
H     19.020574   10.865171    1.533303
H     20.540890   11.555984    0.674955
C     20.338190    6.974421    0.942792
H     19.713313    6.262203    1.324231
H     21.303341    6.972749    0.442110
10

C     19.758647    8.237950    1.163929
H     18.717596    8.530172    0.935322
C     20.425198    9.544629    0.880579
H     21.436966    9.419351    0.431750
C     20.026157   10.868103    1.085269
H     18.950769   10.972513    1.426134
H     20.817937   11.557955    1.068258
C     20.377987    6.997898    0.946482
H     20.764768    6.533327    1.756754
H     20.143690    6.300664    0.149957
10

C     19.794996    8.277449    1.024118
H     18.723134    8.208557    1.128269
C     20.576913    9.503997    1.025417
H     21.625143    9.514400    0.741298
C     20.039794   10.755773    1.124554
H     19.208555   10.960894    1.574651
H     20.440285   11.580661    0.603713
C     20.695906    7.165218    0.665593
H     20.239927    6.602753    1.718842
H     20.075062    6.392862    0.237977
10

C     19.785944    8.305281    0.974676
H     18.774940    8.219375    1.011872
C     20.558279    9.507624    1.050752
H     21.582107    9.358580    0.709789
C     20.005353   10.765545    1.053906
H     19.114471   10.987186    1.769456
H     20.496091   11.603487    0.570949
C     20.758246    7.221790    0.716793
H     20.195932    6.573188    1.796817
H     20.148351    6.420506    0.189422
10

C     20.129348    8.356488    1.157562
H     19.090317    8.498348    1.655992
C     20.938535    9.554118    1.131065
H     22.009452    9.661468    1.013877
C     20.006599   10.478537    0.872874
H     18.946669   10.357906    1.117457
H     20.134777   11.593162    0.627763
C     20.537386    7.031975    0.645958
H     20.090478    6.415677    1.618581
H     19.536154    7.014884    0.003303
10

C     19.907925    8.245193    0.828582
H     18.819245    8.267191    1.111679
C     20.514073    9.562568    0.579629
H     21.558193    9.357365    0.552116
C     20.027261   10.766860    0.831228
H     19.105413   10.869011    1.318175
H     20.495614   11.476020    1.436397
C     20.731936    7.067552    0.993548
H     20.408012    6.615074    1.940073
H     19.852043    6.735726    0.253005
10

C     19.682604    8.269095    1.174565
H     18.663321    8.421873    1.332615
C     20.492893    9.410472    0.819877
H     21.556573    9.202252    0.631781
C     20.021169   10.626476    1.016356
H     18.984557   10.957922    1.108118
H     20.654780   11.415723    0.934347
C     20.258800    6.999184    1.226571
H     21.102323    6.356784    1.441078
H     20.002694    7.302780    0.159125
10

C     20.277641    8.321783    1.530936
H     19.180546    8.256593    1.058091
C     20.546967    9.581360    0.857844
H     21.597685    9.614383    0.617542
C     19.925505   10.741555    0.944079
H     18.919971   10.815088    1.314582
H     20.541689   11.553794    0.896388
C     20.289180    6.986863    0.920304
H     20.234833    6.331149    1.719956
H     19.905699    6.759994   -0.015290
10

C     20.097750    8.252551    1.334690
H     19.337144    8.412440    2.061069
C     20.753372    9.615509    0.949103
H     21.820453    9.418588    1.006421
C     19.862865   10.641949    0.848496
H     18.933648   10.511998    0.317327
H     20.337060   11.684303    1.041502
C     20.424234    7.067971    0.759480
H     20.426241    6.021433    1.197236
H     19.426949    7.335820    0.329109
10

C     20.108184    8.236836    1.347316
H     19.251371    8.309794    2.121300
C     20.785557    9.609183    0.953214
H     21.862949    9.443907    1.115089
C     19.939506   10.677614    0.841782
H     18.985795   10.496073    0.286173
H     20.268051   11.696678    0.960723
C     20.394580    7.044739    0.783643
H     20.515009    6.073438    1.113861
H     19.308712    7.374299    0.321331
10

C     19.872237    8.276468    1.197219
H     18.802067    8.677638    1.151888
C     20.591577    9.506543    0.993968
H     21.623330    9.526638    0.791836
C     19.994665   10.762151    0.990235
H     18.953894   10.780442    1.110035
H     20.671235   11.656290    0.980248
C     20.339911    6.951060    0.847765
H     20.971244    6.398172    1.476955
H     19.599554    6.427160    0.304281
10

C     20.498209    8.286142    1.642838
H     19.202647    8.423387    1.401574
C     20.837074    9.573599    0.996584
H     21.893696    9.646596    0.757763
C     19.968863   10.601289    0.879503
H     18.881533   10.421746    0.921781
H     20.194913   11.563665    0.841961
C     20.187282    7.032978    0.884175
H     20.206697    6.168600    1.545165
H     19.548801    7.244559   -0.026912
10

C     19.985422    8.310046    0.890627
H     18.909923    8.315936    0.525133
C     20.664642    9.639107    0.679156
H     21.703299    9.568687    0.128139
C     19.962623   10.712556    1.284515
H     18.863616   10.519273    1.631181
H     20.673151   11.670320    1.191798
C     20.598321    7.207690    1.139297
H     19.956779    6.698143    1.829949
H     20.101939    6.320802    0.544640
10

C     20.095654    8.319510    1.664995
H     19.118287    7.998278    1.091181
C     20.664939    9.551078    1.248590
H     21.488924    9.391182    0.588085
C     20.096794   10.703822    1.039489
H     19.126280   10.782427    1.431526
H     20.255343   11.530350    0.353038
C     20.309701    7.097589    0.984982
H     20.184591    6.259614    1.677035
H     20.079202    7.328712   -0.234487
10

C     19.806886    8.314103    1.090728
H     18.819775    8.501819    1.548382
C     20.495951    9.532537    0.787776
H     21.560678    9.302832    0.445660
C     19.865742   10.759676    1.018103
H     19.050111   10.731218    1.710175
H     20.507005   11.570118    0.530946
C     20.278505    7.073814    0.958513
H     19.703339    6.259327    1.212256
H     21.331725    6.917116    0.541893
10

C     19.825458    8.343678    1.083409
H     18.787789    8.438972    1.517283
C     20.484415    9.546258    0.749439
H     21.629813    9.378313    0.448211
C     19.859375   10.756946    0.997065
H     19.075182   10.748621    1.718167
H     20.503542   11.594240    0.567958
C     20.298539    7.087499    0.938025
H     19.693050    6.165799    1.287228
H     21.262552    6.902238    0.537647
10

C     19.699579    8.257156    0.956937
H     18.711189    8.478381    1.044777
C     20.498218    9.551848    0.900421
H     21.475774    9.277340    0.662681
C     20.064749   10.821492    1.062907
H     18.992572   11.075999    1.077946
H     20.751813   11.526307    1.263671
C     20.264882    6.967855    0.927425
H     21.227163    6.850945    1.425350
H     19.733777    6.155238    0.522318
10

C     19.710016    8.235094    0.990576
H     18.686876    8.508470    1.013386
C     20.484681    9.537289    0.896892
H     21.488002    9.256057    0.694234
C     20.068521   10.815494    1.067863
H     18.974043   11.089605    1.080765
H     20.765121   11.537746    1.252692
C     20.293840    6.951301    0.949792
H     21.281238    6.934291    1.352793
H     19.667376    6.097214    0.545441
10

C     19.765011    8.299598    1.147696
H     18.612069    8.253699    1.197210
C     20.394268    9.568924    0.800280
H     21.446756    9.377203    0.454916
C     19.993959   10.845179    1.020166
H     19.049770   11.230683    1.186511
H     20.832191   11.643698    1.219078
C     20.247724    6.991080    1.056348
H     20.960717    6.428920    1.657618
H     20.117251    6.323578    0.104609
10

C     19.810473    8.296049    1.181527
H     18.779760    8.587631    1.164020
C     20.516757    9.487156    0.978491
H     21.499328    9.578028    0.670297
C     20.078032   10.783405    1.062028
H     19.080470   10.945795    1.511988
H     20.566078   11.655909    0.714947
C     20.276439    7.000898    0.869222
H     20.590298    6.308327    1.665397
H     20.222080    6.319362    0.026516
10

C     19.853182    8.336645    1.260101
H     18.903800    8.712063    0.965905
C     20.618827    9.464653    1.073058
H     21.649264    9.391245    0.772429
C     19.994233   10.700434    1.014237
H     19.073821   10.839407    1.601153
H     20.386897   11.556945    0.566498
C     20.206749    7.016339    0.981713
H     20.736612    6.322887    1.568223
H     19.996331    6.621943    0.041117
10

C     19.854660    8.328676    1.250691
H     18.883516    8.760353    1.119839
C     20.610055    9.458875    1.051452
H     21.608878    9.496974    0.758138
C     19.992945   10.659895    1.000831
H     19.096981   10.824216    1.525684
H     20.434852   11.666738    0.623506
C     20.194086    7.017437    0.967352
H     20.684174    6.249619    1.576910
H     20.059567    6.499778   -0.029970
10

C     19.535996    8.258202    0.668884
H     18.626106    8.843115    0.507502
C     20.482665    9.526958    0.591970
H     21.305054    9.065254    0.153011
C     20.034987   10.570659    1.236523
H     19.298397   10.158296    1.892010
H     20.681149   11.626206    1.253844
C     20.124099    7.168735    1.100740
H     20.667385    7.132889    2.190031
H     20.663875    6.612247    0.249918
10

C     19.503259    8.204461    0.718125
H     18.519114    8.475009    0.308021
C     20.445808    9.490081    0.579112
H     21.245069    9.567898   -0.240761
C     20.142704   10.472967    1.438001
H     19.156529   10.856738    1.903278
H     20.801773   11.465370    1.311926
C     20.219053    7.062579    1.026419
H     20.329313    6.915291    2.164090
H     21.057092    6.452167    0.636221
10

C     20.324790    8.211219    0.593071
H     19.037114    7.383679    1.794422
C     20.788982    9.634361    0.823221
H     21.933410    9.714245    0.719091
C     19.908908   10.612290    1.067951
H     18.997298   10.476749    1.420669
H     20.276871   11.592169    0.957925
C     20.130397    7.127301    1.424551
H     20.519595    6.123192    1.097915
H     19.502350    8.087356   -0.054383
10

C     20.301715    8.248645    0.547781
H     19.049557    6.734052    0.951564
C     21.224898    9.529757    0.939239
H     20.845267    9.698181   -0.091429
C     20.082023   10.529540    1.347018
H     19.018376   10.498618    1.019331
H     20.431977   11.246914    1.995268
C     19.932369    7.414767    1.387529
H     20.581525    7.038420    2.194255
H     19.952007    8.023667   -0.446122
10

C     19.890583    8.182832    0.762542
H     18.770513    7.996961    0.506408
C     20.455953    9.607063    0.821351
H     21.413302    9.395379    0.255409
C     19.849577   10.897198    1.053668
H     19.046161   11.281805    1.905474
H     20.785553   11.399712    1.137798
C     20.676438    7.058237    0.915318
H     20.095095    7.085723    1.747072
H     20.436541    6.057652    0.739392
10

C     19.873231    8.256311    0.787096
H     18.938519    8.310190    1.339973
C     20.650545    9.562396    0.709175
H     21.649135    9.712267    0.716053
C     20.066912   10.604379    1.281049
H     19.076376   10.682518    1.071067
H     20.529164   11.741971    1.150992
C     20.552568    6.927806    0.593421
H     20.257151    6.959021    1.845182
H     19.826115    6.205703    0.350425
10

C     19.761148    8.177466    1.034065
H     18.816724    8.232364    1.546388
C     20.385888    9.491088    0.797876
H     21.320093    9.323667    0.620734
C     20.048598   10.772150    1.031128
H     18.940960   10.966574    1.229046
H     20.873880   11.507791    1.176483
C     20.424811    6.925548    0.595368
H     20.540469    7.256781    2.010634
H     20.307145    6.309134   -0.197289
10

C     19.753992    8.256833    1.102065
H     18.902149    8.458447    1.524631
C     20.467563    9.493187    0.660951
H     21.498755    9.396639    0.241751
C     19.976767   10.786898    0.813139
H     18.898783   11.033176    1.400002
H     20.562995   11.567770    1.117096
C     20.257904    7.012972    0.998943
H     19.897327    6.062684    1.283051
H     21.203481    6.893955    0.702806
10

C     19.606010    8.227277    0.925597
H     18.597465    8.337664    1.148288
C     20.433550    9.536065    0.942799
H     21.576723    9.513054    0.364193
C     20.090374   10.768075    1.282746
H     19.153833   11.149322    1.700268
H     20.524615   11.487192    0.617260
C     20.162527    6.905673    0.873257
H     20.433372    6.324498    1.940729
H     20.841246    6.713741    0.049296
10

C     19.598387    8.229764    0.935857
H     18.570746    8.315473    1.181298
C     20.430757    9.539023    0.940484
H     21.559379    9.531721    0.394418
C     20.109548   10.778966    1.284366
H     19.237069   11.154865    1.699540
H     20.482242   11.480266    0.586288
C     20.148009    6.923880    0.922633
H     20.453252    6.332951    1.897635
H     20.830326    6.675653    0.001913
10

C     19.635888    8.234335    0.928852
H     18.487675    8.275320    1.092078
C     20.453570    9.481341    0.892158
H     21.368854    9.504301    0.646703
C     20.212968   10.814446    1.222309
H     19.351684   11.184747    1.838600
H     20.458604   11.545956    0.436798
C     20.145123    6.973596    1.057996
H     20.664099    6.404027    1.710780
H     20.641249    6.544493    0.018157
10

C     19.656002    8.301409    0.608649
H     18.582353    8.394559    0.916347
C     20.468320    9.467709    0.812924
H     21.332037    9.121405    0.599760
C     20.084553   10.798432    1.216712
H     19.260586   10.920588    1.991081
H     20.524079   11.667006    0.690898
C     20.567034    7.062628    0.982724
H     20.459363    6.859606    2.033337
H     20.485389    6.369218   -0.007999
10

C     19.786909    8.282105    0.701786
H     18.870323    8.240621    0.322724
C     20.486474    9.472966    0.596618
H     21.574528    9.691000    0.193706
C     20.029362   10.654134    1.038422
H     18.892368   10.721270    1.267750
H     20.782152   11.333865    1.453364
C     20.615079    7.173192    1.036059
H     20.382805    6.103503    1.261770
H     19.999714    7.289905    1.972236
10

C     19.666126    8.286376    1.142987
H     18.679614    8.382137    1.573596
C     20.542490    9.309453    0.804092
H     21.688309    9.509312    0.574492
C     20.035544   10.578467    0.974367
H     19.037011   10.484802    0.991631
H     20.732236   11.410478    1.070421
C     19.924258    6.980991    1.185065
H     20.958894    6.871152    1.331658
H     20.155234    7.149394    0.196124
10

C     19.724793    8.237609    0.594364
H     18.564703    8.483884    0.555698
C     20.464468    9.510915    0.555768
H     21.523316    9.575766    0.173594
C     20.056008   10.647040    1.306038
H     19.249054   10.618728    1.939153
H     20.641748   11.495561    1.142171
C     20.247289    7.170938    1.049303
H     20.277175    6.938156    2.047814
H     20.671161    6.283964    0.480533
10

C     19.613696    8.257145    1.125680
H     18.608327    8.805364    1.459593
C     20.494262    9.354069    0.999406
H     21.496599    9.049636    0.587452
C     20.018715   10.539857    1.034034
H     19.103768   10.496228    1.511853
H     20.579062   11.577724    0.715133
C     19.960754    6.957237    0.708194
H     20.700092    7.048355    1.619926
H     20.844440    6.876948    0.083160
10

C     19.609107    8.277476    1.266293
H     18.732579    8.683050    1.965279
C     20.461035    9.448193    0.866943
H     21.611762    9.468967    0.607613
C     19.919483   10.671893    1.074713
H     18.863495   10.889621    0.953200
H     20.859787   11.326979    0.982821
C     19.740113    6.876395    0.631532
H     20.833186    6.750112    1.449066
H     20.789166    6.569876    0.046972
10

C     19.615219    8.277814    1.228350
H     18.789767    8.666860    2.002654
C     20.484386    9.435272    0.867806
H     21.611563    9.452129    0.624270
C     19.963396   10.698584    1.073352
H     18.827469   10.886247    0.921686
H     20.809748   11.331870    0.988650
C     19.738827    6.894293    0.600433
H     20.777782    6.731155    1.429225
H     20.801559    6.588337    0.108005
10

C     19.924478    8.367431    1.104400
H     19.160532    7.445568    1.196707
C     20.479722    9.647077    0.813793
H     21.668624    9.493540    0.669575
C     19.966008   10.869144    1.089265
H     19.000349   11.266696    1.207692
H     20.644060   11.736598    0.879663
C     20.295409    7.027096    0.976691
H     20.423892    6.327098    1.785187
H     19.856641    6.782313    0.121460
10

C     19.870803    8.201692    0.987847
H     18.955613    8.642265    1.712485
C     20.566858    9.459281    0.791337
H     21.589586    9.312521    0.819868
C     19.894001   10.666551    1.005925
H     18.843475   11.098392    0.854667
H     20.579969   11.335055    1.182737
C     20.704302    7.118317    0.657065
H     20.549676    6.475510    1.612786
H     19.865433    6.652978    0.219717
10

C     19.903623    8.226604    0.917213
H     19.221287    5.611207    1.168880
C     20.670051    9.539206    0.903934
H     21.673331    9.707193    0.440140
C     19.968956   10.715662    1.103059
H     18.934666   10.903246    1.175790
H     20.589003   11.656366    1.091322
C     19.771536    6.671063    0.960864
H     20.552298    6.653670    1.722207
H     20.399176    6.510389    0.093084
10

C     20.126906    8.327835    0.966813
H     21.333435    7.251720    1.926057
C     20.640881    9.564921    0.715874
H     21.824403    9.753205    0.348039
C     19.873709   10.737599    0.946767
H     18.885360   10.843021    1.475871
H     20.464303   11.611966    1.031864
C     20.404122    6.969587    1.145428
H     19.730927    6.166019    1.686873
H     20.512028    6.609246    0.090083
10

C     19.821004    8.332930    1.226741
H     18.808801    8.288498    1.692557
C     20.511569    9.469844    0.785720
H     21.413110    9.165335    0.362927
C     19.947415   10.778243    0.936299
H     18.947494   10.830131    1.471969
H     20.597232   11.687625    0.750388
C     20.294573    7.132316    0.917819
H     19.827603    6.253396    1.375910
H     21.250913    7.024243    0.324102
10

C     19.854408    8.240961    1.221551
H     18.875887    8.331019    1.808870
C     20.483348    9.572831    0.825113
H     21.426914    9.215404    0.458522
C     19.881617   10.867641    0.946987
H     19.021812   11.080292    1.424967
H     20.524043   11.696069    0.681380
C     20.357368    7.026173    1.027749
H     19.830518    6.147286    1.222575
H     21.163801    6.784886    0.226718
10

C     19.894077    8.236500    1.216480
H     18.911517    8.284685    1.765328
C     20.472953    9.610672    0.821737
H     21.389749    9.161181    0.514846
C     19.930278   10.910123    0.943359
H     19.003964   11.016417    1.435435
H     20.512968   11.709229    0.651494
C     20.397600    7.012078    1.010042
H     19.823602    6.186429    1.219598
H     21.083007    6.835250    0.266114
10

C     19.906574    8.239435    1.217778
H     18.970316    8.210069    1.701729
C     20.459505    9.619011    0.822583
H     21.399700    9.203956    0.508025
C     19.971747   10.924542    0.951976
H     18.953728   10.989530    1.470270
H     20.531274   11.757426    0.627571
C     20.387920    6.993012    0.979541
H     19.778055    6.145106    1.299232
H     21.060897    6.880475    0.265727
10

C     19.814800    8.213502    1.258191
H     18.784473    8.458693    1.722628
C     20.388475    9.593537    0.940453
H     21.393468    9.469700    0.411549
C     19.878878   10.829417    1.095818
H     19.044039   11.307206    1.396233
H     20.634480   11.498118    0.630592
C     20.406984    6.932040    0.964946
H     20.025438    6.039378    1.412421
H     21.048680    6.620971    0.011602
10

C     19.776789    8.219152    1.197473
H     18.808425    8.550839    1.687173
C     20.394393    9.566126    0.937672
H     21.419164    9.471271    0.406018
C     19.903427   10.815572    1.122243
H     19.026341   11.262778    1.410278
H     20.617183   11.532995    0.667836
C     20.282423    6.924557    0.847174
H     20.064243    6.077985    1.481176
H     21.127326    6.541286    0.087390
10

C     19.821603    8.275110    1.206994
H     18.938800    8.408997    1.783266
C     20.661207    9.333361    0.874024
H     21.653453    9.210301    0.726310
C     19.992815   10.623192    1.018839
H     18.942660   10.879129    0.916524
H     20.460357   11.521104    0.961967
C     19.829982    6.828285    1.089579
H     20.915616    6.884247    1.370366
H     20.203223    6.998835   -0.103437
10

C     19.714982    8.259358    1.236674
H     18.832466    8.779252    1.749470
C     20.557603    9.387105    1.061996
H     21.499945    9.192833    0.438541
C     19.976511   10.556193    1.046480
H     18.968065   10.609517    0.935775
H     20.625205   11.368432    1.058331
C     19.843628    6.963478    0.886818
H     20.819041    6.948706    1.483943
H     20.582268    6.897687   -0.053596
10

C     19.792818    8.290179    1.056075
H     18.862162    8.322735    1.564392
C     20.404004    9.513474    0.827394
H     21.334539    9.254583    0.365141
C     19.943413   10.774823    1.070903
H     19.008554   11.158858    1.548773
H     20.595854   11.668298    0.666219
C     20.290154    7.016434    1.003055
H     19.914454    6.119344    1.370925
H     21.273764    6.843835    0.371555
10

C     19.649735    8.247053    1.002371
H     18.690871    8.564342    1.547689
C     20.531625    9.503615    0.923204
H     21.559810    9.364647    0.624061
C     20.051431   10.753275    1.176055
H     19.016857   11.039802    1.555442
H     20.495208   11.481886    0.552893
C     20.320789    6.987762    0.791797
H     20.340240    6.367216    1.708927
H     20.763149    6.652964   -0.038006
10

C     19.797775    8.393578    0.484785
H     18.907446    7.870545    1.202736
C     20.370756    9.632153    0.504951
H     21.645256    9.476528    0.521513
C     20.025167   10.782052    1.129951
H     19.126558   10.797204    1.407774
H     20.745634   11.733289    1.324956
C     20.187248    7.147870    0.973958
H     20.380407    6.874770    1.999814
H     20.233467    6.254573    0.293996
10

C     19.912095    8.433951    0.386663
H     19.206070    7.959144    0.987768
C     20.563834    9.661008    0.539620
H     21.555228    9.473546    0.613843
C     20.101109   10.737649    1.199592
H     18.872703   10.974866    1.519435
H     20.623981   11.548503    1.272464
C     20.230224    7.088772    0.943310
H     20.278388    6.994991    2.015815
H     20.076082    6.090131    0.365922
10

C     20.096118    8.349735    0.235027
H     18.929326    8.081923    1.046360
C     20.640211    9.678376    0.712298
H     21.918366    9.688809    0.514498
C     19.909177   10.628758    1.248655
H     19.013020   10.803713    1.376462
H     20.541351   11.655874    1.318677
C     20.315950    7.008310    0.900387
H     20.197342    7.000795    1.994159
H     19.858853    6.066268    0.497908
10

C     20.259136    8.294692    0.154986
H     18.909072    8.166170    0.888540
C     20.730513    9.642220    0.777957
H     21.980756    9.786648    0.627161
C     19.943674   10.620655    1.179021
H     18.825431   10.724796    1.200044
H     20.479065   11.512526    1.332040
C     20.322097    7.002437    0.864438
H     20.108366    6.960388    1.887358
H     19.813601    6.039036    0.384608
10

C     20.010682    8.425087    0.128770
H     19.080014    8.153922    0.994709
C     20.695813    9.646358    0.586979
H     21.809400    9.691717    0.630397
C     20.082973   10.653054    1.108706
H     19.026551   10.471511    1.395468
H     20.458045   11.557614    1.474839
C     20.306972    7.078871    0.816811
H     20.172424    7.136247    2.032776
H     19.776842    6.148181    0.674977
10

C     19.703237    8.331900    0.922739
H     18.665093    8.470016    0.794307
C     20.574522    9.481456    0.891160
H     21.621322    9.305707    0.815881
C     20.089861   10.744984    1.048465
H     18.985548   10.797168    1.245267
H     20.714451   11.609978    1.053008
C     20.284098    7.037490    0.989746
H     21.255809    6.841282    1.174237
H     19.525774    6.342580    0.909623
10

C     19.581739    8.165915    0.907388
H     18.554433    8.476292    1.364747
C     20.546161    9.309850    0.840178
H     21.597075    9.035132    0.596781
C     20.064872   10.558477    0.933646
H     19.172567   10.609943    1.657316
H     20.494018   11.577635    0.884657
C     20.012810    6.995483    0.893705
H     20.700867    7.399365    1.735150
H     20.695173    6.834470    0.030865
10

C     19.558946    8.240942    0.858452
H     18.788032    8.576444    1.480635
C     20.534801    9.354214    0.842037
H     21.484071    8.901722    0.732684
C     20.078408   10.513176    0.923456
H     19.209000   10.538523    1.540029
H     20.420040   11.515457    0.935327
C     19.977532    6.965565    0.845678
H     20.743173    7.573130    1.698455
H     20.625713    6.783387   -0.012321
10

C     19.605117    8.383931    1.052814
H     18.771300    8.558011    1.719252
C     20.560695    9.331175    0.839476
H     21.598801    9.217321    0.528779
C     20.017907   10.593234    1.182320
H     18.878412   10.640893    1.188226
H     20.691908   11.449794    0.984926
C     19.922810    6.820233    0.751929
H     20.637399    7.356155    1.621252
H     20.735367    6.611813   -0.024543
10

C     19.874018    8.272780    0.760333
H     18.748086    8.532706    1.021224
C     20.479936    9.603587    0.837775
H     21.519681    9.478836    0.510612
C     20.016329   10.829761    1.141852
H     19.054180   10.957304    1.707998
H     20.606120   11.755481    0.918555
C     20.334502    6.912480    0.878892
H     20.376170    6.518705    1.929795
H     20.410694    6.100921    0.137398
10

C     19.827812    8.255873    0.783956
H     18.831204    8.647316    0.884244
C     20.468342    9.561172    0.814601
H     21.436444    9.644264    0.366420
C     20.077480   10.748418    1.209783
H     19.093712   10.915768    1.524701
H     20.621596   11.629837    1.147713
C     20.218023    6.934820    0.913131
H     20.511649    6.532093    1.953294
H     20.333452    6.092999    0.246591
10

C     19.942028    8.362728    0.442981
H     19.006662    8.069826    1.162511
C     20.573374    9.608347    0.698691
H     21.643742    9.537077    0.415384
C     19.981087   10.732533    1.222071
H     18.925592   10.926457    1.314700
H     20.667824   11.496445    1.330330
C     20.192535    7.093670    0.969875
H     20.374699    6.798519    2.124463
H     20.112173    6.336960    0.163427
10

C     19.971887    8.407153    0.343158
H     19.228260    7.987923    1.060800
C     20.624438    9.635908    0.640961
H     21.704908    9.531717    0.546069
C     19.979312   10.678706    1.150140
H     18.899346   10.820968    1.360647
H     20.594933   11.607697    1.371666
C     20.301031    7.079587    0.950876
H     20.172992    7.028334    1.926356
H     19.942608    6.184569    0.493760
10

C     19.866615    8.256076    0.990867
H     19.015257    8.441720    0.608518
C     20.533991    9.549362    1.035320
H     21.509960    9.556099    0.308683
C     19.977930   10.730482    1.187326
H     19.424195   10.888761    1.977815
H     20.204150   11.585336    0.633601
C     20.267251    7.013834    1.032424
H     19.997107    6.453237    1.896387
H     20.623260    6.487656    0.173492
10

C     19.873903    8.180594    0.936955
H     18.816235    8.182686    0.896875
C     20.630606    9.519046    0.985885
H     21.565051    9.468044    0.680511
C     20.047736   10.690519    1.073592
H     19.318704   10.857531    2.014573
H     20.284362   11.626430    0.502867
C     20.509615    7.020216    0.840797
H     19.990544    7.081059    1.765733
H     20.382960    6.336437    0.146644
10

C     19.749435    8.301832    1.170780
H     18.770711    8.316891    1.639370
C     20.479601    9.520257    0.789717
H     21.531796    9.343310    0.366123
C     19.983919   10.776036    1.082372
H     19.013024   11.100834    1.472081
H     20.472935   11.525818    0.648495
C     20.316214    7.034677    0.957855
H     19.897949    6.024123    1.406438
H     21.204131    7.018784    0.311203
10

C     19.971058    8.243315    1.119013
H     18.839911    8.230324    1.391593
C     20.551281    9.531877    0.733095
H     21.647029    9.546285    0.600184
C     20.070084   10.689597    0.894615
H     19.033674   10.901950    0.955969
H     20.467786   11.697124    1.236950
C     20.657757    6.948421    0.958570
H     20.429737    6.179861    1.660098
H     19.751398    6.993807    0.294347
10

C     19.644953    8.307652    0.915247
H     18.729160    8.189545    1.464833
C     20.533159    9.397472    0.853420
H     21.584449    9.350389    0.717905
C     19.998084   10.705448    1.075620
H     19.046828   11.056724    1.467985
H     20.644912   11.562239    0.781892
C     19.851545    6.885237    0.604898
H     20.643603    6.990989    1.608743
H     20.743022    6.516867    0.353889
10

C     19.559092    8.258866    1.080407
H     18.506539    8.400625    1.284536
C     20.488806    9.393792    0.796522
H     21.528507    9.141546    0.783299
C     20.032105   10.680605    0.991270
H     19.155181   10.835021    1.555563
H     20.663449   11.537115    0.648038
C     20.046184    6.917199    1.312126
H     21.163121    6.775361    1.385182
H     20.276730    7.022433    0.007490
10

C     19.686267    8.189697    0.930167
H     18.916581    8.541662    1.471431
C     20.487524    9.416436    0.778216
H     21.519148    9.180532    0.744840
C     20.065444   10.687449    1.017530
H     19.090625   10.671015    1.345816
H     20.533402   11.709850    1.001865
C     20.012723    6.756743    0.923694
H     20.702995    7.360211    1.505282
H     20.405006    6.448967    0.125590
10

C     20.008941    8.166663    1.293781
H     18.979924    8.217158    1.943978
C     20.484342    9.433309    0.988010
H     21.584710    9.719266    1.193069
C     20.002638   10.689076    0.790679
H     18.991296   10.894324    0.597832
H     20.661610   11.652895    0.806212
C     20.564878    6.943939    0.636700
H     20.711732    6.064846    1.243436
H     19.429644    7.181085    0.350737
10

C     20.251683    8.251045    0.921515
H     19.351860    8.549480    1.052499
C     20.844941    9.536074    0.574719
H     21.818098    9.972436    0.621645
C     20.011134   10.603672    0.996828
H     18.854775   10.801516    1.219620
H     20.195560   11.569176    1.315865
C     20.579152    6.870732    0.951612
H     19.823605    6.404289    1.667908
H     19.688908    6.404141    0.522222
10

C     20.281309    8.188929    0.895386
H     19.118471    8.568105    1.034448
C     20.781138    9.507977    0.574028
H     21.793921   10.052888    0.541128
C     20.010756   10.548505    0.974886
H     18.944103   10.732009    1.262458
H     20.274851   11.498813    1.375396
C     20.621894    6.830163    0.975819
H     19.898989    6.531190    1.817397
H     19.694284    6.503982    0.393488
10

C     19.954418    8.311861    0.912079
H     18.860324    8.533831    0.857305
C     20.728717    9.538313    0.741366
H     21.775725    9.430662    0.431788
C     20.101872   10.710943    1.132385
H     18.953943   10.862346    1.576579
H     20.251789   11.786234    1.033259
C     20.663602    7.145025    1.088031
H     20.094535    6.344463    1.697717
H     20.034791    6.298883    0.373924
10

C     19.644028    8.246219    1.290385
H     18.525939    8.506365    1.452803
C     20.478576    9.493970    0.737629
H     21.548937    9.373754    0.685702
C     19.956939   10.713679    0.842934
H     18.968638   10.806544    1.226219
H     20.890105   11.411902    0.936187
C     20.085547    6.875055    1.370017
H     21.168412    6.525391    1.143870
H     20.152594    7.009682    0.158687
10

C     20.048437    8.265973    1.057560
H     18.791844    8.512980    1.378979
C     20.731238    9.517540    1.151657
H     21.692306    9.298710    0.904512
C     20.147119   10.690367    1.187367
H     18.907660   10.609741    1.507195
H     20.320069   11.658788    0.403109
C     20.583822    7.045267    0.600323
H     20.225304    6.833400    1.741151
H     19.971918    6.529797   -0.087421
10

C     19.766746    8.309143    1.160762
H     18.955693    8.278734    1.684850
C     20.497113    9.494644    0.831363
H     21.504377    9.410718    0.502836
C     19.966064   10.775762    0.992045
H     18.891083   10.847025    1.569902
H     20.643743   11.737442    0.546789
C     20.226042    7.067707    0.901783
H     19.801299    6.165815    1.369781
H     21.167555    6.875571    0.284321
10

C     19.633819    8.348148    0.984885
H     18.518780    8.304133    1.402511
C     20.532901    9.535768    1.049972
H     21.529717    9.521678    0.574268
C     20.112249   10.789624    1.068301
H     18.972980   11.051369    1.649650
H     20.704028   11.456035    0.517034
C     20.174129    6.995250    0.877775
H     20.533601    6.319692    1.609254
H     20.707513    6.640864    0.110781
10

C     19.667970    8.360000    1.084089
H     18.606547    8.506748    1.284228
C     20.454313    9.553804    0.705039
H     21.572254    9.595677    0.365849
C     20.033399   10.688849    0.963745
H     19.036479   11.020440    1.150489
H     20.779010   11.416281    1.408534
C     20.206878    7.116676    0.990890
H     20.822680    6.393101    1.705243
H     20.240185    6.310985    0.186326
10

C     19.801805    8.177079    1.033409
H     18.852033    8.390097    1.420618
C     20.523900    9.496956    0.755746
H     21.649084    9.348213    0.805875
C     20.075497   10.670609    0.971231
H     18.767823   11.039051    1.167481
H     20.653964   11.457407    0.957541
C     20.616295    7.200513    0.971192
H     20.677498    6.302825    1.584089
H     19.801817    6.879813    0.177251
10

C     19.807792    8.242494    0.991934
H     18.698666    8.190735    1.146603
C     20.530995    9.476724    0.877995
H     21.606408    9.122193    0.591667
C     19.992057   10.801626    1.132104
H     18.922359   10.943321    1.451294
H     20.700947   11.708032    0.886576
C     20.240173    6.985005    0.954502
H     20.778709    6.896212    1.806053
H     20.141609    6.596219    0.005705
10

C     20.075795    8.207003    0.776600
H     18.864711    8.573175    0.601611
C     20.648146    9.596595    0.741965
H     21.529680    9.339055    0.041319
C     20.023375   10.581541    1.236866
H     18.878047   10.398207    1.788167
H     20.582788   11.509542    1.309818
C     20.437650    7.035951    1.006236
H     19.929545    7.432023    2.129613
H     20.449977    6.289471    0.212237
10

C     20.220842    8.426716    0.905378
H     19.162499    8.591538    0.840966
C     20.787483    9.651208    0.947669
H     21.717716    9.393453    0.483156
C     20.027511   10.657503    1.272242
H     18.962759   10.573786    1.281184
H     20.149048   11.585776    1.120358
C     20.673475    6.919705    0.664586
H     19.949420    6.817395    1.893671
H     19.768961    6.345481    0.435222
10

C     19.729607    8.136422    1.255605
H     18.686216    8.698581    1.636992
C     20.577552    9.483956    0.876299
H     21.670313    8.970417    0.729898
C     19.993137   10.705168    0.956879
H     18.816151   10.576227    0.947464
H     20.682943   11.559713    0.962879
C     20.092001    6.980042    1.110369
H     21.203486    6.592040    1.425689
H     19.968311    7.259995   -0.057640
10

C     19.701608    8.197492    1.071504
H     18.694228    8.595893    0.837789
C     20.655680    9.384617    0.947145
H     21.777129    9.321843    0.692138
C     20.076528   10.513394    1.071481
H     19.114460   10.767112    1.466409
H     20.385740   11.600959    0.793260
C     20.006399    6.895609    1.135058
H     21.207115    6.643699    1.673414
H     20.663706    7.093216   -0.571876
10

C     19.656218    8.352343    1.003601
H     18.613058    8.430365    1.188551
C     20.614942    9.405019    1.101111
H     21.651732    9.113530    0.668177
C     20.163437   10.691372    1.036687
H     19.191261   10.370660    1.204155
H     20.491145   11.784186    0.809251
C     19.944048    6.974782    1.343176
H     21.293045    6.798358    1.333490
H     20.757928    7.109826   -0.669913
10

C     20.144914    8.178944    1.582518
H     19.374179    8.107212    2.264933
C     20.653420    9.695385    1.251826
H     21.775587    9.962454    1.213635
C     19.988053   10.570607    0.696889
H     18.991720   10.716812    0.478250
H     20.467757   11.820400    0.580498
C     20.500832    7.166276    0.753571
H     20.121356    5.921373    0.819695
H     19.401898    6.823098    0.202619
10

C     19.917993    8.122500    0.713929
H     18.816031    7.952549    0.735277
C     20.498504    9.565133    0.864035
H     21.515538    9.645715    0.524384
C     19.920436   10.858939    1.075106
H     19.260872   11.040450    2.032287
H     20.584955   11.756086    0.770659
C     20.735646    6.939823    0.910359
H     19.890775    6.968095    1.950863
H     20.278965    6.113271    0.267534
10

C     19.899926    8.165878    0.724250
H     18.842845    8.009766    0.683651
C     20.478919    9.589041    0.845567
H     21.446062    9.677015    0.522650
C     19.897721   10.875766    1.071280
H     19.311444   10.999512    2.041753
H     20.618330   11.766681    0.802184
C     20.755598    6.955639    0.863377
H     19.858993    6.920084    1.924210
H     20.309878    6.003178    0.365511
10

C     19.972850    8.146697    0.737287
H     19.437355    7.139703    1.875757
C     20.543879    9.549827    0.748685
H     21.579520    9.768335    0.676553
C     19.854915   10.780807    0.936596
H     19.056193   10.896383    1.754870
H     20.671941   11.660642    0.869305
C     20.596032    6.965898    1.330059
H     20.592337    5.838845    1.060968
H     19.114692    8.215425   -0.145647
10

C     19.789534    8.277374    0.989085
H     18.740452    8.356193    1.253064
C     20.516652    9.599611    0.718069
H     21.543743    9.575942    0.801681
C     19.984980   10.854749    0.925193
H     19.056912   11.050394    1.574871
H     20.645079   11.681726    0.753894
C     20.741699    7.139535    1.066749
H     20.369106    5.929880    1.577021
H     20.031559    6.497157    0.184805
10

C     19.976276    8.415557    0.871289
H     18.704287    8.366775    1.005096
C     20.641951    9.572731    0.484687
H     21.643466    9.260868    0.244813
C     20.053070   10.664108    1.127618
H     18.910592   10.629947    1.136473
H     20.548807   11.419080    1.620335
C     20.678878    7.317075    0.977346
H     20.331963    6.621876    2.017373
H     19.930424    6.694545    0.359403
10

C     20.175631    8.235304    0.843648
H     18.969439    8.006537    0.773083
C     20.502888    9.702944    0.821813
H     21.446155    9.645211    0.425557
C     19.957862   10.850390    1.052516
H     19.116505   11.062852    1.782684
H     20.639541   11.804377    1.019710
C     20.085562    6.951866    0.933118
H     20.191629    6.636862    2.078093
H     20.334504    6.066218    0.114210
10

C     19.864693    8.331533    1.107353
H     19.032721    8.536088    1.544247
C     20.507534    9.492767    0.816928
H     21.560585    9.354889    0.368611
C     19.944592   10.766233    0.974459
H     18.941243   10.806165    1.518055
H     20.437614   11.637319    0.768126
C     20.276392    7.072960    0.931077
H     19.680553    6.163147    1.295069
H     21.173788    6.801462    0.520507
10

C     19.604860    8.374229    1.008260
H     18.687226    8.415910    1.522882
C     20.626390    9.433175    0.959706
H     21.630862    9.300511    0.799376
C     20.077403   10.754739    0.924536
H     19.009900   10.713751    1.142092
H     20.668017   11.723121    0.993205
C     20.280505    7.132765    0.871178
H     20.936753    6.701134    1.507394
H     19.897799    6.413226    0.115805
10

C     19.582274    8.308501    0.965615
H     18.840264    8.323625    1.727760
C     20.432066    9.417851    0.969022
H     21.407868    9.232942    0.866500
C     20.060591   10.759441    0.910712
H     19.050454   11.015577    1.273007
H     20.695535   11.654884    0.781943
C     20.260501    7.034323    0.869239
H     20.822589    6.556698    1.652599
H     20.267573    6.658719   -0.171963
10

C     19.633713    8.419478    0.964869
H     18.649033    8.348519    1.606433
C     20.616747    9.398477    0.890457
H     21.698667    9.219276    0.843712
C     20.142822   10.754476    0.857570
H     19.004591   10.717842    1.114376
H     20.580969   11.737982    1.077605
C     20.255169    7.166245    0.819513
H     20.972206    6.699857    1.636832
H     19.865799    6.500410    0.033066
10

C     19.587570    8.284522    0.909523
H     18.668367    8.398163    1.842016
C     20.401877    9.411869    0.908341
H     21.496130    9.109245    0.911186
C     20.072141   10.749838    0.876481
H     19.019020   11.012251    1.272862
H     20.687032   11.586589    0.817008
C     20.166849    7.006685    0.830617
H     20.975161    6.663647    1.669832
H     20.345568    6.739752   -0.193433
10

C     19.652789    8.427250    0.962102
H     18.684666    8.345862    1.667469
C     20.586971    9.387713    0.832055
H     21.706077    9.140544    0.880104
C     20.157510   10.736237    0.819190
H     19.071698   10.731723    1.073288
H     20.475016   11.697779    1.143188
C     20.240837    7.186021    0.783161
H     20.964377    6.734883    1.688655
H     19.879774    6.574550   -0.004779
10

C     19.371137    8.305695    0.587057
H     19.260688    8.304861    2.016526
C     20.427877    9.485851    0.905578
H     21.611518    9.352461    0.972713
C     19.980879   10.779983    1.033754
H     18.929882   11.075956    0.712647
H     20.789110   11.438181    1.249638
C     20.140779    7.083747    0.669476
H     20.985057    6.973334    1.561092
H     19.922787    6.162493    0.135951
10

C     19.765465    8.295604    1.017006
H     18.837128    8.461564    1.434133
C     20.614576    9.500858    0.530245
H     20.990712    9.449373    2.037056
C     19.808630   10.770959    0.904279
H     19.517925   10.742017    1.893606
H     20.133387   11.736375    0.550673
C     20.284537    7.046512    1.016217
H     19.728314    6.181226    1.395756
H     21.018589    6.733956    0.369252
10

C     19.785845    8.329451    1.135892
H     18.632720    8.427603    1.651292
C     20.495610    9.478291    0.741636
H     21.461519    9.420456    0.377194
C     20.048652   10.748087    0.964472
H     18.976625   10.675904    1.520659
H     20.650455   11.606966    0.802502
C     20.264053    7.094288    0.813783
H     19.841487    6.435560    1.331442
H     21.262748    6.745956    0.505561
10

C     19.860491    8.231287    1.077179
H     18.765890    8.703790    1.476262
C     20.666060    9.517400    0.793185
H     21.808259    9.348283    0.770325
C     20.098975   10.622576    0.849692
H     18.843994   10.655162    1.092080
H     20.427231   11.596570    1.064689
C     20.546618    7.043652    0.991799
H     20.703806    6.192217    1.630090
H     19.698393    7.051625    0.099131
10

C     19.603504    8.334165    0.943735
H     18.682447    8.413244    1.106232
C     20.495334    9.471323    0.919716
H     21.569731    9.293479    0.658606
C     20.110313   10.771092    1.290541
H     19.219586   10.906949    1.612526
H     20.461824   11.584502    0.581721
C     20.219340    7.141093    0.900158
H     20.687383    6.519644    1.780852
H     20.370255    6.527070    0.050347
10

C     19.704012    8.303473    0.901613
H     18.518198    8.391071    1.211839
C     20.512909    9.415750    0.885426
H     21.492006    9.515392    0.545960
C     20.212504   10.707127    1.307111
H     19.079150   11.072840    1.595234
H     20.541875   11.419859    0.656986
C     20.341004    7.062286    0.966386
H     20.570614    6.574831    1.812653
H     20.447444    6.499932   -0.038777
10

C     19.916120    8.239638    0.902031
H     18.728220    8.322470    0.494919
C     20.415428    9.660005    0.594685
H     21.372173    9.362588    0.136014
C     19.942122   10.869435    0.984362
H     19.107260   10.975076    1.750230
H     20.704133   11.521180    1.434503
C     20.768370    7.143970    1.056885
H     20.134478    6.640038    1.894734
H     20.331411    6.228161    0.596070
10

C     19.798330    8.239154    1.261050
H     18.949883    8.814047    1.477911
C     20.576080    9.453946    1.254997
H     21.569376    9.439349    0.717029
C     20.184757   10.768412    1.151989
H     19.055581   10.952840    1.445689
H     20.239381   11.488483    0.423776
C     20.217234    7.044800    0.846717
H     20.432815    6.403679    1.537011
H     20.396278    6.357852   -0.271738
10

C     20.338732    8.259487    1.160902
H     19.315390    7.997546    1.286717
C     20.765577    9.601060    1.255558
H     21.708622    9.889446    0.771095
C     20.153924   10.858117    1.148353
H     18.998573   10.813204    1.335006
H     20.176315   11.546596    0.396759
C     20.127873    6.913175    0.985417
H     20.025376    6.315785    1.672567
H     19.809334    6.768145   -0.167942
10

C     19.832576    8.279857    1.243838
H     18.824686    8.736255    1.495413
C     20.517390    9.538651    1.286543
H     21.671724    9.578236    0.762309
C     20.130678   10.789793    1.211186
H     19.066915   10.934518    1.517410
H     20.294057   11.301491    0.187585
C     20.348962    7.071173    0.760482
H     20.314037    6.079862    1.582779
H     20.418689    6.652724   -0.203113
10

C     20.156315    8.402239    1.522889
H     19.060030    8.479704    1.729526
C     20.840774    9.580738    0.929947
H     21.793557    9.459970    1.080657
C     19.910807   10.635379    0.916190
H     18.833453   10.831636    1.051722
H     20.350636   11.631789    0.509916
C     20.320676    7.211620    0.890207
H     20.397912    5.849818    1.229919
H     19.755556    6.879669   -0.016539
10

C     19.811589    8.224510    1.592713
H     18.707827    8.429129    1.829783
C     20.385633    9.564132    1.366660
H     21.400105    9.301854    0.834309
C     20.081879   10.686018    0.892679
H     19.049464   10.849740    1.088580
H     20.730527   11.317415    0.436351
C     20.100391    7.119823    0.843083
H     20.953093    6.470961    1.387222
H     20.199207    6.998980   -0.426948
10

C     19.562598    8.152176    1.364477
H     18.693324    8.221590    2.111196
C     20.358245    9.492100    1.468474
H     21.390403    9.008114    0.747137
C     20.060566   10.648101    0.952393
H     19.019823   10.931262    1.006372
H     20.788705   11.306202    0.483599
C     19.931963    7.042256    0.575329
H     20.983207    7.003372    1.535820
H     20.630881    7.157388   -0.400366
10

C     19.603013    8.268468    1.105726
H     18.530984    8.738303    1.273540
C     20.606347    9.322767    0.728873
H     21.386037    8.904971    0.367801
C     20.035140   10.764498    1.079605
H     18.765248   10.913116    1.390796
H     20.762140   11.517310    1.138455
C     19.946527    6.727178    1.144892
H     21.087910    7.091247    1.545028
H     20.696369    6.714703    0.069717
10

C     19.891963    8.179473    1.256637
H     18.867596    8.653497    0.991589
C     20.756002    9.575205    1.039354
H     21.575433    9.397696    0.446591
C     20.103029   10.862721    1.179364
H     18.841378   10.857936    1.554804
H     20.423173   11.782613    0.678889
C     20.303286    6.930208    0.976337
H     20.430758    6.157312    1.850676
H     20.227098    6.565900   -0.129808
10

C     19.735226    8.159463    1.002798
H     18.928389    8.821548    1.274621
C     20.529349    9.542134    1.077875
H     21.650979    9.610806    0.627998
C     19.989653   10.727447    1.109023
H     19.087880   10.656143    1.463555
H     20.515473   11.544924    0.655888
C     20.175903    6.975948    0.949914
H     20.564486    6.246048    1.760268
H     20.242376    6.678100   -0.077507
10

C     19.765574    8.194409    0.859231
H     18.725293    8.634189    1.415133
C     20.535320    9.547271    1.043463
H     21.709730    9.670432    0.706273
C     19.996692   10.668794    1.022020
H     19.155582   10.661995    1.434623
H     20.532490   11.525773    0.675534
C     20.238005    6.982685    0.920216
H     20.612229    6.191512    1.845182
H     20.148800    6.885502   -0.077243
10

C     19.721575    8.189517    0.978689
H     18.816355    8.643232    1.093556
C     20.487446    9.614709    0.877910
H     21.720176    9.273585    0.598518
C     19.877467   10.886652    0.983694
H     19.331132   11.056273    1.923970
H     20.240815   11.806489    0.637095
C     20.247613    6.976303    0.897315
H     20.263936    6.158949    1.838644
H     20.713200    6.356854    0.015042
10

C     19.732308    8.153211    0.909155
H     18.799390    8.633705    0.953367
C     20.510408    9.604788    0.962614
H     21.765422    9.420429    0.653921
C     19.945150   10.840496    1.000879
H     19.332556   11.042549    1.985843
H     20.205986   11.770884    0.537569
C     20.259275    6.902453    0.897462
H     20.354455    6.121126    1.913299
H     20.514765    6.472921    0.030324
10

C     19.758910    8.129270    0.880338
H     18.748181    8.653471    1.015596
C     20.534704    9.585742    1.004419
H     21.616779    9.539192    0.704664
C     19.984918   10.801072    1.037856
H     19.387743   11.011367    1.951414
H     20.246403   11.731496    0.456394
C     20.255494    6.851121    0.942915
H     20.404680    6.141723    1.865929
H     20.481902    6.518107   -0.015092
10

C     19.768165    8.294381    0.859256
H     18.702253    8.358142    1.065990
C     20.516142    9.571833    1.085010
H     21.673325    9.667635    0.496905
C     20.050637   10.828014    1.279654
H     18.960623   11.145746    1.635247
H     20.641377   11.449440    0.597051
C     20.065134    6.888315    0.901325
H     20.630298    6.315767    1.868635
H     20.411762    6.443289    0.055359
10

C     19.803270    8.280437    1.053168
H     18.714262    8.315509    0.904209
C     20.533442    9.547039    1.068542
H     21.421492    9.573123    0.364377
C     20.043752   10.812888    1.322920
H     19.000117   11.102060    1.509025
H     20.749567   11.510231    0.739375
C     20.053664    6.912691    1.002416
H     20.753448    6.457408    1.809938
H     20.346702    6.451176    0.070462
10

C     19.518341    8.315271    1.045946
H     18.657339    8.524363    1.772456
C     20.507353    9.325851    0.583311
H     21.666400    9.253748    0.575592
C     20.028415   10.518029    0.857572
H     19.020977   10.563516    1.018128
H     20.727050   11.188191    1.511716
C     19.974125    6.930764    0.940344
H     20.931929    7.755098    1.526066
H     20.387784    6.587730    0.013302
10

C     19.766853    8.411596    1.215295
H     18.680827    8.341992    1.503793
C     20.553748    9.600021    0.605784
H     21.593677    9.544797    0.614519
C     19.961702   10.771650    0.767777
H     19.025313   10.822733    1.096983
H     20.768447   11.346928    1.307990
C     20.254970    7.109402    1.109237
H     20.801685    6.304359    1.585642
H     20.012493    6.709083    0.037413
10

C     19.802023    8.275019    1.282271
H     18.645456    8.330766    1.262886
C     20.580668    9.514875    1.048437
H     21.610577    9.205170    0.619856
C     20.026516   10.796591    1.003637
H     19.105121   10.881742    1.424661
H     20.529470   11.875110    0.730444
C     20.113791    7.112934    0.765038
H     20.690024    6.453548    1.678256
H     20.316068    6.516806    0.028945
10

C     20.004693    8.245496    1.150121
H     18.996393    8.201457    1.025546
C     20.785568    9.500083    1.066471
H     21.669100    9.657214    0.697154
C     20.015961   10.648660    0.975505
H     19.218144   10.859447    1.661427
H     20.139817   11.509059    0.448873
C     20.605363    7.043564    1.116880
H     20.059805    6.148853    1.706027
H     19.924871    7.148730   -0.003572
10

C     20.035183    8.191337    1.163925
H     18.945101    8.303311    1.164883
C     20.743822    9.393212    1.054436
H     21.815562    9.607373    0.680974
C     20.049327   10.591308    1.022688
H     19.096572   11.020055    1.492057
H     20.071252   11.607607    0.486621
C     20.587989    6.982711    1.091024
H     20.083348    6.121666    1.480374
H     19.991560    7.143982    0.207451
10

C     19.859766    8.301835    1.741574
H     18.863893    8.435670    2.339399
C     20.623595    9.394269    1.115621
H     21.541628    9.041952    1.139178
C     20.148281   10.613498    0.431008
H     19.057090   10.694279    0.418941
H     20.395284   11.481482    1.041122
C     20.105922    7.209960    0.823916
H     21.128938    6.700070    0.851894
H     19.695319    7.089547   -0.058220
10

C     19.776780    8.464623    1.075953
H     18.799441    8.555523    1.492783
C     20.771017    9.413706    1.219141
H     21.754770    9.111445    0.713510
C     19.910348   10.452515    0.944980
H     19.225609   10.730260    1.854481
H     20.054908   11.146359    0.282174
C     20.115089    7.158497    0.583643
H     20.046253    6.837346    1.677023
H     20.965501    7.092288    0.000745
10

C     19.716336    8.312103    1.102462
H     18.662646    8.284019    1.272825
C     20.393094    9.513238    0.629782
H     21.418759    9.425817    0.227286
C     19.969427   10.716342    1.038463
H     19.188745   11.027539    1.660036
H     20.576866   11.579643    0.887251
C     20.331275    7.030625    1.004951
H     19.938295    6.211805    1.564189
H     21.224272    6.861431    0.457189
10

C     19.761166    8.243596    1.043676
H     18.686035    8.514109    1.234441
C     20.443019    9.525260    0.886904
H     21.281519    9.207036    0.409779
C     20.077643   10.794802    1.147594
H     19.257518   10.997416    1.732585
H     20.398778   11.564565    0.627683
C     20.423074    7.047697    1.069116
H     20.199110    6.318068    1.734131
H     20.891853    6.750012   -0.041476
10

C     19.727581    8.248523    0.963684
H     18.683536    8.395293    1.223896
C     20.474114    9.556030    0.923368
H     21.403088    9.133203    0.514138
C     20.080449   10.791498    1.154783
H     19.211569   11.127728    1.793184
H     20.359608   11.722719    0.526961
C     20.432605    7.038995    1.010241
H     20.272385    6.236665    1.823091
H     20.774778    6.711907   -0.088916
10

C     19.937217    8.260887    0.789701
H     19.101027    8.412220    1.489982
C     20.455523    9.611508    0.734075
H     21.526396    9.205232    0.797964
C     19.957658   10.747202    0.996668
H     18.899554   11.142602    0.905158
H     20.589706   11.631288    1.434758
C     20.602448    6.996571    0.520145
H     20.526321    6.782758    1.761499
H     19.823867    6.172294    0.414484
10

C     19.743945    8.234951    1.140583
H     18.736636    8.187002    1.582254
C     20.483209    9.518313    0.806340
H     21.470771    9.445481    0.326188
C     19.951068   10.831615    1.042321
H     19.033558   11.037573    1.595197
H     20.635091   11.659467    0.662784
C     20.336220    7.041672    1.056754
H     19.846480    6.240602    1.418463
H     21.182739    6.765885    0.213550
10

C     19.646487    8.252478    1.103402
H     18.601412    8.390318    1.731563
C     20.379592    9.326137    0.817940
H     21.538827    9.369810    0.707873
C     20.010378   10.628458    0.941288
H     19.025832   11.090102    1.454540
H     20.733039   11.448805    0.850181
C     19.958674    6.899373    0.552921
H     20.586896    7.138156    1.588942
H     20.938577    6.418924    0.095784
10

C     19.706060    8.333801    0.922272
H     18.975299    8.507119    1.607505
C     20.536358    9.568400    0.840740
H     21.602971    9.397832    0.711997
C     19.999126   10.827059    1.120825
H     18.901523   10.874523    1.235976
H     20.668219   11.758128    0.940733
C     20.272288    7.039255    0.766761
H     20.485613    6.474554    1.768029
H     20.272259    6.181892   -0.070405
10

C     19.720436    8.257712    0.866902
H     18.852540    8.335938    1.646057
C     20.571238    9.595052    0.888202
H     21.638700    9.387085    0.756817
C     20.021330   10.801938    1.113476
H     18.962471   11.038229    1.151471
H     20.635221   11.614721    0.992368
C     20.211103    7.064036    0.740826
H     20.630220    6.788199    1.648010
H     20.176455    6.079651    0.040305
10

C     19.880571    8.282786    1.155921
H     18.966380    8.307253    1.606676
C     20.501841    9.454293    0.845503
H     21.389939    9.483393    0.324448
C     19.996468   10.718777    1.026302
H     19.021041   10.782466    1.501717
H     20.510898   11.708944    0.671456
C     20.346323    7.016146    0.892910
H     19.570318    6.172541    1.456712
H     21.235937    7.035964    0.362788
10

C     19.643565    8.282083    1.175416
H     18.589363    8.553933    1.613537
C     20.585772    9.281271    0.805772
H     21.591231    9.065776    0.756363
C     20.084214   10.497769    0.855789
H     19.117722   10.643445    1.201026
H     20.465961   11.647043    0.940495
C     20.008423    6.809181    1.069373
H     21.094926    6.904371    1.558891
H     20.238537    7.277690   -0.132230
10

C     19.629659    8.267887    0.986474
H     18.853483    8.416104    1.942255
C     20.455124    9.447433    0.883910
H     21.535822    9.443111    0.797415
C     20.032243   10.774510    0.922464
H     19.065155   11.054403    0.883891
H     20.653469   11.721473    1.102918
C     20.322871    6.968988    0.849210
H     20.783944    6.431051    1.570275
H     20.087944    6.437603   -0.094380
10

C     19.607059    8.394291    0.579896
H     19.451162    7.997268    1.824305
C     20.456500    9.495569    0.995885
H     21.506143    9.223686    1.274717
C     19.984142   10.792357    0.973228
H     18.945492   11.145842    0.846309
H     20.731115   11.620772    1.036885
C     20.164693    6.977312    0.666528
H     21.040909    7.182345    1.522647
H     19.532500    6.133118    0.124033
10

C     19.754689    8.096209    1.082714
H     18.824551    8.435747    1.366792
C     20.472837    9.442498    1.090565
H     21.437410    9.350815    0.760105
C     19.951424   10.785135    1.064367
H     19.119562   10.820922    1.660566
H     20.641810   11.570986    0.463488
C     20.070651    6.710420    0.796731
H     20.539866    7.111105    1.586058
H     20.606915    6.638725   -0.026954
10

C     19.759265    8.102455    1.054671
H     18.653732    8.349723    1.235427
C     20.458799    9.434615    1.074826
H     21.518674    9.382345    0.626146
C     19.979492   10.849351    0.987425
H     19.164230   10.920267    1.780418
H     20.642182   11.653711    0.629628
C     19.992759    6.764971    0.782123
H     20.617376    7.092214    1.835007
H     20.633206    6.412909   -0.161236
10

C     19.617433    8.250841    0.788509
H     19.687238    8.726464    2.110546
C     20.503013    9.366020    0.933301
H     21.491154    9.451197    1.185369
C     19.946282   10.691533    0.855612
H     18.895606   11.276612    0.699849
H     20.494025   11.526973    1.077806
C     19.935082    6.829111    1.022570
H     20.951520    6.588543    1.072715
H     19.898361    6.255268    0.098155
10

C     19.620528    8.245118    1.228256
H     18.556041    8.387172    1.500882
C     20.476192    9.317305    1.009399
H     21.528401    8.955734    0.638877
C     20.136429   10.624074    0.982122
H     19.011550   10.631558    1.270027
H     20.619649   11.641063    0.724734
C     19.997932    6.850580    0.990007
H     21.053029    6.958190    1.500836
H     20.419963    7.351768   -0.000708
10

C     19.614506    8.157798    1.003777
H     18.747991    8.660692    1.531443
C     20.348434    9.385760    1.116426
H     21.467472    9.238422    0.690425
C     19.974095   10.600662    0.956529
H     19.081557   10.664372    1.551256
H     20.724562   11.307044    0.645698
C     20.013937    6.847188    0.752366
H     20.737417    7.186980    1.672967
H     20.709744    6.913644   -0.076457
10

C     19.843995    8.310520    1.167546
H     18.702791    8.577853    1.495768
C     20.519649    9.505944    0.783391
H     21.445627    9.375951    0.225704
C     19.984654   10.752042    0.960410
H     19.045873   10.710488    1.512779
H     20.522118   11.683515    0.876003
C     20.353542    7.059876    0.984550
H     19.797118    6.133347    1.379875
H     21.204348    6.853024    0.458409
10

C     19.917279    8.323560    1.186113
H     19.216418    8.521299    1.929891
C     20.713378    9.512836    1.039964
H     21.710449    9.479949    1.122958
C     20.000892   10.669360    0.964539
H     18.926477   10.631180    0.807849
H     20.475638   11.751904    0.736250
C     20.051136    7.102053    0.818542
H     20.734792    6.377520    1.327314
H     19.673255    6.592901   -0.088987
10

C     19.886522    8.319008    1.220321
H     19.090368    8.434986    1.892756
C     20.687258    9.593624    1.071527
H     21.662186    9.735916    1.142823
C     20.003250   10.686765    0.781245
H     18.935647   10.724088    0.997903
H     20.623117   11.676352    0.680084
C     20.103915    7.009474    0.812248
H     20.716294    6.213333    1.370377
H     19.711158    6.569016   -0.124853
10

C     19.784860    8.254793    1.402316
H     18.762833    8.594648    1.770623
C     20.665214    9.460332    1.211014
H     21.801505    9.254508    0.772826
C     19.920314   10.647272    0.883802
H     18.931777   10.741515    1.274765
H     20.473832   11.413539    0.485299
C     19.813545    6.852587    0.816163
H     20.717987    6.701324    1.235742
H     20.547849    7.042042   -0.008117
10

C     19.989208    8.258651    1.329007
H     19.093049    8.320909    1.926326
C     20.620082    9.635308    1.108605
H     21.635452    9.364340    0.924515
C     19.965428   10.812278    0.847487
H     18.871991   10.918892    0.749899
H     20.569449   11.876070    0.837465
C     20.258414    7.036086    0.844283
H     20.664286    6.024712    1.361756
H     19.752357    6.715314   -0.084911
10

C     20.029221    8.238124    1.383349
H     19.044029    8.258067    1.879920
C     20.568384    9.571112    1.100841
H     21.598600    9.403935    0.895908
C     20.042419   10.805705    0.921505
H     18.978650   10.961830    0.713821
H     20.465911   11.663433    0.840123
C     20.234171    6.949989    0.832887
H     20.706397    6.252220    1.422361
H     19.751934    6.858147   -0.146282
10

C     19.974704    8.186648    1.394216
H     18.887854    8.332985    1.830268
C     20.450555    9.503101    1.093205
H     21.713983    9.501915    0.908704
C     19.997279   10.738594    0.984033
H     18.991555   10.902216    0.766691
H     20.608995   11.738496    0.761451
C     20.188641    6.889497    0.808264
H     20.866058    6.298741    1.450682
H     19.740091    6.870369   -0.153082
10

C     19.929036    8.178462    1.396187
H     18.938134    8.472683    1.808906
C     20.451817    9.492179    1.068344
H     21.519797    9.570130    0.978209
C     20.010470   10.738050    0.988194
H     18.919990   10.920781    0.832583
H     20.754835   11.642963    0.703745
C     20.171827    6.916733    0.839318
H     20.949732    6.248552    1.407936
H     19.774077    6.782028   -0.178989
10

C     19.679989    8.332034    0.921712
H     18.780189    8.563288    1.283908
C     20.468899    9.419476    0.551412
H     21.461937    9.205379    0.285060
C     20.052942   10.552051    1.102046
H     18.970499   10.694474    1.111406
H     20.747300   11.321280    1.579289
C     19.884494    7.015560    1.120446
H     20.868412    7.352986    1.608718
H     20.505055    6.506033    0.280435
10

C     19.588964    8.309693    0.940877
H     18.433578    8.424251    1.474964
C     20.526616    9.466894    0.655086
H     21.562340    9.285495    0.232693
C     20.109702   10.664715    1.170595
H     18.997766   10.657535    1.090642
H     20.783745   11.402610    1.353584
C     19.906426    7.012483    1.140157
H     20.863045    7.107618    1.486989
H     20.647534    6.631268    0.298846
10

C     19.669051    8.433636    1.436349
H     19.277715    7.939528    0.627147
C     20.267315    9.597923    0.791760
H     21.174820    9.362888    0.329679
C     19.930784   10.887286    1.045115
H     19.260847   11.000826    1.845510
H     20.699309   11.631948    0.668389
C     20.241107    7.018734    1.213855
H     20.176413    6.183108    1.669275
H     20.722355    6.906686    0.217355
10

C     19.784032    8.367158    1.137536
H     18.742148    8.461208    1.691168
C     20.520848    9.511404    0.817046
H     21.442880    9.189158    0.418909
C     19.934461   10.729203    0.928941
H     19.044814   10.770095    1.579769
H     20.509973   11.657888    0.632312
C     20.349813    7.102055    0.975495
H     19.755739    6.234487    1.139648
H     21.335007    6.939905    0.523610
10

C     19.860748    8.353738    1.012723
H     18.824314    8.401930    0.578734
C     20.428084    9.566319    0.841428
H     21.349428    9.590817    0.315197
C     19.993750   10.881659    1.261718
H     19.236148   11.031120    1.936135
H     20.580055   11.614579    0.787762
C     20.382297    6.926612    1.007879
H     20.228937    6.433405    1.989018
H     20.535954    6.162382    0.113840
10

C     19.852807    8.267450    0.996416
H     18.783073    8.394665    0.700989
C     20.604618    9.666409    0.799588
H     21.445780    9.504739    0.096116
C     20.172355   10.808750    1.193955
H     19.144253   10.771809    1.684898
H     20.433677   11.774109    1.075628
C     20.267141    7.056040    1.144345
H     20.211565    6.281888    2.033649
H     20.504446    6.436702    0.118848
10

C     19.819370    8.260772    0.978555
H     18.870792    8.398003    0.653296
C     20.610579    9.676287    0.796599
H     21.507968    9.497085    0.128925
C     20.159777   10.785327    1.187743
H     19.070332   10.753036    1.680693
H     20.466724   11.793696    1.080824
C     20.214048    7.071598    1.142617
H     20.266232    6.288014    2.006093
H     20.433893    6.438744    0.189088
10

C     19.813772    8.347115    1.231963
H     19.278738    7.949753    0.424173
C     20.590523    9.724118    0.734787
H     21.428888    9.616009    0.028924
C     20.089250   10.783199    1.209421
H     19.161837   10.731125    1.782347
H     20.458756   11.829039    0.955132
C     20.102380    7.066342    1.206169
H     19.832433    6.305057    1.822195
H     20.663139    6.610803    0.449322
10

C     19.826640    8.559329    1.279681
H     19.417471    8.124907    0.140034
C     20.477493    9.614067    0.628043
H     21.422149    9.616836    0.020197
C     19.915878   10.747093    1.156299
H     19.342723   10.670069    2.117807
H     20.361374   11.755021    0.903074
C     20.181076    6.873321    1.236690
H     19.644066    6.325415    1.936920
H     20.830845    6.676503    0.425686
10

C     19.945851    8.268748    0.932109
H     18.862306    8.338629    1.162928
C     20.611617    9.479767    0.774536
H     21.646382    9.474056    0.524869
C     20.085480   10.657384    1.003305
H     19.005715   10.797634    1.312086
H     20.463891   11.608873    1.296577
C     20.630645    7.058772    0.756588
H     20.212163    7.060773    1.859574
H     19.955667    6.217925    0.221863
10

C     19.833947    8.338006    0.754212
H     18.716690    8.593144    0.868078
C     20.566839    9.559601    0.750920
H     21.651698    9.418379    0.405744
C     20.088984   10.656527    1.127680
H     19.076318   10.743788    1.679452
H     20.482914   11.590778    1.139290
C     20.245879    7.169181    0.908991
H     20.439713    6.728105    1.997627
H     20.316734    6.165053    0.212438
10

C     19.688892    8.139357    0.901197
H     18.625045    8.605614    1.489707
C     20.531535    9.565508    0.717403
H     21.615884    9.350326    0.649796
C     20.124503   10.690447    1.138344
H     19.093312   10.707613    1.330885
H     20.567237   11.694560    1.081549
C     20.026813    6.892542    0.683152
H     20.667843    7.172516    1.770055
H     20.478652    6.144079    0.082344
10

C     20.151923    8.366230    1.442379
H     19.169233    7.873280    0.862684
C     20.515135    9.604185    0.824151
H     21.445675    9.523990    0.358932
C     19.994709   10.886215    1.023846
H     18.972483   11.036846    1.518595
H     20.537955   11.740983    0.838615
C     20.430982    7.005036    1.123555
H     19.935324    6.154582    1.646177
H     20.266296    6.771215    0.205499
10

C     20.013184    8.346144    0.957497
H     19.015198    8.556023    0.901566
C     20.788582    9.509053    1.031795
H     21.692364    9.153051    0.381615
C     20.069826   10.677409    1.199899
H     19.131848   10.387124    1.610617
H     20.071659   11.783509    0.923778
C     20.537941    6.998704    0.806740
H     19.899911    7.143014    1.964191
H     20.199202    6.408531    0.066735
10

C     19.912645    8.236405    0.807969
H     19.138228    8.331338    1.541140
C     20.594296    9.615506    0.674496
H     21.574868    9.612660    0.887644
C     19.940060   10.718245    0.954166
H     18.960225   10.968477    0.805984
H     20.670752   11.318737    1.538980
C     20.326336    6.998273    0.444748
H     20.611637    7.103232    1.726471
H     19.690667    6.059687    0.462835
10

C     19.904873    8.236029    0.862558
H     19.091310    8.112877    1.675291
C     20.642228    9.560915    0.695058
H     21.724519    9.794864    0.920785
C     19.925308   10.692080    0.948582
H     18.954348   11.092623    0.824201
H     20.637841   11.347718    1.367646
C     20.335961    6.942637    0.502466
H     20.454730    7.059189    1.542713
H     19.748596    6.123629    0.505131
10

C     19.724784    8.357990    1.028601
H     18.757567    8.496844    1.102863
C     20.555724    9.551289    0.965327
H     21.667316    9.223090    1.012951
C     20.012125   10.767479    0.989839
H     18.992055   10.822426    1.233999
H     20.703795   11.684664    0.808609
C     20.221893    7.113313    1.105486
H     21.247430    6.704663    0.941286
H     19.537026    6.240804    0.655471
10

C     19.732287    8.261002    1.012175
H     18.679486    8.592428    0.962118
C     20.508073    9.511939    1.011690
H     21.630476    9.299768    0.729859
C     20.019694   10.834803    1.036914
H     18.936822   10.916599    1.130461
H     20.792032   11.624081    1.145852
C     20.210110    7.009346    0.891276
H     21.285989    6.873586    1.244500
H     19.624746    6.039010    0.679589
10

C     19.723070    8.275111    1.011190
H     18.767430    8.447793    0.931540
C     20.491269    9.543284    1.043985
H     21.555395    9.309192    0.644104
C     19.998622   10.846446    1.053928
H     18.976025   11.027878    1.079565
H     20.811274   11.661802    1.205813
C     20.215031    7.034935    0.890323
H     21.233331    6.791423    1.321904
H     19.648267    6.024698    0.662082
10

C     19.733897    8.275197    1.031274
H     18.749948    8.407482    0.921029
C     20.494064    9.551556    1.042513
H     21.501171    9.329238    0.614618
C     20.019246   10.839765    1.063069
H     18.998623   11.069895    1.064452
H     20.803527   11.641898    1.209451
C     20.231098    7.034553    0.892352
H     21.209668    6.747558    1.321192
H     19.678473    6.065420    0.684482
10

C     19.694480    8.238779    1.048223
H     18.869031    8.457093    1.614222
C     20.358833    9.606007    0.754636
H     21.482375    9.382092    0.831880
C     19.975654   10.864899    0.985456
H     18.957457   11.116403    1.022745
H     20.866679   11.585804    1.143949
C     20.278319    7.045124    0.865632
H     20.985012    6.471401    1.630800
H     19.951875    6.194959   -0.053110
10

C     19.993693    8.264258    1.138210
H     18.885333    8.319703    1.031148
C     20.654228    9.604721    0.899306
H     21.580478    9.582642    0.433533
C     20.021337   10.712792    1.045814
H     19.030652   10.747929    1.434895
H     20.474855   11.704138    0.902048
C     20.708352    6.987253    1.152137
H     20.107162    6.316132    1.678624
H     19.963625    6.722994    0.128716
10

C     19.823456    8.304589    1.181564
H     18.617052    8.549477    1.082743
C     20.559335    9.503551    0.879101
H     21.674561    9.361813    0.598891
C     20.045835   10.701144    1.136239
H     19.151424   10.910708    1.654784
H     20.376383   11.647215    0.622256
C     20.282665    7.065087    0.895283
H     20.490256    6.293345    1.741049
H     20.398749    6.625633    0.052524
10

C     19.980608    8.188470    1.134577
H     19.155139    8.579833    1.702706
C     20.662595    9.596955    1.124581
H     21.735358    9.479790    0.741892
C     19.939271   10.663914    1.022975
H     18.926948   10.742176    0.748986
H     20.408349   11.718163    1.004774
C     20.661487    7.032781    0.678384
H     20.281995    6.326077    1.535194
H     19.667964    6.634403    0.150362
10

C     19.846791    8.319521    1.204698
H     18.998229    8.314306    1.784611
C     20.550406    9.496850    0.907054
H     21.667861    9.491270    0.300540
C     19.987223   10.722229    0.904339
H     18.787855   10.856761    1.346050
H     20.534376   11.640549    0.793222
C     20.223858    7.015071    0.944142
H     19.652733    6.189230    1.220117
H     21.170381    6.916774    0.439661
10

C     19.656087    8.228870    1.077450
H     18.908498    8.492972    1.887714
C     20.368772    9.495195    0.979030
H     21.604842    9.271599    0.944301
C     19.980537   10.819755    1.010397
H     18.875102   11.211194    1.180907
H     20.693175   11.547507    0.652595
C     20.302860    6.967310    0.802164
H     20.765531    6.387382    1.528151
H     20.264314    6.540778   -0.218275
10

C     19.649603    8.388557    0.570402
H     19.414643    7.897854    1.779894
C     20.465765    9.548632    0.908791
H     21.377106    9.257566    0.992000
C     20.028487   10.864974    0.938663
H     18.979111   11.173445    0.676923
H     20.735242   11.514505    1.417557
C     20.234881    7.036425    0.662216
H     20.903271    7.122760    1.646133
H     19.631606    6.157843    0.251853
10

C     19.628002    8.370244    0.592554
H     19.730270    8.355467    1.609189
C     20.498162    9.576089    0.733952
H     21.598056    9.450794    1.293079
C     20.074111   10.738798    0.979273
H     18.828155   10.718619    0.700069
H     20.679668   11.614254    1.250105
C     20.088644    6.985507    0.785280
H     20.981921    6.917099    1.270277
H     19.312726    6.235691    0.630656
10

C     19.609132    8.125166    1.346998
H     18.625476    8.301320    1.683949
C     20.720938    9.320586    1.043678
H     21.801848    9.255921    0.947014
C     20.136222   10.712626    0.882318
H     19.093090   10.627275    1.169118
H     20.363383   11.740296    0.437459
C     20.027744    6.919571    1.070340
H     21.019207    6.418605    1.253009
H     20.022675    7.541195    0.010551
10

C     19.604889    8.037542    1.214737
H     18.641180    8.149276    1.936268
C     20.553117    9.429253    1.079894
H     21.582324    9.358553    0.678251
C     20.050505   10.845618    1.119805
H     18.969669   11.002594    1.012697
H     20.738251   11.541634    0.719607
C     19.988050    6.871920    0.739758
H     20.826046    6.971051    1.562450
H     20.465684    6.755121   -0.219035
10

C     19.905290    8.313185    0.940600
H     19.034770    8.576025    1.552476
C     20.621164    9.553544    0.463455
H     21.559608    9.536645    0.890280
C     20.055024   10.729977    1.022268
H     18.874503   10.726517    0.799297
H     20.595811   11.564886    1.427596
C     20.601981    7.056462    0.607260
H     20.498186    6.473816    1.675360
H     19.673377    6.431504    0.465842
10

C     19.943561    8.230088    1.019182
H     19.007696    8.314605    1.277890
C     20.616866    9.575689    0.844103
H     21.569763    9.805181    0.435518
C     20.012616   10.732035    0.918974
H     18.907627   10.846019    1.137665
H     20.630188   11.525520    1.211334
C     20.657238    7.009811    1.054554
H     20.127228    6.274409    1.556244
H     19.946931    6.649204    0.388968
10

C     19.716545    8.232014    0.974148
H     18.608851    8.639361    0.775915
C     20.567801    9.484824    0.947719
H     21.476981    9.291148    0.160049
C     20.066465   10.560317    1.238869
H     19.196064   10.664723    1.859169
H     20.455736   11.522062    0.885531
C     19.981286    6.779134    0.877762
H     20.418919    7.205273    1.974814
H     20.931067    6.583705    0.150456
10

C     19.586354    8.335734    0.975875
H     18.552302    8.377563    1.355241
C     20.399205    9.424350    0.694079
H     21.476337    9.157455    0.306777
C     20.093974   10.572159    1.197708
H     18.811322   10.810314    1.260723
H     20.935194   11.264567    1.210840
C     19.969802    6.895645    1.015587
H     20.894789    7.382797    1.603619
H     20.700435    6.741978    0.223984
10

C     19.439569    8.296659    1.100972
H     18.420448    8.348007    1.162477
C     20.316099    9.398657    0.574475
H     21.276061    9.059382    0.193748
C     20.043870   10.603529    1.037906
H     19.213130   11.234921    1.157247
H     20.825885   11.348655    1.510815
C     19.994975    7.019623    1.354084
H     21.281187    6.973841    1.428178
H     20.608492    6.679286    0.324530
10

C     20.155325    8.272610    1.180644
H     19.185931    8.314587    1.581995
C     20.552257    9.506529    0.640706
H     21.635009    9.656175    0.737223
C     19.964130   10.780530    0.942743
H     18.800724   10.595398    0.723169
H     20.637740   11.578065    1.260583
C     20.649532    6.972627    0.868982
H     20.230108    6.223302    1.557873
H     19.608959    7.062739    0.350515
10

C     20.171906    8.384097    0.959228
H     18.995026    8.180066    0.553041
C     20.772673    9.598713    0.808475
H     21.733875    9.178158    0.247973
C     20.073634   10.709287    1.254569
H     19.077897   10.671731    1.880195
H     20.002405   11.664502    0.742351
C     20.639763    7.012348    1.366186
H     19.719028    6.608610    1.794959
H     20.233508    6.955051    0.237455
10

C     19.816789    8.388454    0.849724
H     18.773813    8.208396    1.197494
C     20.678072    9.580172    0.509293
H     21.871318    9.176528    0.361698
C     20.094168   10.732806    0.913724
H     18.933359   10.823904    1.109992
H     20.346980   11.492159    1.633718
C     20.589723    7.144057    1.152033
H     20.540725    6.530114    2.026912
H     19.774768    6.885971    0.089845
10

C     19.826925    8.295642    1.160605
H     18.849714    8.298781    1.573973
C     20.513938    9.480844    0.846107
H     21.424834    9.407613    0.311923
C     19.984204   10.742333    1.057613
H     19.020369   10.849052    1.440378
H     20.546824   11.775656    0.690025
C     20.285816    7.038344    0.909890
H     19.730509    6.124936    1.279048
H     21.236582    6.949361    0.574871
10

C     19.801476    8.283673    1.072286
H     18.838147    8.559929    1.610697
C     20.522654    9.555736    0.880056
H     21.368006    9.397642    0.359086
C     19.968121   10.758359    1.093537
H     19.003340   10.997963    1.522718
H     20.521506   11.640445    0.687213
C     20.391072    6.987821    0.844320
H     19.760591    6.147401    1.421459
H     21.244803    6.633591    0.353061
10

C     19.763048    8.220978    1.080621
H     18.878399    8.503938    1.616064
C     20.486954    9.515802    0.833843
H     21.567427    9.410856    0.422948
C     20.001137   10.780231    1.063307
H     19.089120   11.129492    1.558287
H     20.330165   11.623531    0.684906
C     20.292621    6.956447    0.895448
H     19.830682    6.207838    1.461916
H     21.180163    6.613449    0.227093
10

C     19.805205    8.253453    1.037145
H     18.710327    8.550635    1.272082
C     20.498979    9.620098    0.916148
H     21.448673    9.324394    0.699333
C     20.048903   10.837742    1.124294
H     19.195564   11.043783    1.843570
H     20.373595   11.641878    0.371732
C     20.293028    6.975678    0.864679
H     20.254207    6.120780    1.700925
H     20.791233    6.594121    0.014524
10

C     19.772308    8.242252    1.059855
H     18.687796    8.575157    1.214837
C     20.511283    9.600182    0.946611
H     21.424808    9.279671    0.578010
C     20.067280   10.812104    1.108991
H     19.309426   11.174651    1.891240
H     20.217853   11.544451    0.437125
C     20.311930    6.991068    0.887588
H     20.170991    6.206357    1.694921
H     20.946040    6.536669    0.025256
10

C     19.728289    8.200776    1.062337
H     18.637504    8.560139    1.106830
C     20.503838    9.634430    0.900902
H     21.404257    9.223340    0.728345
C     20.110193   10.881819    1.094795
H     19.443789   11.225665    1.981001
H     20.132227   11.600308    0.366169
C     20.281659    6.956904    0.889401
H     20.371807    6.190605    1.741344
H     20.806152    6.488574   -0.026691
10

C     19.710699    8.311284    0.973416
H     18.631471    8.500803    1.535061
C     20.651539    9.400185    1.051408
H     21.650707    9.554205    0.555540
C     20.026865   10.746466    0.991133
H     18.953207   10.693570    1.174313
H     20.735701   11.552054    1.040154
C     20.201314    7.066287    0.891164
H     20.760077    6.740214    1.684559
H     20.098136    6.397494   -0.052317
10

C     19.931609    8.338605    0.774635
H     19.065019    8.428197    1.487331
C     20.593035    9.633806    0.668502
H     21.561590    9.196633    0.968952
C     20.048831   10.705388    0.968768
H     18.974056   10.862469    1.083040
H     20.416768   11.609372    1.198615
C     20.673886    7.152711    0.585291
H     20.385421    6.664490    1.701699
H     19.769500    6.370891    0.407600
10

C     19.907852    8.209520    0.985916
H     18.951822    8.365163    1.387025
C     20.558745    9.471413    0.972033
H     21.570900    9.232212    0.699196
C     19.951972   10.747885    1.101735
H     18.898234   11.020528    1.409551
H     20.562762   11.560372    0.862845
C     20.577287    7.074319    0.673773
H     20.257354    7.049061    1.772060
H     20.182788    6.232089   -0.019699
10

C     20.044810    8.171951    0.969630
H     19.078358    8.234793    1.176864
C     20.527584    9.565125    0.789463
H     21.671237    9.510845    0.423029
C     19.899879   10.784377    0.964626
H     18.863723   11.069516    1.204876
H     20.549479   11.491125    1.208185
C     20.605821    6.928049    1.115793
H     20.260219    6.242012    1.841307
H     19.918606    6.964769    0.150661
10

C     20.094297    8.172670    0.949881
H     19.080428    8.351750    1.203202
C     20.574100    9.475568    0.729498
H     21.587066    9.551369    0.501833
C     19.941429   10.762336    0.876582
H     18.769870   10.906644    1.190234
H     20.630862   11.536346    1.292483
C     20.657456    6.970134    1.091312
H     20.261338    6.336685    1.783591
H     19.822869    6.899060    0.225816
10

C     19.744818    8.316667    1.143159
H     18.695799    8.447343    1.508623
C     20.494389    9.473776    0.700011
H     21.495436    9.308293    0.333784
C     19.996053   10.717221    0.947960
H     19.119963   10.719478    1.490322
H     20.492819   11.668490    0.864418
C     20.215178    7.052767    0.915457
H     19.962895    6.217219    1.390386
H     21.202366    7.041309    0.550314
10

C     19.804014    8.247223    1.050593
H     18.824633    8.389125    1.592374
C     20.444342    9.538036    0.874259
H     21.471546    9.479241    0.314027
C     19.974049   10.805359    1.076126
H     18.972820   11.013204    1.481957
H     20.619858   11.697417    0.757098
C     20.359851    7.001345    0.964034
H     19.879844    6.108388    1.546278
H     21.068759    6.683224    0.187687
10

C     19.856053    8.235480    1.067874
H     18.771996    8.217540    1.565847
C     20.426893    9.546578    0.898098
H     21.463207    9.615582    0.391473
C     20.024885   10.814126    1.114364
H     19.070456   11.030127    1.449044
H     20.618838   11.640633    0.700981
C     20.348254    6.970372    0.984449
H     19.966201    6.236933    1.551659
H     20.872933    6.655191    0.120644
10

C     19.737966    8.149932    0.970332
H     18.750778    8.636226    1.309765
C     20.450977    9.659094    0.912012
H     21.542829    9.280360    0.869468
C     19.962712   10.861209    1.073159
H     19.060279   11.136588    1.591361
H     20.598999   11.758089    0.611215
C     20.330827    6.949947    0.831054
H     20.739962    6.239029    1.733699
H     20.244387    6.292086   -0.057633
10

C     19.875749    8.186119    0.954840
H     18.779697    8.047783    1.386482
C     20.683578    9.629100    0.907861
H     21.655347    9.851188    0.582794
C     20.065703   10.834132    0.862581
H     19.030951   10.740227    1.250729
H     20.639080   11.695779    1.052572
C     20.659597    7.025423    0.910261
H     20.156394    6.407372    1.677635
H     19.873620    6.545439    0.258677
10

C     19.628335    8.458154    0.693284
H     19.414156    7.974281    1.664693
C     20.489551    9.582224    0.915985
H     21.618830    9.248493    0.818505
C     19.966711   10.769759    1.026383
H     18.984149   11.059595    0.699585
H     20.638641   11.713412    1.350179
C     20.243888    7.191416    0.751528
H     20.755010    6.691674    1.665385
H     19.680444    6.273555    0.258905
10

C     20.040736    8.297079    1.175445
H     19.050957    8.284279    1.147855
C     20.584554    9.544918    0.797875
H     21.596124    9.891094    0.498790
C     19.967017   10.609953    1.021352
H     18.972390   10.799514    1.279636
H     20.569406   11.580711    0.944256
C     20.699172    6.884956    1.072891
H     20.040242    6.064131    1.750853
H     19.899117    7.005926    0.155479
10

C     19.835783    8.277564    1.080249
H     18.735447    8.437722    1.468066
C     20.571298    9.484721    0.936886
H     21.635913    9.518868    0.627083
C     19.939534   10.661891    1.202795
H     18.911781   10.756436    1.322933
H     20.722022   11.363053    0.820205
C     20.631523    7.061843    0.627139
H     20.236744    6.998824    1.785320
H     20.199670    6.401638   -0.026244
10

C     19.757070    8.271198    1.161395
H     18.830851    8.400749    1.687760
C     20.440847    9.490002    0.837156
H     21.436464    9.443855    0.380720
C     19.923488   10.751037    1.000237
H     19.028463   10.920056    1.465359
H     20.623927   11.534562    0.707628
C     20.314014    7.038230    0.878686
H     19.823408    6.236040    1.343195
H     21.241183    6.876832    0.382297
10

C     19.740006    8.304337    0.845609
H     18.689794    8.469596    1.242352
C     20.451455    9.575436    0.949232
H     21.526150    9.285959    0.776802
C     20.006927   10.749633    1.143652
H     19.136149   11.262653    1.665402
H     20.500896   11.529950    0.598850
C     20.329969    6.971871    0.835111
H     20.655893    6.435561    1.775733
H     20.382475    6.377566    0.011690
10

C     19.727529    8.401679    0.280233
H     19.294803    8.121507    1.297099
C     20.505644    9.650952    0.598884
H     21.476267    9.309173    0.706745
C     20.015504   10.786009    1.098206
H     19.017441   11.056357    0.937159
H     20.626409   11.475441    1.693876
C     20.228264    7.053431    0.736770
H     20.665821    7.118187    1.785368
H     19.862033    5.989824    0.710093
10

C     19.736551    8.404457    0.271557
H     19.293278    8.147870    1.321132
C     20.511952    9.657149    0.577084
H     21.465953    9.312363    0.730304
C     19.998514   10.791597    1.098474
H     19.020567   11.029994    0.932685
H     20.638934   11.471891    1.696146
C     20.242124    7.066626    0.719071
H     20.649049    7.114251    1.779859
H     19.862792    5.966364    0.718120
10

C     19.855720    8.276341    0.343076
H     19.377225    8.409391    1.316688
C     20.592313    9.537437    0.617920
H     21.622718    9.574788    0.844705
C     19.985516   10.566231    1.048048
H     19.000206   10.847600    1.058759
H     20.529659   11.445879    1.493108
C     20.182698    7.063780    0.959387
H     20.681274    6.986556    1.902307
H     19.592387    6.254557    0.260436
10

C     19.712081    8.178411    1.293186
H     18.741578    8.461988    1.129183
C     20.426892    9.499512    1.007986
H     21.350513    9.259444    0.613523
C     20.032641   10.759816    1.018739
H     19.224470   11.130953    1.443734
H     20.521032   11.601822    0.628256
C     19.963892    6.721098    1.149282
H     20.995231    6.316064    1.388350
H     20.451385    7.033452    0.172193
10

C     19.685852    8.123209    1.180976
H     18.714365    8.543307    1.449143
C     20.437761    9.300065    0.879087
H     21.467547    9.249463    0.442860
C     19.973873   10.553930    0.955753
H     18.829558   10.969150    1.194151
H     20.838911   11.358638    1.103884
C     20.046311    6.773942    1.070052
H     20.971143    7.035566    1.574169
H     20.454395    7.055291   -0.005643
10

C     19.767737    8.292226    1.180700
H     18.682909    8.429893    1.570252
C     20.523352    9.510142    0.846326
H     21.572157    9.289967    0.325588
C     19.980495   10.791618    0.979121
H     19.059590   10.881504    1.625347
H     20.451862   11.725213    0.658496
C     20.338939    7.078356    1.052215
H     19.801443    6.236639    1.230518
H     21.241231    6.727004    0.375870
10

C     19.791914    8.246786    0.993413
H     18.821797    8.519337    1.060461
C     20.502282    9.514312    0.925366
H     21.506980    9.371488    0.917253
C     20.030732   10.822311    0.880985
H     19.090506   10.886087    1.166396
H     20.686396   11.738264    1.055794
C     20.250204    7.007159    1.016964
H     21.173077    6.593873    1.150691
H     19.565828    6.262943    0.677108
10

C     19.815811    8.240170    0.998859
H     18.680755    8.537121    1.026620
C     20.521888    9.518191    0.918314
H     21.585749    9.426320    0.889560
C     20.087532   10.816566    0.859023
H     19.050167   10.956184    1.246927
H     20.649316   11.668329    1.053154
C     20.250285    6.972135    1.018372
H     21.195084    6.592379    1.196299
H     19.583130    6.235166    0.637305
10

C     19.782014    8.301657    1.214580
H     18.611514    8.279645    1.081474
C     20.457986    9.624516    0.920958
H     21.331545    9.262402    0.233298
C     19.989894   10.816229    1.098404
H     18.983894   11.048658    1.396118
H     20.834695   11.616199    1.045117
C     20.415637    7.077694    0.985396
H     20.582930    6.343460    1.883859
H     20.429606    6.592103   -0.014772
10

C     19.658735    8.297045    0.899366
H     18.691121    8.362900    1.398200
C     20.620618    9.469811    0.947028
H     21.666884    9.044839    0.707271
C     20.049285   10.555812    1.055757
H     19.217859   10.435196    1.709165
H     20.395464   11.567916    0.667263
C     20.131441    7.033777    0.792349
H     20.431726    7.532626    1.800857
H     20.556583    6.662639   -0.132822
10

C     19.592796    8.302070    0.892839
H     18.769763    8.505553    1.539247
C     20.616019    9.425553    0.911923
H     21.496125    9.079775    0.739563
C     20.017998   10.540120    1.039293
H     19.173819   10.529314    1.613868
H     20.491869   11.450920    0.744777
C     20.118818    6.983773    0.757395
H     20.495220    7.536682    1.771414
H     20.647288    6.608801   -0.165887
10

C     20.179593    8.270591    0.931264
H     19.098358    8.398009    0.911316
C     20.816210    9.440947    0.898150
H     21.709026    9.614489    0.393895
C     20.042480   10.653149    1.213572
H     18.897872   10.669088    1.267001
H     20.318878   11.641599    1.245852
C     20.607970    7.003887    0.748664
H     19.958450    7.043821    1.935540
H     19.790879    6.226982    0.299179
10

C     19.771126    8.317845    1.034309
H     18.762046    8.489696    1.332956
C     20.587112    9.415750    0.885904
H     21.692021    9.034151    0.512089
C     20.033057   10.650890    1.022366
H     19.064894   10.638164    1.436205
H     20.435685   11.656829    1.073408
C     19.962764    6.921519    0.896616
H     20.647701    7.440381    1.725689
H     20.463309    6.397335   -0.075110
10

C     19.700880    8.264577    0.935811
H     18.644593    8.464973    1.271530
C     20.496579    9.364769    0.841652
H     21.396399    8.924390    0.467321
C     20.143386   10.632631    1.183663
H     19.130698   10.653520    1.426732
H     20.514987   11.565229    1.009064
C     20.009914    6.903966    0.970130
H     20.793364    7.492985    1.755342
H     20.588916    6.695525   -0.016812
10

C     19.711934    8.329919    1.209715
H     18.735671    8.721455    1.298066
C     20.668085    9.289378    0.844666
H     21.600625    8.995346    0.387794
C     20.018036   10.595988    0.970134
H     18.887375   10.803752    0.933373
H     20.497836   11.513794    1.301066
C     20.132886    6.941595    1.398006
H     21.127913    6.688927    1.219458
H     20.039354    7.082407    0.282155
10

C     19.869508    8.295230    1.060095
H     18.501407    8.406074    1.075424
C     20.659270    9.566459    0.910913
H     21.740465    9.495138    0.396667
C     19.950697   10.759020    1.147382
H     18.877771   10.626183    1.433927
H     20.715158   11.434721    0.814415
C     20.641005    7.077293    1.111359
H     20.454414    6.266685    1.742444
H     20.010019    7.035757    0.151806
10

C     19.712459    8.142194    0.996416
H     18.640557    8.477056    1.352056
C     20.512466    9.392454    0.777131
H     21.615556    9.477526    0.827164
C     20.148988   10.614764    1.093496
H     19.115142   10.802363    1.360916
H     20.519988   11.617556    0.655040
C     20.138311    6.935318    1.171303
H     20.973066    6.327853    1.612654
H     20.043182    7.175476   -0.001743
10

C     19.745522    8.215303    1.256547
H     18.802497    8.558161    1.058782
C     20.499072    9.368672    1.063156
H     21.500378    9.013144    0.440726
C     19.964044   10.762619    1.060124
H     19.005294   11.078212    1.377332
H     20.485105   11.549288    0.760738
C     19.925464    6.788372    1.095090
H     21.009195    6.368561    1.539871
H     20.483143    7.260230    0.192067
10

C     19.627227    8.149228    0.999832
H     18.777423    8.589896    0.790837
C     20.486311    9.327358    0.892034
H     21.389054    8.986679    0.390700
C     20.064656   10.563135    1.097356
H     19.125291   10.910704    1.677816
H     20.456087   11.738292    0.857299
C     20.020554    6.815445    1.085611
H     20.914428    6.661788    1.909059
H     20.558684    7.220037    0.143890
10

C     19.703553    8.091724    1.101886
H     18.693514    8.823205    0.624343
C     20.499259    9.418256    0.967888
H     21.125169    9.138364    0.145894
C     20.110820   10.678912    1.197233
H     19.171814   10.686488    1.630748
H     20.545068   11.555428    0.907658
C     20.145178    6.840292    1.207379
H     20.807050    6.513476    1.843293
H     20.618290    7.216418    0.218112
10

C     19.770282    8.354338    1.179649
H     18.791227    8.254490    1.627531
C     20.491625    9.507355    0.796016
H     21.351604    9.308497    0.342657
C     20.062137   10.764891    1.063310
H     19.032575   10.725352    1.483109
H     20.556627   11.534561    0.620851
C     20.341873    7.099598    1.054015
H     19.820570    6.176433    1.369085
H     21.201193    7.237045    0.308210
10

C     19.759070    8.224475    1.073224
H     18.673315    8.689782    1.423221
C     20.512499    9.474573    0.791785
H     21.431454    9.285514    0.389424
C     20.011210   10.743878    1.055590
H     19.189010   11.122794    1.563918
H     20.323988   11.699253    0.816739
C     20.372700    7.011023    0.876647
H     20.078319    6.098311    1.577251
H     21.068150    6.612958    0.276634
10

C     19.705221    8.216962    1.064349
H     18.721593    8.537225    1.381319
C     20.450136    9.486148    0.826806
H     21.618775    9.361965    0.419545
C     19.975971   10.722162    1.061713
H     19.209330   11.159460    1.620779
H     20.346209   11.786363    0.761947
C     20.294625    6.951980    0.896259
H     20.126413    6.213442    1.623063
H     20.971441    6.526855    0.188653
10

C     19.725736    8.254601    1.046436
H     18.727665    8.341683    1.263062
C     20.475683    9.538888    0.873463
H     21.507913    9.525410    0.512649
C     20.028219   10.765024    1.071485
H     19.119354   11.054294    1.722711
H     20.587025   11.628939    0.688181
C     20.199467    6.939542    0.897336
H     20.328629    6.422722    1.862503
H     20.720023    6.491460   -0.093392
10

C     19.742258    8.237426    0.884891
H     18.731311    8.536946    1.210248
C     20.439940    9.585342    0.981495
H     21.512814    9.323814    0.805791
C     20.072312   10.861644    1.152972
H     19.086002   11.125415    1.742485
H     20.531408   11.537401    0.480815
C     20.129657    6.890996    0.946876
H     20.768250    6.450430    1.742099
H     20.405762    6.413148   -0.103239
10

C     19.712383    8.166842    0.912344
H     18.755301    8.595965    1.375433
C     20.456911    9.518540    0.918898
H     21.640716    9.274146    0.612091
C     20.008882   10.803119    1.150470
H     19.041966   11.257058    1.371196
H     20.497021   11.789740    0.889631
C     20.193436    6.891851    0.908088
H     20.725489    6.479837    1.649805
H     20.387608    6.185464    0.056477
10

C     19.711564    8.396017    0.384860
H     19.450306    8.334438    1.590396
C     20.511948    9.527542    0.745012
H     21.612892    9.584855    0.863837
C     20.058012   10.765842    0.902715
H     18.916157   10.950834    0.826546
H     20.585326   11.376208    1.613189
C     20.259329    6.993715    0.779566
H     20.696625    6.893462    1.774474
H     19.617557    6.139650    0.363838
10

C     19.748789    8.258984    1.113684
H     18.658329    8.445764    1.096531
C     20.502913    9.556082    0.828649
H     21.528345    9.496308    0.462238
C     20.020461   10.833951    1.041115
H     19.321201   10.745404    1.868632
H     20.415036   11.697415    0.560797
C     20.289307    7.060363    1.031111
H     20.140500    6.074738    1.762703
H     20.794833    6.793554    0.078972
10

C     19.993769    8.332912    1.178929
H     18.831099    8.453002    1.020541
C     20.587143    9.573869    0.929855
H     21.605469    9.302362    0.438947
C     19.870359   10.696833    0.988140
H     18.892177   10.991491    1.424574
H     20.537508   11.561460    0.867048
C     20.755177    7.071200    1.039767
H     20.282599    5.896384    1.712333
H     20.064416    7.083049    0.244299
10

C     20.208678    8.294727    1.040581
H     19.132164    8.205491    1.325409
C     20.682253    9.564187    0.834205
H     21.714720    9.592619    0.622217
C     19.913570   10.746387    0.977076
H     18.761354   10.841645    0.929815
H     20.572047   11.551613    1.334187
C     20.713537    6.958453    0.605902
H     20.131711    6.633590    1.866866
H     19.589681    6.573849    0.308175
10

C     19.811839    8.382766    0.817630
H     18.902406    8.570534    1.391181
C     20.597988    9.558947    1.043006
H     21.708621    9.272340    0.851252
C     20.016906   10.731982    1.172030
H     18.986546   10.767366    1.189851
H     20.453273   11.649503    0.875493
C     20.583521    7.036595    0.449943
H     20.410313    6.868073    1.547776
H     19.948302    6.124457    0.506272
10

C     19.791485    8.494212    0.791476
H     18.770959    8.378159    1.239175
C     20.838939    9.653794    0.959842
H     21.710110    9.084598    0.671471
C     20.101826   10.749764    1.173005
H     19.031255   10.487401    1.372780
H     20.319285   11.782837    0.968550
C     20.564635    7.045564    0.577760
H     20.254096    7.163837    1.722764
H     20.037125    6.122395    0.367610
10

C     20.359195    8.357992    1.306049
H     18.945461    8.175403    0.901977
C     20.627148    9.548196    0.710956
H     21.618271    9.792605    0.472589
C     19.896742   10.836721    0.815028
H     19.078901   10.974502    1.492144
H     20.475854   11.583311    1.173066
C     20.237696    7.024099    1.023974
H     20.198338    6.179628    1.904564
H     19.982107    6.490104    0.044086
10

C     19.703775    8.300377    0.817420
H     18.533716    8.371051    1.015101
C     20.480259    9.661916    0.719186
H     21.595927    9.343327    0.830572
C     20.025079   10.896220    1.041599
H     19.297306   10.941210    1.978168
H     20.508016   11.870449    0.564667
C     20.343803    7.009822    0.951675
H     20.567019    6.275395    1.821473
H     20.364816    6.292795    0.104572
10

C     19.576936    8.371081    0.730070
H     19.796477    7.957170    2.051829
C     20.472673    9.568153    1.121807
H     21.411166    9.511380    1.637299
C     20.039869   10.875893    0.930100
H     18.856368   11.038537    0.619152
H     20.844373   11.681466    0.743665
C     20.080904    6.993350    0.495229
H     21.013338    6.862076    1.093996
H     19.327611    6.103456    0.421286
10

C     19.889865    8.204326    0.859127
H     18.947595    7.987896    1.331581
C     20.373203    9.561334    0.915522
H     21.496834    9.555586    0.934866
C     19.965099   10.918606    0.898513
H     19.040830   11.134679    1.408739
H     20.804677   11.622070    0.950953
C     20.511280    6.968705    0.484262
H     20.403382    7.031064    1.679260
H     19.986950    5.978295    0.381608
10

C     20.040405    8.130390    0.948299
H     18.829966    8.252425    0.701786
C     20.524911    9.458611    0.881401
H     21.024056    9.649005   -0.094139
C     20.063801   10.703556    1.344179
H     18.945876   11.042071    1.368575
H     20.863253   11.637643    1.374856
C     20.753197    6.974551    1.028698
H     20.040684    6.879475    2.030011
H     20.333566    6.234834    0.260768
10

C     19.587459    8.279632    1.108263
H     18.545752    8.570103    1.106139
C     20.412002    9.300683    0.547235
H     21.657414    9.181180    0.670513
C     19.991987   10.560681    1.001305
H     19.067212   10.563434    1.464838
H     20.724069   11.340795    0.997991
C     20.212247    6.925965    1.236908
H     21.157608    6.927917    1.728814
H     20.063964    7.312171   -0.017572
10

C     19.788305    8.250831    1.175825
H     18.712260    8.340091    1.833834
C     20.544779    9.544633    0.881431
H     21.733951    9.430652    0.358091
C     19.964102   10.828823    1.059991
H     18.929839   10.808421    1.296074
H     20.539968   11.741979    0.706700
C     20.336239    7.034909    0.893603
H     19.836892    6.113342    1.352756
H     21.033380    6.868880    0.286129
10

C     19.785702    8.365028    1.375913
H     18.813096    8.882396    1.548156
C     20.564927    9.416861    1.002608
H     21.454122    8.914006    0.684751
C     19.986702   10.646919    1.059861
H     18.890686   10.584061    0.864107
H     20.590573   11.482538    0.818371
C     20.177089    6.924650    1.355866
H     21.151113    6.453126    0.933437
H     20.005705    7.292977    0.201363
10

C     19.921106    8.276216    1.169672
H     19.111438    8.703935    1.846080
C     20.520674    9.525008    0.929081
H     21.662599    9.467478    0.770903
C     19.926286   10.720859    0.846541
H     18.879553   10.963283    0.942187
H     20.529245   11.665782    1.055407
C     20.281761    6.918694    0.914553
H     20.578965    6.118476    1.624749
H     20.008089    6.602831   -0.254742
10

C     20.020543    8.247832    1.093860
H     18.882546    8.446868    1.672334
C     20.619569    9.635096    1.046324
H     21.801923    9.561406    1.007625
C     19.915760   10.829439    0.945346
H     18.900037   10.859443    1.298435
H     20.603111   11.638004    0.594923
C     20.163188    7.013005    0.785034
H     20.568508    6.395909    1.505500
H     19.944530    6.335559   -0.104948
10

C     20.025109    8.324668    1.110136
H     18.961700    8.337105    1.468819
C     20.728767    9.573841    1.110044
H     21.700339    9.731857    0.983662
C     20.009266   10.848702    1.069149
H     18.915479   10.747257    1.323029
H     20.581748   11.657150    0.511186
C     20.173620    7.004612    0.714611
H     20.520555    6.362807    1.680674
H     19.803130    6.374563   -0.126879
10

C     20.000315    8.319949    1.108251
H     19.080782    8.353915    1.509592
C     20.730713    9.561655    1.109458
H     21.723599    9.751331    0.956141
C     20.014215   10.833880    1.084663
H     18.943986   10.738401    1.284416
H     20.484927   11.614304    0.526050
C     20.168575    6.981954    0.693579
H     20.397822    6.374318    1.679248
H     19.874781    6.432855   -0.106965
10

C     20.016982    8.316724    1.098777
H     19.210938    8.581230    2.116425
C     20.726142    9.592249    1.050829
H     21.841171    9.647891    0.928503
C     20.027936   10.741343    1.115140
H     18.916015   10.740520    1.104386
H     20.211867   11.695710    0.498429
C     20.302872    6.926816    0.766371
H     19.935035    6.246497    1.559715
H     20.230757    6.473582   -0.394143
10

C     20.017072    8.361247    1.106406
H     19.364597    8.632375    2.105258
C     20.715824    9.605019    0.980235
H     21.712009    9.548302    0.911312
C     19.994481   10.766665    1.091824
H     18.892629   10.701049    1.092227
H     20.214576   11.677890    0.535244
C     20.343598    6.939571    0.797832
H     19.825363    6.113812    1.505233
H     20.339565    6.616631   -0.281138
10

C     19.479495    8.318539    0.626713
H     18.278033    8.456617    0.526744
C     20.422182    9.248150    0.856335
H     21.144561    9.083304    0.062116
C     20.176664   10.565556    1.479869
H     19.205757   10.864109    1.872663
H     20.781655   11.287914    0.968425
C     20.386183    7.379163    1.048628
H     20.765499    7.153886    2.050004
H     20.779685    6.605323    0.352934
10

C     20.162271    8.269805    0.064898
H     19.176411    7.559486    1.727767
C     20.809738    9.357645    0.664707
H     21.800395    9.418958    0.991267
C     20.217040   10.442034    1.334798
H     19.215044    9.973070    1.698501
H     20.062615   11.388582    0.806871
C     19.982899    7.268358    1.111554
H     20.931999    6.742019    1.557677
H     19.061305    8.542605   -0.113608
10

C     19.833373    8.326721    0.319527
H     19.971509    7.881823    2.264725
C     20.728230    9.388762    0.266359
H     21.650216    9.572737   -0.149126
C     19.935992   10.633992    1.057629
H     19.048107   10.241102    1.450769
H     20.640375   10.802478    1.903932
C     20.411533    7.504898    1.431356
H     20.411393    6.448832    1.525335
H     18.788988    8.161216   -0.226072
10

C     19.866815    8.302241    1.346438
H     18.711833    8.438778    1.804606
C     20.610455    9.469818    0.808520
H     21.690093    9.245115    0.414366
C     19.928116   10.738263    0.989655
H     18.966251   10.886853    1.453891
H     20.385824   11.743580    0.606408
C     20.365631    7.128816    1.032925
H     19.732615    6.181624    1.121699
H     21.162083    6.827473    0.265924
10

C     19.987497    8.323173    0.821574
H     18.968846    8.216636    1.369334
C     20.600261    9.524695    0.934702
H     21.717308    9.286049    0.627317
C     19.969978   10.729411    1.085000
H     18.812837   11.065877    1.034381
H     20.536538   11.648229    1.229572
C     20.681981    7.041139    0.550500
H     20.301548    6.819579    1.777378
H     19.842922    6.307773    0.414674
10

C     19.942059    8.299599    0.856477
H     18.995110    8.067673    1.505257
C     20.642430    9.492473    0.824645
H     21.666812    9.438258    0.671797
C     20.025010   10.750142    1.122451
H     18.910671   10.867090    0.904571
H     20.570041   11.615804    1.279117
C     20.570843    7.111157    0.559809
H     20.278686    7.015817    1.749652
H     19.818051    6.304548    0.370657
10

C     19.696391    8.320008    0.581190
H     18.527422    8.398614    0.746406
C     20.526947    9.437162    0.770130
H     21.692773    9.257330    0.495320
C     20.127827   10.759605    1.109919
H     19.068736   10.600671    1.352918
H     20.704262   11.570938    1.421293
C     20.214653    7.166341    1.019396
H     21.095652    7.290730    1.633178
H     19.765052    6.161162    0.714683
10

C     19.843748    8.284863    0.625796
H     18.937080    8.565090    0.223872
C     20.520948    9.594269    0.733958
H     21.557567    9.714598    0.391148
C     20.022569   10.765234    1.329512
H     19.115778   10.844692    2.032546
H     20.556911   11.602598    0.934504
C     20.411116    6.954319    1.058808
H     20.356195    6.541337    2.138544
H     20.097801    6.095561    0.375744
10

C     20.020210    8.265452    0.690697
H     18.993855    8.167878    0.359433
C     20.657939    9.520845    0.812712
H     21.515057    9.701792    0.341524
C     20.173459   10.832785    1.273851
H     19.326017   10.743220    2.045851
H     20.186601   11.822186    0.826526
C     20.405320    6.904349    1.119267
H     19.871199    6.796320    1.995708
H     20.270058    6.207734    0.378864
10

C     20.047780    8.247319    0.984377
H     18.933512    7.996993    0.449235
C     20.591647    9.598521    0.820597
H     21.370672    9.526282   -0.008737
C     20.026097   10.785216    1.230133
H     19.226045   10.611965    1.850359
H     20.500102   11.773926    1.077874
C     20.639770    6.948041    1.251680
H     19.637927    7.188357    1.791845
H     20.446163    6.285942    0.397069
10

C     19.980247    8.322875    0.791593
H     19.036926    8.635590    0.516755
C     20.661372    9.657401    0.801958
H     21.655360    9.635042    0.515469
C     19.940280   10.730339    1.239069
H     19.345585   10.794658    2.174969
H     20.112389   11.566222    0.585857
C     20.398529    6.962936    1.104144
H     19.879970    6.397987    1.928138
H     20.409058    6.259510    0.186480
10

C     20.027739    8.037550    0.999972
H     19.017157    8.212172    0.782234
C     20.585227    9.709154    0.768665
H     21.622817    9.541619    0.471620
C     20.020556   10.795391    1.116198
H     19.051010   10.921806    1.752862
H     20.391081   11.789469    0.799025
C     20.594056    6.870510    1.159565
H     20.042284    6.361791    1.990613
H     20.067788    6.723099    0.003679
10

C     19.871926    8.309048    1.258276
H     18.983615    8.544461    1.764059
C     20.560467    9.529923    0.769136
H     21.757175    9.402863    0.481519
C     19.933691   10.725588    0.848564
H     18.980327   10.871051    1.496279
H     20.289504   11.757652    0.726151
C     20.279297    7.010807    0.938455
H     19.625464    6.066442    1.219520
H     21.138249    6.744726    0.342474
10

C     19.888469    8.257690    1.234394
H     18.901900    8.339626    1.692168
C     20.481856    9.527678    0.869663
H     21.610117    9.376300    0.445022
C     19.982364   10.789859    1.025512
H     18.972401   11.090414    1.424098
H     20.407426   11.724403    0.631042
C     20.390414    7.022637    0.979295
H     19.777518    6.063529    1.286610
H     21.007251    6.770425    0.256629
10

C     19.478388    8.256245    0.577486
H     19.487590    8.308010    1.785228
C     20.438217    9.544623    0.967672
H     21.493210    9.478286    1.229304
C     19.956145   10.689015    1.229009
H     19.014219   11.072323    0.878656
H     20.745153   11.338347    0.878493
C     20.114096    6.966925    0.646234
H     20.918778    7.279144    1.359694
H     19.773921    6.029644    0.292656
10

C     19.780531    8.359420    0.840374
H     19.019364    8.435884    1.646787
C     20.485864    9.549911    0.896131
H     21.547938    9.454582    0.856249
C     20.006103   10.842952    1.282262
H     18.988250   11.164353    1.107166
H     20.601764   11.643500    0.832931
C     20.096114    6.941817    0.685199
H     20.655493    6.547579    1.610404
H     20.238294    6.022563    0.086931
10

C     19.861081    8.386009    0.826640
H     19.007688    8.437261    1.540941
C     20.526930    9.496511    0.944877
H     21.588102    9.269532    0.721356
C     20.036143   10.788959    1.192523
H     18.932190   10.799878    1.189097
H     20.561087   11.685253    0.918330
C     20.230592    7.003365    0.801157
H     20.543139    6.759814    1.790214
H     20.132763    6.335979   -0.080704
10

C     19.576994    8.193162    1.275461
H     18.553661    8.683938    1.262204
C     20.515476    9.339686    1.017948
H     21.403564    8.662647    0.450174
C     20.155987   10.605575    1.152971
H     19.077988   10.619560    1.149254
H     20.462887   11.598592    0.873598
C     20.086463    6.895375    1.052388
H     21.186954    6.959836    1.501215
H     20.399742    7.404190    0.109220
10

C     19.594087    8.149010    1.280091
H     18.585576    8.586999    1.189264
C     20.507633    9.233352    0.966392
H     21.372155    8.841319    0.407071
C     20.152470   10.614938    1.090279
H     19.045310   10.741204    1.240988
H     20.502846   11.577343    0.913735
C     20.124061    6.803722    1.019063
H     21.071287    6.942941    1.616806
H     20.464290    7.471733    0.120745
10

C     19.800475    8.342978    0.469202
H     18.816001    8.739755    0.413354
C     20.427674    9.576616    0.320765
H     21.438581    9.426616    0.079182
C     19.996543   10.521029    1.261372
H     19.035050   10.490781    1.763419
H     20.739558   11.168293    1.717338
C     20.586541    7.182531    0.998052
H     20.460008    6.049802    0.796152
H     20.119285    7.464160    2.025596
10

C     19.622126    8.328272    1.278427
H     18.609833    8.234374    1.496275
C     20.489357    9.345411    0.889280
H     21.465694    8.927953    0.742791
C     20.132180   10.682119    0.955672
H     19.114377   10.617413    0.985676
H     20.601665   11.648878    0.857595
C     20.137192    6.951462    1.104720
H     21.205052    6.685297    1.312987
H     20.042240    7.541383    0.221008
10

C     19.745504    8.204579    0.989761
H     18.665183    8.262731    1.502007
C     20.474519    9.487418    0.975602
H     21.426481    9.090570    0.665823
C     20.082085   10.790318    1.189622
H     19.086539   10.872627    1.442421
H     20.627176   11.714954    0.698833
C     20.052311    6.849694    0.787147
H     20.653431    7.247019    1.660783
H     20.606485    6.442651   -0.067567
10

C     19.716737    8.188470    0.891038
H     18.748737    8.781702    1.183783
C     20.654965    9.327596    0.742119
H     21.632386    9.241534    0.494126
C     20.106700   10.494373    1.122959
H     19.095505   10.471137    1.414629
H     20.375086   11.607629    1.079968
C     19.954273    6.862809    1.077075
H     20.761548    7.142314    1.756518
H     20.373776    6.844998    0.082218
10

C     19.568857    8.120987    0.871002
H     18.519924    8.315745    1.179344
C     20.330819    9.388669    0.649580
H     21.390994    9.345308    0.487489
C     19.943534   10.664948    1.017363
H     19.082420   11.042692    1.433153
H     20.969561   11.274729    1.137889
C     20.124816    6.905328    1.256039
H     21.149863    6.920639    1.767494
H     20.338927    6.983516    0.045079
10

C     19.819664    8.308552    1.180497
H     18.806840    8.503948    1.532196
C     20.495953    9.463846    0.787070
H     21.404931    9.280656    0.272026
C     20.019236   10.721411    1.092765
H     19.059206   10.769004    1.505116
H     20.448672   11.546060    0.726104
C     20.359205    7.091061    1.082237
H     19.802151    6.263943    1.367970
H     21.203856    7.014080    0.298452
10

C     19.822680    8.313519    1.249112
H     18.671591    8.392551    1.416969
C     20.502815    9.525403    1.162134
H     21.522504    9.361675    1.167342
C     20.020533   10.738117    0.970857
H     18.962667   11.021429    1.058067
H     20.830885   11.501202    0.619003
C     20.201268    7.024321    0.751482
H     21.319855    6.742720    1.008173
H     19.564916    6.341625    0.441293
10

C     19.493137    8.110887    1.127105
H     18.837787    8.315642    1.942542
C     20.416405    9.477366    0.964691
H     21.591278    9.310195    0.957600
C     20.033971   10.785000    0.835263
H     19.028795   11.226105    1.171628
H     20.634684   11.545572    0.735939
C     19.866080    6.569246    0.800663
H     21.028034    6.867796    1.369076
H     20.489545    6.754753   -0.060073
10

C     19.646408    8.220550    1.229873
H     18.800599    8.738248    1.637118
C     20.579745    9.272974    1.102291
H     21.455406    9.158128    0.688224
C     19.947568   10.414268    1.042439
H     19.032950   10.770194    1.204891
H     20.575404   11.339339    0.712254
C     19.954822    6.923353    0.754691
H     20.885022    6.999902    1.573403
H     20.541791    7.125606   -0.100752
10

C     19.615346    8.281220    0.962399
H     18.716556    8.299808    1.507003
C     20.327630    9.571339    0.708327
H     21.274077    9.171344    0.312377
C     20.074598   10.835139    1.235165
H     19.052869   11.113533    1.178845
H     20.742353   11.736564    1.095130
C     20.554760    7.062302    1.063460
H     20.415932    6.304372    1.714433
H     20.645593    6.586941    0.067294
10

C     20.174320    8.280949    0.859738
H     19.079261    8.363165    1.343792
C     20.868621    9.573114    0.928815
H     21.934082    9.731986    1.054192
C     20.008670   10.715219    1.128813
H     18.947353   10.470356    1.405446
H     20.302952   11.755806    0.706855
C     20.417504    6.827696    0.547824
H     20.117853    7.075447    1.874044
H     19.569099    6.168822   -0.005086
10

C     19.769426    8.146362    1.158239
H     18.540579    8.362182    1.262071
C     20.461572    9.432438    1.035006
H     21.429762    9.620147    0.682107
C     19.941109   10.641530    0.791895
H     19.139628   11.133852    1.466047
H     20.747557   11.221000    0.693194
C     20.580178    7.149380    1.119680
H     20.722916    6.141245    1.428186
H     20.086989    7.114426    0.208006
10

C     19.620858    8.243872    1.155096
H     18.709650    8.430244    1.682103
C     20.436065    9.376625    0.788643
H     21.633396    9.163883    0.757450
C     20.087779   10.597087    0.862962
H     18.889905   10.850847    0.986646
H     20.717701   11.392677    1.061731
C     20.086910    6.943590    1.204645
H     21.236197    6.755841    1.397365
H     20.001256    7.207894   -0.052208
10

C     19.853294    8.729457    0.515423
H     19.696646    8.667340   -0.566903
C     21.426130    9.469162    0.998540
H     22.078790   10.175222    0.406651
C     20.053564    9.828850    1.394907
H     19.260520    9.931584    2.255840
H     19.747938   10.810888    0.824601
C     19.760719    7.487861    1.206978
H     20.111223    7.277855    2.170033
H     19.430891    6.584342    0.638363
10

C     19.831388    8.241686    1.154204
H     18.918676    8.369002    1.772879
C     20.444828    9.450615    0.734257
H     21.374656    9.459317    0.524348
C     19.949061   10.718309    0.930672
H     19.034744   11.033213    1.450819
H     20.558048   11.541613    0.708418
C     20.284055    6.986420    0.937195
H     19.826016    6.251043    1.253085
H     21.198243    6.911344    0.378557
10

C     19.607339    8.343701    1.075238
H     18.503366    8.528582    1.148281
C     20.484155    9.480761    0.804494
H     21.351926    9.304717    0.271876
C     20.175745   10.781107    1.274876
H     19.141837   10.825784    1.429037
H     20.600163   11.717343    0.894360
C     20.229414    6.976459    1.054684
H     20.613119    6.305808    1.697093
H     20.712651    6.698300    0.194494
10

C     19.877845    8.229419    0.717767
H     18.931515    8.508644    1.159698
C     20.559950    9.537580    0.854933
H     21.528824    9.293154    0.846487
C     20.168164   10.649821    1.124534
H     19.100152   10.610828    1.562047
H     20.384955   11.752046    0.839386
C     20.585103    7.104876    0.674876
H     20.222635    7.103350    1.706330
H     20.060571    6.172844    0.358374
10

C     19.606037    8.265987    0.839981
H     18.618228    8.191462    1.238581
C     20.327106    9.419622    0.688501
H     21.451022    9.480420    0.356813
C     20.016797   10.729716    1.178669
H     19.040961   11.061747    1.584162
H     20.859072   11.376652    0.994642
C     20.396926    7.101369    0.940653
H     20.439068    6.683844    2.043517
H     20.664498    6.651743   -0.021086
10

C     20.125330    8.309048    0.952946
H     19.097786    8.318539    0.972240
C     20.617212    9.573097    0.533196
H     21.649391    9.459239    0.509216
C     20.050181   10.710956    1.140329
H     18.865020   10.511522    1.312951
H     20.472497   11.660982    1.194089
C     20.661820    6.980165    1.067853
H     20.073302    6.560979    1.901547
H     19.807177    6.878034    0.260064
10

C     20.278140    8.641444    0.543043
H     19.335851    8.909628    0.031677
C     21.103142    9.574033    0.899578
H     22.164841    9.600866    1.223771
C     19.946970   10.383547    1.101601
H     19.478795   10.553150    2.155297
H     19.353308   10.931718    0.443875
C     20.110295    7.176488    1.003686
H     20.458959    6.460835    1.781011
H     19.189415    6.730853    0.660893
10

C     19.077906    8.359483    0.820212
H     18.924750    7.992605   -0.198966
C     20.390197    9.337180    0.501080
H     20.993563    9.152711   -0.444324
C     20.159169   10.477269    1.295439
H     19.630878   10.020728    2.101360
H     20.757849   11.387577    1.471260
C     20.356697    7.736123    1.320181
H     20.182912    7.380548    2.400213
H     20.945795    7.118336    0.577977
10

C     19.853970    8.724372    0.503986
H     19.695346    8.659423   -0.621737
C     21.413832    9.468027    1.020045
H     22.088224   10.141757    0.400682
C     20.040853    9.833454    1.415720
H     19.262145   10.008631    2.287370
H     19.728470   10.756819    0.806128
C     19.772437    7.480198    1.191591
H     20.130536    7.307301    2.187005
H     19.433902    6.582578    0.653644
10

C     19.775472    7.991760    1.204324
H     18.773111    8.343016    1.228595
C     20.466106    9.567292    1.061531
H     21.513105    9.473766    0.937613
C     19.961255   10.754083    0.943595
H     19.218947   11.316712    1.615250
H     20.451821   11.512067    0.273735
C     20.445698    6.874480    1.046141
H     20.748881    5.890734    1.600559
H     20.065320    7.238652   -0.066911
10

C     19.934974    8.284937    1.433987
H     18.760401    8.153858    1.196177
C     20.524852    9.543270    1.081665
H     21.430287    9.409226    0.572328
C     19.987119   10.809991    1.025659
H     18.898204   11.069716    1.413748
H     20.689237   11.470724    0.427654
C     20.721645    7.091933    1.245187
H     20.353777    5.902975    1.238668
H     20.119219    7.225931    0.209359
10

C     19.758786    8.265882    1.291919
H     18.935932    8.432380    1.716365
C     20.473705    9.501772    0.838749
H     21.522261    9.256794    0.958386
C     19.958355   10.849499    0.863127
H     18.898635   10.988930    0.908491
H     20.707136   11.570001    0.819140
C     20.183370    6.772098    1.230246
H     21.168860    6.080948    1.235861
H     19.812673    7.244258   -0.017849
10

C     19.767957    8.231942    1.188372
H     18.732854    8.245688    1.665765
C     20.429186    9.498774    0.779993
H     21.564257    9.455027    0.393928
C     19.976597   10.813371    0.861199
H     19.036212   10.874451    1.548666
H     20.588746   11.691135    0.711363
C     20.296510    7.011566    0.939756
H     19.805057    6.150820    1.306383
H     21.222339    6.989787    0.449008
10

C     19.726140    8.261734    1.064362
H     18.774945    8.491970    1.388751
C     20.530749    9.497636    0.944571
H     21.497757    9.493446    0.387102
C     20.035799   10.736381    1.174400
H     19.052586   10.952386    1.652821
H     20.483447   11.418566    0.569549
C     20.281573    7.008739    0.916354
H     20.048679    6.300127    1.693517
H     20.988040    6.801578    0.053006
10

C     19.744037    8.253363    1.004917
H     18.649913    8.421045    1.336152
C     20.564563    9.482280    1.020285
H     21.568873    9.600336    0.372017
C     20.070628   10.712537    1.237874
H     19.040195   10.918482    1.652217
H     20.521133   11.480897    0.513341
C     20.301923    7.013241    0.910185
H     20.091476    6.323183    1.701235
H     20.866974    6.757198    0.096211
10

C     19.775114    8.248595    0.991210
H     18.609773    8.399033    1.263630
C     20.595738    9.483208    1.059160
H     21.477995    9.614902    0.376783
C     20.092416   10.701847    1.242453
H     19.124867   10.888885    1.626368
H     20.524819   11.552267    0.565512
C     20.301161    7.023679    0.906440
H     20.193246    6.391042    1.783359
H     20.724586    6.659103    0.029517
10

C     19.780741    8.300970    0.983026
H     18.717798    8.416443    1.116611
C     20.619919    9.495985    1.064879
H     21.375286    9.528526    0.435630
C     20.122540   10.746705    1.204332
H     19.190593   10.907428    1.626022
H     20.470827   11.558793    0.683015
C     20.274186    7.049429    0.927253
H     20.371246    6.495000    1.891345
H     20.496578    6.463282   -0.087678
10

C     19.731986    8.260814    1.204330
H     18.554160    8.370653    1.044945
C     20.544835    9.356775    0.794945
H     21.448885    9.367413    0.302428
C     20.093624   10.641542    1.021437
H     19.051103   10.851773    1.230552
H     20.662416   11.423673    1.131311
C     20.122747    6.934143    1.295792
H     20.978559    6.508398    1.567107
H     20.231399    7.247377    0.251586
10

C     19.893518    8.398848    0.329528
H     18.865786    8.500867    0.279705
C     20.584462    9.576461    0.145419
H     21.753999    9.658015   -0.159763
C     20.072274   10.456453    1.298343
H     19.073536   10.779592    1.223389
H     20.438834   10.459307    2.398079
C     20.231211    7.297940    1.197662
H     20.539470    7.465731    2.193770
H     19.966626    6.369348    0.938302
10

C     19.398681    8.300181    0.665527
H     18.301420    8.435358    1.032125
C     20.387804    9.204249    0.686561
H     21.355116    8.920047    0.282574
C     20.198870   10.581854    1.276133
H     19.214775   10.696081    1.724273
H     20.649439   11.466417    0.994062
C     20.280392    7.319044    0.981995
H     20.743569    7.166810    1.953394
H     20.889649    6.872518    0.247788
10

C     19.826732    8.120625    1.459797
H     18.934403    8.253678    1.979237
C     20.589890    9.300978    1.071041
H     21.587573    9.118903    1.131574
C     19.972950   10.488471    0.858170
H     18.826391   10.873649    0.876192
H     20.687728   11.461635    0.666958
C     20.002218    6.842440    0.709462
H     21.116188    7.271937    1.388701
H     19.875642    7.230244   -0.296700
10

C     19.585410    8.084731    1.369927
H     18.560186    8.134522    1.605760
C     20.314699    9.418407    1.155667
H     21.251275    9.236947    0.630041
C     19.891761   10.737385    1.060528
H     19.175265   11.473796    1.126695
H     20.872919   11.168940    0.595347
C     20.023238    6.785481    1.067032
H     21.239326    6.705774    1.320753
H     20.505637    7.216580   -0.087317
10

C     19.889370    8.309288    1.234854
H     18.741350    8.441464    1.785193
C     20.540138    9.497386    0.930417
H     21.385043    9.475326    0.426042
C     20.014230   10.678372    1.119400
H     18.909131   10.912039    1.335815
H     20.588553   11.471923    0.528005
C     20.325711    7.053295    0.753777
H     19.816768    6.011906    1.323285
H     21.209422    7.111562    0.407645
10

C     19.622335    8.182893    1.317052
H     18.644654    8.916950    1.297402
C     20.506894    9.327870    0.948265
H     21.507646    8.916940    0.402836
C     20.096706   10.558394    0.954267
H     19.097394   10.619981    1.112015
H     20.421568   11.476974    1.149020
C     19.912847    6.833609    0.986982
H     21.147246    6.907407    1.528691
H     20.462424    7.221543    0.147902
10

C     19.593516    8.211543    1.318009
H     18.658479    8.603297    1.250877
C     20.516954    9.255699    0.948815
H     21.417315    9.035123    0.336609
C     20.023028   10.508586    0.972561
H     18.945646   10.928398    1.141486
H     20.679991   11.501471    1.147746
C     19.894639    6.816660    0.939428
H     21.136556    6.908986    1.573052
H     20.553589    7.192800    0.215850
10

C     19.823540    8.383975    1.205158
H     18.914043    8.514897    1.889036
C     20.726479    9.549988    0.846451
H     21.890855    9.528064    1.094480
C     19.905487   10.765094    0.703997
H     18.879277   10.809054    0.996100
H     20.594632   11.605561    1.016386
C     20.119300    6.981292    0.791861
H     20.896554    6.456209    1.518788
H     19.669548    6.368428   -0.217824
10

C     19.668198    8.277212    0.990448
H     18.885475    8.576113    1.683474
C     20.453927    9.492071    1.054669
H     21.400859    9.174893    1.045288
C     20.057915   10.705186    1.138659
H     19.032671   10.990211    1.480098
H     20.575145   11.418184    0.332247
C     20.154157    7.078369    0.711400
H     20.744794    6.590655    1.620638
H     20.446575    6.659668   -0.212488
10

C     19.706356    8.275499    1.007821
H     18.872219    8.694755    1.779220
C     20.449379    9.512754    1.078019
H     21.468733    9.077669    1.096638
C     20.099336   10.761123    1.093108
H     19.186674   10.919696    1.472588
H     20.346350   11.513196    0.355678
C     20.206994    7.038964    0.757276
H     20.677143    6.749692    1.522801
H     20.406532    6.419212   -0.318715
10

C     20.087869    8.260676    0.997609
H     19.256374    8.356701    1.654218
C     20.530218    9.483110    0.801841
H     21.591032    9.673506    0.861269
C     19.981188   10.650089    1.004305
H     18.876941   10.925192    0.814168
H     20.540447   11.622090    1.079666
C     20.722952    6.962371    0.942519
H     20.236377    6.344924    1.400576
H     19.596317    6.683904    0.288261
10

C     19.818870    8.119984    1.463649
H     18.922780    8.256740    1.999393
C     20.599111    9.299247    1.064346
H     21.624735    9.124064    1.109635
C     19.968240   10.477191    0.865515
H     18.817688   10.891497    0.842480
H     20.676265   11.423815    0.695080
C     19.975047    6.852680    0.715560
H     21.122742    7.292900    1.350658
H     19.894235    7.224444   -0.261881
10

C     20.039865    8.265454    1.420436
H     18.816321    8.388022    1.588918
C     20.699667    9.587776    1.130182
H     21.780245    9.618963    0.849342
C     20.032210   10.679402    1.084173
H     19.003767   10.657806    1.136166
H     20.354479   11.582652    0.336783
C     20.686985    7.035909    0.963581
H     20.214794    5.960134    1.306185
H     19.791381    7.186443    0.028666
10

C     19.978675    8.207783    1.311398
H     19.114912    8.372849    1.595764
C     20.688714    9.555885    1.079783
H     21.799991    9.730552    0.937303
C     20.020145   10.640545    0.943799
H     18.908847   10.655965    1.046271
H     20.427288   11.505071    0.589618
C     20.580335    7.022817    0.843452
H     20.266552    6.221182    1.377093
H     19.634255    7.049912    0.119951
10

C     20.053541    8.320732    0.931725
H     18.962691    8.355279    1.679274
C     20.691944    9.552149    0.890021
H     21.673246    9.452627    0.891853
C     19.938359   10.643759    0.863312
H     18.915229   10.825573    0.968782
H     20.559262   11.489092    1.258222
C     20.439114    7.009547    0.534072
H     20.449112    7.116240    1.669000
H     19.737217    6.197563    0.158173
10

C     19.857958    8.293339    0.970591
H     19.207859    8.454072    1.630367
C     20.657435    9.531308    0.850329
H     21.851192    9.563017    0.892084
C     20.017539   10.656843    1.032520
H     18.879051   10.649269    0.872897
H     20.515936   11.614450    1.229944
C     20.161061    7.008350    0.482217
H     20.517709    7.101050    1.644198
H     19.753974    6.090863    0.239286
10

C     19.754579    8.232235    0.881100
H     18.807708    8.297949    1.270496
C     20.560182    9.470379    1.052659
H     21.619202    9.469914    0.601123
C     19.966581   10.590910    1.039116
H     19.131202   10.879387    1.522128
H     20.561311   11.635606    0.845385
C     20.559051    7.193674    0.655115
H     20.199896    6.902959    1.803668
H     20.260003    6.289549    0.173642
10

C     19.942973    8.250750    1.177186
H     19.253870    8.572148    1.784357
C     20.508429    9.527820    0.894971
H     21.542776    9.592758    0.735278
C     20.008510   10.777806    0.855206
H     18.924378   10.878776    1.140718
H     20.490631   11.687749    0.954608
C     20.236939    6.911515    0.838065
H     20.205057    6.248663    1.653271
H     20.306151    6.514576   -0.189227
10

C     20.049465    8.214209    1.066265
H     18.946374    8.248971    1.326861
C     20.735319    9.509420    0.720209
H     21.857818    9.544418    0.638781
C     20.056643   10.671552    1.155395
H     18.872786   10.682286    1.014573
H     20.404393   11.683401    1.127827
C     20.601281    7.032753    0.829175
H     20.239490    6.682825    1.760713
H     19.656146    6.692726    0.204634
10

C     19.494083    8.449536    0.270522
H     18.468784    8.716121    0.409702
C     20.556468    9.266814    0.629675
H     21.689570    9.073585    0.205893
C     20.088985   10.325333    1.429583
H     19.164895   10.314913    2.129188
H     20.535264   11.400935    1.080386
C     20.222887    7.360970    1.075593
H     20.537307    7.640468    2.056945
H     20.661470    6.413887    0.556947
10

C     20.033935    8.560473    0.655647
H     18.948609    8.541804    1.061008
C     20.320012    9.643147   -0.019104
H     21.549927    9.740905   -0.182746
C     19.905470   10.528582    1.225399
H     18.914672   10.810960    1.282409
H     20.708095   10.539732    2.020886
C     20.394208    7.240804    1.262221
H     19.701463    6.804169    1.832549
H     20.943323    6.551986    0.706163
10

C     19.437095    8.248841    0.900177
H     18.241684    8.060923    1.069389
C     20.331818    9.203890    0.550894
H     21.088354    8.958729   -0.131800
C     20.083613   10.770874    1.081359
H     19.202500   11.033836    1.475399
H     20.882649   11.254842    1.475319
C     20.500851    7.447191    1.101985
H     20.584528    6.818102    2.071214
H     21.066623    7.165333    0.250496
10

C     19.714775    8.293109    1.082577
H     18.859740    8.270512    1.679980
C     20.436652    9.552247    0.690796
H     21.470284    9.458383    0.349795
C     19.935326   10.805034    0.978843
H     18.997756   10.869788    1.484375
H     20.680340   11.648693    0.793361
C     20.278192    7.056114    0.992715
H     19.812458    6.063078    1.436092
H     21.234191    6.945602    0.355899
10

C     19.484432    8.458067    0.354710
H     18.666799    8.642871    1.267717
C     20.420493    9.274555    0.529627
H     21.309288    9.118202   -0.025903
C     20.004381   10.466599    1.347439
H     19.057173   10.705829    1.353399
H     20.727797   11.198774    1.552908
C     20.326285    7.282677    0.947462
H     20.318512    7.040019    2.080782
H     21.104557    6.774968    0.436291
10

C     19.531887    8.196822    1.018674
H     18.590533    8.750277    1.246923
C     20.457332    9.319729    0.950219
H     21.268681    8.954197    0.514939
C     20.050263   10.584458    1.147108
H     19.180956   10.791311    1.557753
H     20.558810   11.479614    0.743751
C     20.030126    6.841893    0.800054
H     20.819814    7.091044    1.597977
H     20.931313    6.953217    0.267036
10

C     19.752216    8.291902    1.085593
H     18.673176    8.212416    1.680801
C     20.452475    9.518865    0.737387
H     21.561455    9.438682    0.301240
C     19.959568   10.801849    1.046022
H     19.023067   10.843373    1.420239
H     20.654673   11.692127    0.787162
C     20.296871    7.042851    0.987363
H     19.874061    6.161820    1.404302
H     21.172153    6.958677    0.394324
10

C     19.777119    8.286223    1.092809
H     18.633643    8.199874    1.655315
C     20.469002    9.508719    0.749449
H     21.566378    9.419292    0.291060
C     19.988915   10.795197    1.070907
H     19.012834   10.854007    1.404821
H     20.631354   11.683466    0.788634
C     20.300271    7.042519    0.984899
H     19.899663    6.212609    1.396238
H     21.140535    6.960656    0.410302
10

C     19.700192    8.322155    1.068322
H     18.743559    8.375123    1.508711
C     20.474191    9.565650    0.869512
H     21.540456    9.466405    0.457799
C     19.964235   10.784831    1.132391
H     19.068937   10.863606    1.621282
H     20.615585   11.592620    0.569253
C     20.249169    7.026344    0.866535
H     20.054383    6.207157    1.671737
H     21.009008    6.758672    0.078892
10

C     19.778359    8.308921    0.962773
H     18.901426    8.438129    1.604234
C     20.469479    9.606576    0.987152
H     21.572328    9.456548    0.678761
C     19.980955   10.825648    1.164364
H     18.912609   10.968264    0.965655
H     20.759209   11.547402    0.996147
C     20.287351    6.979475    0.791745
H     20.729127    6.485727    1.623703
H     20.028873    6.345872    0.069898
10

C     19.752840    8.313286    0.973931
H     18.782899    8.358913    1.642305
C     20.486279    9.588510    0.962853
H     21.615368    9.506206    0.620477
C     20.008449   10.825091    1.147489
H     18.927545   10.945667    0.952179
H     20.773532   11.545256    1.040939
C     20.292038    6.983819    0.809498
H     20.727249    6.508075    1.656761
H     20.053517    6.387738    0.038001
10

C     19.844444    8.313914    0.987793
H     18.828990    8.207045    1.867967
C     20.534900    9.569475    0.879544
H     21.535045    9.669050    0.644984
C     20.020725   10.813916    1.142452
H     19.007671   11.065628    0.750194
H     20.724746   11.624712    1.171932
C     20.349214    6.987888    0.770200
H     20.576622    6.448443    1.709288
H     19.997358    6.262490   -0.079921
10

C     19.909164    8.291578    1.115402
H     18.914060    8.220767    1.489237
C     20.502171    9.541813    0.766319
H     21.676476    9.464727    0.623859
C     20.020411   10.783413    1.057085
H     18.977448   11.146764    0.875936
H     20.566502   11.637630    1.266130
C     20.299826    7.050117    0.839526
H     20.657848    6.441723    1.638686
H     19.895810    6.384030    0.172253
10

C     19.821238    8.344969    0.988718
H     18.699194    8.423689    1.132585
C     20.699762    9.573033    0.974578
H     21.688418    9.603507    0.496643
C     20.040259   10.732691    1.206626
H     18.992572   10.546050    1.532235
H     20.637505   11.564212    0.889501
C     20.222471    7.039256    0.585502
H     20.250464    7.145981    1.765955
H     20.367831    5.989174    0.272090
10

C     19.891829    8.194102    0.856473
H     19.160846    8.323592    1.650813
C     20.638251    9.489894    0.780592
H     21.667848    9.591141    1.020896
C     20.065529   10.726803    0.877872
H     18.913022   10.591883    0.965649
H     20.582626   11.779331    1.167190
C     20.468213    7.040561    0.550927
H     20.388474    6.874967    1.622680
H     19.643076    6.350287    0.351340
10

C     19.752561    8.221846    1.064466
H     18.733816    8.647606    1.497779
C     20.386066    9.403969    0.621812
H     21.568339    9.158613    0.615862
C     20.003125   10.663287    0.970561
H     19.056379   10.842797    0.957372
H     20.622513   11.640297    1.299328
C     20.072379    6.809808    1.280569
H     21.126873    6.703233    1.347849
H     20.097664    6.871105    0.188834
10

C     19.654056    8.132389    1.205470
H     18.661435    8.589007    1.525412
C     20.592282    9.301098    1.167688
H     21.577029    9.078799    0.714266
C     20.000671   10.468497    1.021262
H     19.055922   10.539069    1.221429
H     20.533089   11.600816    0.540260
C     20.112765    6.883908    0.853335
H     20.922724    6.728817    1.534365
H     20.309743    7.640160    0.060946
10

C     19.644519    8.130960    1.171258
H     18.645937    8.626340    1.531183
C     20.621611    9.248045    1.140962
H     21.633626    9.105721    0.738616
C     20.030824   10.499099    0.977155
H     19.029725   10.484873    1.232500
H     20.506563   11.562021    0.597799
C     20.102789    6.895037    0.844354
H     20.956049    6.794997    1.577582
H     20.248072    7.615468    0.033024
10

C     19.698864    8.187500    1.127268
H     18.842797    8.703818    1.547121
C     20.526301    9.270128    0.894837
H     21.514693    9.028160    0.468186
C     19.940118   10.608754    1.208792
H     18.783463   10.512264    1.035869
H     20.795307   11.457935    1.012737
C     19.932911    6.916784    0.933483
H     20.895716    7.177337    1.578609
H     20.489544    7.099882    0.037532
10

C     19.743331    8.229477    1.165619
H     18.822188    8.733159    1.585805
C     20.572439    9.308258    0.866522
H     21.603602    8.931936    0.619855
C     19.998508   10.617534    1.180687
H     18.753119   10.625450    1.089747
H     20.631933   11.341549    0.916932
C     19.939613    6.922330    0.936825
H     20.954396    7.173429    1.528863
H     20.400585    7.079439   -0.046422
10

C     19.791844    8.312805    1.165570
H     18.734604    8.496481    1.354400
C     20.536035    9.577218    0.811598
H     21.625953    9.349000    0.598063
C     20.012744   10.930135    1.000409
H     18.950276   10.842352    1.290753
H     20.676002   11.734215    1.040928
C     20.332695    7.113501    0.939751
H     20.689519    6.296318    1.807555
H     20.070043    6.310537   -0.164595
10

C     19.782735    8.336830    1.152106
H     18.745919    8.546310    1.324917
C     20.535102    9.562720    0.861967
H     21.512128    9.250253    0.625494
C     20.021338   10.854535    1.024740
H     18.998535   10.805292    1.139811
H     20.686134   11.784674    1.088665
C     20.352752    7.080056    1.002160
H     20.852320    6.402845    1.595102
H     19.932752    6.339046    0.029469
10

C     19.750154    8.298108    0.963510
H     18.732083    8.594305    1.389285
C     20.575167    9.491018    0.778318
H     21.691436    9.438718    0.578707
C     19.964414   10.758944    1.103990
H     18.886154   10.890461    1.026473
H     20.743866   11.455434    1.295163
C     20.205809    7.118100    0.818126
H     20.883453    6.669852    1.696021
H     19.987179    6.247622    0.194839
10

C     19.669769    8.320084    1.278775
H     18.788495    8.550682    1.946071
C     20.473462    9.446733    0.813832
H     21.510549    9.198231    0.823280
C     19.955394   10.789826    0.930421
H     18.957196   10.985642    0.793410
H     20.782114   11.519635    1.159525
C     20.122459    7.083801    0.921778
H     21.074834    6.753606    1.311714
H     20.085442    6.314322   -0.134374
10

C     19.884960    8.407420    0.362162
H     19.190065    8.107743    1.221760
C     20.629019    9.591952    0.710989
H     21.721515    9.428391    0.568251
C     20.040448   10.731313    1.127167
H     18.834284   10.607784    1.334312
H     20.634523   11.645521    1.315457
C     20.061768    7.053214    0.920261
H     20.346041    7.126848    1.926856
H     20.077093    6.262377    0.357217
10

C     19.871122    8.298176    0.674760
H     18.691347    8.254974    0.714314
C     20.641130    9.598525    0.532279
H     21.628395    9.668438    0.025458
C     20.069248   10.491298    1.238323
H     18.961743   10.362610    1.510661
H     20.746705   11.275203    1.539682
C     20.662960    7.253376    1.153392
H     20.036957    7.248371    2.085221
H     20.110109    6.511592    0.370343
10

C     19.968585    8.302464    0.483610
H     19.188335    7.691511    0.962046
C     20.592730    9.688941    0.933439
H     21.549804    9.698381    0.355333
C     20.004532   10.864217    1.204363
H     18.928440   11.146880    1.571995
H     20.653187   11.758673    1.019381
C     20.350404    6.929592    0.997484
H     19.957315    6.660954    1.996717
H     20.226384    6.220948    0.320066
10

C     19.790835    8.269592    1.145690
H     18.753921    8.298457    1.605363
C     20.508862    9.457104    0.789508
H     21.444790    9.314337    0.327181
C     19.963224   10.781214    0.978324
H     19.061574   10.838294    1.404040
H     20.534466   11.687445    0.783224
C     20.328755    7.077978    0.911502
H     19.841350    6.122655    1.316621
H     21.191939    7.115485    0.582981
10

C     19.774797    8.286212    1.192676
H     18.776393    8.467209    1.684082
C     20.422841    9.541443    0.885037
H     21.382408    9.321412    0.381678
C     20.016372   10.776160    1.094223
H     19.034282   11.156233    1.542542
H     20.493966   11.587326    0.576639
C     20.325454    6.951819    0.980474
H     19.907326    6.125061    1.393060
H     21.285877    6.749687    0.114022
10

C     19.939286    8.392586    1.054013
H     19.125275    8.305817    1.626200
C     20.682264    9.550685    0.655093
H     21.848259    9.491943    0.799538
C     19.971426   10.703849    0.945278
H     18.895838   10.592804    0.799302
H     20.450942   11.519635    1.295579
C     20.623907    7.161382    0.703196
H     20.271412    6.468445    1.678118
H     19.611106    6.775416    0.288116
10

C     19.803021    8.331743    1.165458
H     18.669292    8.492413    1.419271
C     20.567129    9.553520    0.714567
H     21.613912    9.549578    0.666566
C     20.009202   10.756175    0.942075
H     19.007348   10.661659    1.326517
H     20.742727   11.680912    1.004788
C     20.153510    7.071565    0.967099
H     20.656644    6.457671    1.600220
H     20.196929    6.407325    0.037871
10

C     19.895657    8.333542    1.088425
H     18.824406    8.586963    1.155138
C     20.524644    9.559698    1.131947
H     21.473082    9.466027    0.544465
C     19.978347   10.876640    1.183515
H     18.974546   11.024615    1.577824
H     20.605287   11.500825    0.552191
C     20.306087    7.036890    0.987435
H     20.452554    6.170029    1.619731
H     20.385107    6.407333    0.003762
10

C     19.955307    8.233056    1.124539
H     18.846774    8.362448    1.120830
C     20.601248    9.521144    1.091078
H     21.569887    9.649744    0.628457
C     19.970652   10.737225    1.102168
H     19.042236   11.035521    1.567408
H     20.442758   11.444032    0.469036
C     20.806448    6.935957    0.984005
H     20.058331    6.204638    1.473524
H     20.126074    6.838796    0.283388
10

C     19.836429    8.211510    1.146131
H     18.759685    8.289489    1.250905
C     20.469078    9.568912    0.897647
H     21.552205    9.560004    0.657225
C     20.019057   10.747281    1.074253
H     19.156821   11.167430    1.534927
H     20.552988   11.650338    0.734842
C     20.260462    6.904264    0.918907
H     20.563567    6.439995    1.882088
H     20.249422    6.423339   -0.252492
10

C     19.835764    8.200122    1.153992
H     18.721304    8.276672    1.199782
C     20.476133    9.557746    0.882755
H     21.539815    9.537421    0.672573
C     20.020081   10.752744    1.063271
H     19.151226   11.143348    1.518698
H     20.588654   11.693889    0.758822
C     20.259657    6.899573    0.922739
H     20.634174    6.478669    1.818028
H     20.192907    6.422378   -0.146228
10

C     19.868080    8.313505    0.995162
H     18.857677    8.235048    1.415597
C     20.780200    9.518358    0.715562
H     21.802607    9.805003    0.709767
C     20.056513   10.529718    1.010920
H     19.120319   10.550584    1.177488
H     20.397820   11.593578    0.890830
C     20.271932    7.028655    1.177864
H     20.448236    6.189837    1.661097
H     19.816332    7.198276    0.090145
10

C     19.953984    8.235657    1.013188
H     18.940838    8.641663    1.357214
C     20.740525    9.601269    0.770932
H     21.747601    9.576943    0.434907
C     20.016490   10.647138    0.990541
H     18.872712   10.493908    1.009792
H     20.487414   11.691205    1.264026
C     20.416896    7.016264    1.161294
H     20.420881    6.111560    1.745357
H     19.822373    6.946955    0.097182
10

C     20.004731    8.226715    1.061800
H     19.020546    8.822994    1.170713
C     20.718131    9.565237    0.783771
H     21.679025    9.370171    0.349829
C     19.887918   10.770558    1.023291
H     18.950358   10.492453    1.049954
H     20.405875   11.713529    1.343158
C     20.567770    6.980525    1.138819
H     20.340773    6.173533    1.768871
H     19.844587    6.846846    0.154227
10

C     19.956246    8.363851    1.238846
H     18.898109    8.144644    0.905074
C     20.723906    9.557149    1.053959
H     21.617770    9.106361    0.714087
C     20.067395   10.688980    0.996129
H     19.306782   10.749029    1.762040
H     20.027974   11.683902    0.367052
C     20.690196    7.145822    1.162437
H     20.114761    6.371738    1.507246
H     20.016575    7.151087    0.137564
10

C     19.979030    8.248985    1.003656
H     19.076329    8.128281    1.689097
C     20.533347    9.593014    0.630928
H     21.591095    9.311245    0.951060
C     19.929721   10.848875    0.934628
H     18.867913   11.130786    0.682711
H     20.615218   11.665768    1.272910
C     20.683592    6.933415    0.762746
H     20.651108    6.235663    1.642101
H     19.492363    6.866529    0.274596
10

C     19.989098    8.250659    0.995110
H     19.156556    8.091116    1.671190
C     20.522632    9.609867    0.595901
H     21.587854    9.324692    0.976160
C     19.964545   10.894227    0.925611
H     18.869369   11.067985    0.672154
H     20.595152   11.621039    1.314848
C     20.649923    6.958647    0.711387
H     20.620902    6.286705    1.700117
H     19.463685    6.857623    0.281956
10

C     20.118048    8.282517    1.399729
H     19.156740    8.326273    2.019029
C     20.769852    9.484036    1.319599
H     21.918966    9.675309    1.126777
C     19.920943   10.532322    0.851338
H     18.896713   10.384267    0.708010
H     20.443074   11.511212    0.579809
C     20.480490    7.181197    0.439261
H     20.249645    6.547334    1.332016
H     19.465243    7.038094    0.068864
10

C     19.990733    8.218419    1.228920
H     19.167732    8.640747    1.998555
C     20.792890    9.592353    1.055915
H     21.879048    9.571106    1.556317
C     19.998090   10.674343    0.797930
H     19.060014   10.362431    0.953576
H     20.185749   11.768672    0.249481
C     20.439744    6.887793    0.722819
H     20.518013    5.924439    1.122953
H     19.387701    7.322259    0.157968
10

C     20.022227    8.336095    1.122913
H     18.886622    8.601293    1.437055
C     20.636902    9.534272    1.027606
H     21.666353    9.228937    0.751969
C     20.074982   10.684914    1.121288
H     19.020796   10.481693    1.147771
H     20.300253   11.501727    0.736816
C     20.694856    7.221503    0.832009
H     20.287850    6.465759    1.601187
H     19.828874    6.906368    0.065818
10

C     19.714619    8.338396    1.157331
H     18.581324    8.516980    1.137696
C     20.627716    9.485825    1.116855
H     21.475388    9.233296    0.462583
C     20.165655   10.719138    1.211327
H     19.203465   10.680092    1.691922
H     20.310675   11.371790    0.390372
C     20.212571    7.096597    0.959220
H     20.449435    6.369969    1.743212
H     20.678868    7.150480   -0.026085
10

C     19.644336    8.206884    1.343015
H     18.555919    8.551611    1.148693
C     20.591805    9.364904    0.853109
H     21.659677    9.074938    0.768761
C     20.014385   10.606940    0.885843
H     19.119162   10.729743    1.473593
H     20.473960   11.640816    0.635928
C     20.115317    6.917172    1.238978
H     21.130400    6.464591    1.323933
H     20.114753    7.404964    0.172580
10

C     19.860005    8.329373    1.262465
H     19.057276    8.586492    1.896469
C     20.482720    9.516101    0.734418
H     21.483029    9.397027    0.546488
C     19.921598   10.720237    0.916430
H     18.906140   10.872701    1.256246
H     20.537811   11.568548    0.820257
C     20.277240    7.021425    0.875466
H     19.843364    6.121455    1.257871
H     21.050533    6.829203    0.278322
10

C     19.887375    8.289829    1.303354
H     18.860918    8.465452    1.629388
C     20.470366    9.576474    0.813780
H     21.531940    9.443473    0.397745
C     19.961481   10.776401    0.936158
H     18.903655   10.973459    1.345888
H     20.609148   11.753756    0.854100
C     20.373935    6.970034    1.037515
H     20.002591    6.021241    1.394996
H     20.818305    6.692443    0.131509
10

C     19.779804    8.355980    1.009097
H     19.091904    8.427975    1.938097
C     20.512156    9.583498    0.839042
H     21.535135    9.387363    0.770547
C     20.054791   10.873477    1.034057
H     18.840251   10.990013    0.996258
H     20.603025   11.683009    0.954521
C     20.371253    7.072236    0.783822
H     20.330663    6.228735    1.574497
H     20.300734    6.360274   -0.055506
10

C     19.921878    8.232387    0.931138
H     18.937031    8.404589    0.933577
C     20.683638    9.612628    0.837049
H     21.747460    9.668705    0.518427
C     20.109878   10.701055    1.281638
H     18.991368   10.736610    1.558483
H     20.404978   11.665726    0.947641
C     20.442467    6.878612    0.739342
H     20.082984    7.071196    1.866715
H     20.098032    5.991052    0.230423
10

C     19.890591    8.165580    0.834849
H     18.939662    8.129070    1.345258
C     20.666513    9.433133    0.675392
H     21.660591    9.373375    0.437931
C     20.007592   10.650929    1.086330
H     18.921598   11.099498    0.842588
H     20.461763   11.385530    1.539186
C     20.630336    7.091870    0.858746
H     20.449617    6.776684    1.903104
H     19.791453    6.856892    0.321049
10

C     20.212670    8.234193    1.240886
H     18.963718    6.224389    1.184953
C     20.627479    9.545511    1.013131
H     21.629188    9.755704    0.910932
C     19.923114   10.670264    1.030933
H     18.945749   10.897076    1.175741
H     20.588480   11.492302    0.521432
C     19.899929    6.764288    1.172088
H     20.793093    6.150897    1.330412
H     19.842937    7.073164    0.012058
10

C     20.007538    8.173959    1.312019
H     18.878027    8.205876    1.652742
C     20.684369    9.534866    0.990652
H     21.756138    9.616854    1.067272
C     19.903155   10.770798    0.946877
H     18.857614   11.035822    1.124471
H     20.556803   11.345876    0.459598
C     20.625266    7.061669    0.749065
H     20.433342    6.058819    1.397894
H     19.717463    7.158021    0.143843
10

C     19.937811    8.183259    1.270024
H     18.857725    8.429965    1.558355
C     20.665331    9.574261    1.177288
H     21.784799    9.626792    0.881326
C     19.873320   10.685286    0.914495
H     18.938322   10.737240    1.277019
H     20.578048   11.481512    0.418916
C     20.553063    7.037014    0.985200
H     20.457625    6.040541    1.484528
H     19.773672    7.166691   -0.122720
10

C     19.773632    8.238944    1.088501
H     18.791307    8.437743    0.875249
C     20.611762    9.491881    0.858648
H     21.671841    9.680482    0.515830
C     19.954795   10.632070    1.029687
H     19.087706   10.747817    1.626389
H     20.546531   11.469946    0.713941
C     20.430760    6.991563    1.166709
H     20.516168    5.992077    1.879433
H     20.035213    7.280039    0.090046
10

C     19.647964    8.179936    0.901443
H     18.817646    8.574617    1.629485
C     20.479700    9.402663    0.745654
H     21.566796    9.257419    0.734042
C     19.979369   10.646562    1.100587
H     18.885607   10.918094    1.178248
H     20.785715   11.532284    1.102875
C     19.864205    6.920042    0.685005
H     20.934847    7.170515    1.717673
H     20.457865    6.360430    0.049421
10

C     19.730232    8.225014    1.224873
H     18.827398    8.079651    1.509781
C     20.423475    9.409542    1.049664
H     21.425836    9.316926    0.666465
C     20.152523   10.741740    1.240454
H     19.085886   10.877690    1.306797
H     20.663164   11.524659    0.644914
C     20.044116    6.951743    0.752896
H     20.593788    7.391937    1.595905
H     20.473298    6.443658   -0.147315
10

C     19.749788    8.369939    1.020654
H     19.009369    8.471786    1.764386
C     20.586754    9.492122    0.925228
H     21.631078    9.156637    0.825727
C     20.027562   10.738166    0.956030
H     18.897287   10.705966    1.252174
H     20.551648   11.686051    0.872401
C     19.827753    6.951659    0.600056
H     20.534109    7.067558    1.440729
H     20.604368    6.322678    0.187048
10

C     19.711254    8.230791    1.236329
H     18.741786    8.516209    1.361799
C     20.592285    9.420420    1.054096
H     21.472253    9.130929    0.574318
C     19.936608   10.650529    1.150707
H     18.989560   10.880599    1.464440
H     20.605624   11.406307    0.579735
C     19.917952    6.866246    0.810023
H     20.712355    6.909759    1.550935
H     20.740038    6.950771    0.062051
10

C     19.735028    8.204521    1.175676
H     18.635035    8.245506    0.779583
C     20.429217    9.595730    0.788092
H     21.242767    9.377745    0.194002
C     19.973917   10.806951    1.160838
H     19.122099   11.063335    1.659347
H     20.826555   11.690516    0.950383
C     20.365796    6.970423    1.133499
H     20.536063    6.320535    1.934923
H     20.553239    6.687300    0.068089
10

C     19.862477    8.317327    1.153368
H     18.815087    8.341128    1.301193
C     20.581427    9.543800    0.951039
H     21.567967    9.426672    0.603582
C     19.934272   10.801744    1.145065
H     18.893199   11.061411    1.264278
H     20.725268   11.668471    0.841574
C     20.309633    7.073609    0.847649
H     20.648199    6.238360    1.813456
H     20.082185    6.490040   -0.076771
10

C     19.909930    8.269710    1.250410
H     18.813830    8.496032    1.268349
C     20.610391    9.535831    0.943781
H     21.578761    9.419181    0.556621
C     19.902663   10.781002    1.147511
H     18.864025   11.029060    1.322959
H     20.681054   11.663373    0.801458
C     20.328302    7.019914    0.887934
H     20.580676    6.183332    1.829622
H     20.150084    6.565127   -0.164212
10

C     19.889240    8.324327    1.141277
H     18.766816    8.343501    1.369827
C     20.587375    9.543843    0.910092
H     21.637115    9.466153    0.583483
C     19.971936   10.804350    1.123862
H     18.888353   11.098578    1.246749
H     20.650665   11.665841    0.880039
C     20.331663    7.057999    0.848612
H     20.591632    6.134547    1.865470
H     20.104920    6.523423   -0.124977
10

C     19.671878    8.244711    1.041966
H     18.722252    8.574774    1.570488
C     20.628765    9.321969    0.984175
H     21.713114    9.306825    0.627185
C     20.041541   10.639305    1.118198
H     18.998281   10.962797    1.314093
H     20.422826   11.488888    0.808298
C     19.876381    6.815573    0.701694
H     20.715632    6.987658    1.633077
H     20.629044    6.620059    0.045259
10

C     20.120873    8.358747    1.429491
H     18.993771    7.889223    1.019408
C     20.532281    9.604150    0.841913
H     21.614882    9.591823    0.529556
C     20.059401   10.833247    1.067311
H     19.058501   11.148712    1.351938
H     20.434592   11.720671    0.802153
C     20.287154    6.979694    1.075295
H     20.277143    6.145371    1.601894
H     20.041117    6.690922    0.125475
10

C     19.684766    8.320314    1.072717
H     18.792541    8.462970    1.603127
C     20.587695    9.346884    0.961885
H     21.576465    9.342932    0.688171
C     20.122609   10.609662    1.050121
H     19.127315   10.706658    1.391682
H     20.431032   11.722117    0.694018
C     19.806923    6.829249    0.863796
H     20.592800    6.982901    1.442470
H     20.697569    6.638875    0.076447
10

C     19.928435    8.297211    1.130175
H     18.934076    8.428714    1.352666
C     20.513603    9.599633    0.801947
H     21.543637    9.584365    0.655100
C     20.076289   10.777767    0.981486
H     19.030550   10.831201    1.258308
H     20.566900   11.855983    0.962550
C     20.267497    6.970109    0.999906
H     20.483720    6.115819    1.679671
H     20.075008    6.501760    0.022623
10

C     19.964269    8.253280    1.023739
H     19.052892    8.591673    1.420761
C     20.652536    9.589966    0.865605
H     21.678496    9.653073    0.811762
C     20.052743   10.704669    0.931526
H     19.004712   10.652246    1.213745
H     20.371131   11.864915    0.835291
C     20.645537    6.965143    0.993697
H     20.248644    5.862689    1.630281
H     19.748756    6.824907    0.118026
10

C     19.770226    8.259830    1.119169
H     18.967937    8.407718    1.895233
C     20.515858    9.464653    0.837990
H     21.442840    9.495428    0.601633
C     19.958440   10.713946    0.959848
H     18.977684   10.996554    1.381610
H     20.564249   11.715645    0.616794
C     20.239954    6.976878    0.900189
H     19.881634    6.143919    1.232057
H     21.100893    6.787989    0.299909
10

C     20.101924    8.340375    1.178346
H     19.105787    7.860380    0.929885
C     20.553546    9.640205    0.850974
H     21.567699    9.547124    0.489605
C     19.913495   10.896220    0.999510
H     18.938742   11.119667    1.568796
H     20.655183   11.727152    0.945708
C     20.233399    6.944301    0.974150
H     20.194116    6.564966    1.819791
H     20.155825    6.322171    0.087667
10

C     20.164934    8.398231    1.432301
H     19.033192    8.164314    0.792003
C     20.711456    9.605906    1.091205
H     21.583719    9.796076    0.459569
C     20.052468   10.741992    1.113873
H     19.079346   10.873159    1.792068
H     20.324941   11.508599    0.425333
C     20.267440    7.057143    1.043701
H     19.948783    6.117145    1.775119
H     20.253437    6.699997   -0.080739
10

C     20.222042    8.384824    1.568278
H     18.886071    8.247938    1.159656
C     20.672377    9.601773    0.852640
H     21.695742    9.725770    0.470060
C     20.001370   10.778388    0.838463
H     18.919050   10.688059    1.208070
H     20.583431   11.584068    1.117692
C     20.199963    7.097364    0.975755
H     20.359852    6.255851    1.722970
H     19.879817    6.598526   -0.069151
10

C     19.959442    8.303362    0.874897
H     19.099006    8.278485    1.424200
C     20.670146    9.464849    0.819703
H     21.738598    9.219331    0.820285
C     19.955081   10.658832    1.067629
H     18.835482   10.863375    1.152737
H     20.472648   11.671399    1.119969
C     20.573053    7.036679    0.580227
H     20.318643    7.122791    1.838528
H     19.797617    6.343457    0.146258
10

C     19.714226    8.241740    0.920149
H     18.759564    8.811703    1.249391
C     20.676302    9.555074    0.792137
H     21.639986    9.397530    0.379049
C     20.071750   10.608034    1.079952
H     19.051851   10.488620    1.288812
H     20.493839   11.703292    1.352392
C     20.134386    7.042041    0.606059
H     20.392103    7.060033    1.794387
H     20.485709    6.054494    0.382105
10

C     19.673693    8.246377    1.103435
H     18.849139    8.418454    1.692402
C     20.554281    9.580164    0.940706
H     21.574558    9.218695    0.886914
C     19.966784   10.816624    0.982477
H     18.920121   11.080219    1.121097
H     20.668117   11.666014    0.771039
C     20.297464    7.086737    0.871197
H     20.882295    6.169299    1.592229
H     20.033265    6.679979   -0.117064
10

C     19.699305    8.271932    1.087079
H     18.793056    8.471125    1.806580
C     20.522753    9.469511    0.944152
H     21.627449    9.393700    0.855789
C     20.020673   10.774467    0.904767
H     18.985903   10.959779    1.250981
H     20.593119   11.690833    0.701853
C     20.241959    7.020621    0.920746
H     20.660024    6.238331    1.510372
H     20.275474    6.672262   -0.137887
10

C     19.709803    8.285616    0.778412
H     18.675144    8.314148    1.168882
C     20.530996    9.383967    0.890290
H     21.660393    9.301433    0.660272
C     20.029035   10.659718    1.129160
H     19.143356   10.935103    1.763236
H     20.490151   11.447785    0.726026
C     19.902535    6.783261    0.909753
H     20.674942    7.402002    1.682299
H     20.603361    6.449528    0.136102
10

C     19.749455    8.333260    1.142529
H     18.752147    8.485369    1.414437
C     20.484271    9.485821    1.007937
H     21.542131    9.486294    0.760159
C     20.093902   10.742665    0.952263
H     19.105350   10.884720    1.351792
H     20.598458   11.693660    0.763033
C     20.130703    7.039849    0.879815
H     20.797455    6.327654    1.631643
H     20.165843    6.483269   -0.059175
10

C     19.793296    8.310224    1.173365
H     18.696250    8.476656    1.361930
C     20.487638    9.538723    1.021759
H     21.448585    9.444545    0.657832
C     20.064359   10.705897    1.014498
H     19.089170   10.853418    1.363677
H     20.702174   11.739808    0.794983
C     20.103314    7.061405    0.849529
H     20.786127    6.409819    1.732539
H     20.248802    6.422066   -0.125678
10

C     19.738356    8.241131    1.048205
H     18.688035    8.561918    0.798533
C     20.580212    9.452128    0.915137
H     21.680954    9.359581    0.831378
C     20.106013   10.809005    1.134104
H     18.779119   10.862279    1.269096
H     20.788612   11.558989    0.903195
C     20.229084    7.014513    0.999705
H     21.278627    6.787719    1.110967
H     19.550702    6.315298    0.834114
10

C     19.758080    8.289284    0.826032
H     18.765849    8.564967    1.139759
C     20.555174    9.534217    0.974312
H     21.587210    9.316702    0.817044
C     20.072236   10.773691    1.136498
H     19.083905   11.072243    1.007537
H     20.556744   11.794636    1.125319
C     20.245944    6.952159    0.885065
H     21.189392    6.654509    1.311050
H     19.605180    6.010153    0.621818
10

C     19.790867    8.371673    1.052177
H     18.745485    8.450207    0.858580
C     20.440250    9.581626    0.730653
H     21.458828    9.229638    0.519974
C     20.033465   10.790593    0.910839
H     18.913297   11.141464    1.486191
H     20.764945   11.543264    1.305446
C     20.324454    7.057543    0.949989
H     20.894840    6.655958    1.769490
H     20.053286    6.140596    0.261096
10

C     19.773945    8.338471    1.128785
H     18.711479    8.527539    0.886845
C     20.412339    9.541206    0.738396
H     21.325312    9.296144    0.439310
C     19.990537   10.806355    0.992251
H     19.104093   11.007879    1.405468
H     20.767787   11.568686    1.292312
C     20.327390    7.054407    0.973467
H     20.867457    6.577453    1.809822
H     20.139376    6.244422    0.177777
10

C     19.636205    8.249868    1.617056
H     19.161627    8.270635    0.408452
C     20.422161    9.569598    0.920124
H     21.305884    9.293799    0.149681
C     20.089646   10.765028    1.194326
H     19.172377   11.187045    1.891694
H     20.354587   11.495745    0.550181
C     20.207997    7.003194    1.125975
H     20.177964    6.070119    1.638578
H     20.891267    7.057531    0.348366
10

C     19.989386    8.272919    1.110024
H     19.182819    8.486629    0.567289
C     20.774582    9.405503    1.441801
H     20.479110    9.657667    0.351227
C     20.142969   10.812792    1.464748
H     19.171245   10.881649    0.887293
H     20.816792   11.546371    1.004195
C     20.272648    7.036206    0.970170
H     20.963508    6.551596    1.557619
H     19.626657    6.311230    0.490066
10

C     20.078244    8.231402    0.895613
H     19.095473    8.255228    1.282564
C     20.588778    9.579421    0.763364
H     21.828894    9.602987    0.804481
C     20.015495   10.667213    1.004001
H     18.969246   10.826797    1.189306
H     20.397096   11.528379    1.168735
C     20.524797    6.859335    0.691201
H     20.253623    7.028460    1.803213
H     19.668069    6.383341    0.241954
10

C     19.737160    8.272665    1.113629
H     18.727029    8.335779    1.563553
C     20.521816    9.486443    0.770867
H     21.469549    9.282855    0.486427
C     19.980719   10.762814    1.051313
H     19.017758   10.963374    1.555256
H     20.551475   11.700141    0.607135
C     20.260884    7.069493    0.872322
H     20.003437    6.145063    1.392179
H     21.149890    6.943934    0.431752
10

C     19.698189    8.246320    1.089768
H     18.735576    8.519901    1.437336
C     20.487584    9.573193    0.969542
H     21.520682    9.480786    0.511431
C     20.053553   10.831288    1.119652
H     19.167730   11.016738    1.686636
H     20.416787   11.464961    0.510624
C     20.276947    6.970001    0.918194
H     20.157883    6.252800    1.660557
H     20.904783    6.606574   -0.059307
10

C     19.661032    8.270841    1.201521
H     18.672874    8.433527    1.695502
C     20.649866    9.347514    0.913042
H     21.732415    9.294756    0.696185
C     19.969338   10.577598    0.912626
H     18.905622   10.671473    1.024026
H     20.691062   11.607371    0.867662
C     20.084805    7.000484    1.259786
H     21.020535    6.527376    1.279162
H     20.032166    7.231622   -0.005080
10

C     19.982465    8.293644    1.099240
H     18.805127    8.367023    0.892883
C     20.579714    9.546797    0.914349
H     21.680013    9.606353    0.448094
C     19.864025   10.695260    1.158115
H     19.003052   10.853892    1.586299
H     20.617946   11.471776    0.775680
C     20.704238    7.165474    1.051066
H     20.120308    6.413955    1.616922
H     20.062827    6.548390    0.301786
10

C     19.789632    8.298953    0.775327
H     18.696006    8.520435    0.973981
C     20.521840    9.565021    0.598047
H     21.597688    9.354888    0.263324
C     20.080897   10.735827    1.162191
H     18.868387   10.819363    1.414124
H     20.722277   11.537864    1.496578
C     19.960696    6.936036    0.715403
H     20.567372    7.185286    1.830217
H     20.614920    6.008888    0.615239
10

C     19.510587    8.209530    0.862860
H     18.465343    8.341715    1.162460
C     20.396255    9.356020    0.843365
H     21.384148    9.255102    0.401616
C     19.990335   10.608339    1.134386
H     19.266626   10.980615    1.648142
H     20.720778   11.495741    0.927639
C     19.984993    6.825503    0.731726
H     20.743283    7.208039    1.860641
H     20.957367    6.681958    0.271597
10

C     19.871346    8.139945    1.432633
H     19.230277    8.358049    2.190569
C     20.662727    9.467035    1.227943
H     21.754861    9.566963    1.241199
C     20.000828   10.472442    0.802815
H     19.067254   10.605486    0.683177
H     20.443633   11.437521    0.576592
C     19.679860    6.915538    0.835125
H     21.009472    6.861525    1.198049
H     19.699455    7.138058   -0.343667
10

C     20.111742    8.266197    1.219693
H     19.040104    8.539731    1.447352
C     20.835549    9.515066    1.072431
H     22.004104    9.645024    0.911698
C     19.978871   10.589614    0.934349
H     18.854086   10.538487    1.328032
H     20.271357   11.602858    0.569222
C     20.492932    7.164825    0.749190
H     20.059055    6.407272    1.431720
H     19.771915    6.693488    0.180747
10

C     20.008245    8.221461    1.010046
H     18.887623    8.363358    1.257636
C     20.743510    9.574401    1.048462
H     21.649537    9.539372    0.634825
C     20.030266   10.802957    0.997931
H     19.159532   10.771937    1.219360
H     20.314504   11.822049    0.999643
C     20.537472    7.060073    0.722328
H     20.197057    6.580223    1.606676
H     19.891970    6.226731    0.347526
10

C     19.802726    8.342903    1.098567
H     18.788439    8.354657    1.372675
C     20.555351    9.512799    0.763453
H     21.490121    9.355893    0.317772
C     20.065803   10.754005    1.047105
H     19.093919   10.858898    1.716039
H     20.364267   11.812607    0.676169
C     20.271646    7.063460    0.848582
H     19.634577    6.194636    1.394663
H     21.352867    6.712704    0.609408
10

C     19.724673    8.300914    1.304406
H     18.715005    8.686909    1.284095
C     20.524709    9.404197    1.152664
H     21.460508    9.145585    0.704313
C     19.999348   10.711314    0.947649
H     18.937348   11.082105    1.368329
H     20.664533   11.643769    0.775734
C     20.276752    7.063951    0.819643
H     20.993518    6.504158    1.616252
H     20.123321    6.419660   -0.128653
10

C     20.002679    8.270623    1.216357
H     18.937523    8.332811    1.452998
C     20.660761    9.437135    0.912526
H     21.792232    9.419382    0.574282
C     20.040599   10.685552    0.919476
H     18.828418   10.704947    0.917619
H     20.429736   11.746258    1.036053
C     20.569054    7.051296    0.958369
H     20.369608    6.023876    1.540069
H     19.789105    7.290682    0.316683
10

C     19.904533    8.141880    1.026639
H     18.985899    8.315222    1.614417
C     20.798958    9.510637    1.173281
H     21.839059    9.688925    0.948490
C     20.060987   10.665137    0.962354
H     18.934345   10.736785    1.442865
H     20.381317   11.669676    0.542440
C     20.409670    6.876128    0.659473
H     20.198963    6.983631    1.744247
H     19.905983    6.374539   -0.269773
10

C     19.826091    8.176349    1.001604
H     19.013593    8.370043    1.534215
C     20.740077    9.596617    1.175110
H     21.948069    9.706432    0.904618
C     20.009094   10.659803    1.007098
H     18.964533   10.795324    1.404231
H     20.378041   11.540815    0.610458
C     20.408950    6.894723    0.620321
H     20.254199    6.929668    1.740525
H     19.877068    6.292787   -0.153747
10

C     20.073684    8.280493    0.962576
H     18.862155    8.371719    1.324931
C     20.647845    9.417778    0.863287
H     21.601300    9.366874    0.739601
C     20.050440   10.754861    1.084611
H     18.931444   10.723242    1.023405
H     20.513219   11.776284    1.154453
C     20.568554    7.115023    0.487622
H     20.368072    6.787572    1.693461
H     19.803002    6.368714    0.510485
10

C     19.834719    8.255654    1.211791
H     18.688484    8.387407    1.610668
C     20.544223    9.540990    1.124790
H     21.521678    9.232910    0.690560
C     19.995349   10.743753    0.881477
H     19.056452   10.824879    0.951320
H     20.563788   11.572062    0.884848
C     20.739638    7.086278    0.832510
H     20.610255    6.203683    1.486369
H     19.865128    7.114948    0.170100
10

C     20.137764    8.292872    1.249824
H     19.106923    8.463019    1.505147
C     20.855736    9.535783    1.123921
H     21.918584    9.573868    0.882254
C     20.064817   10.629377    0.847046
H     18.748646   10.553671    1.271656
H     20.272901   11.620507    0.603691
C     20.533020    7.160272    0.829083
H     20.015977    6.361851    1.322816
H     19.765348    6.771340    0.208996
10

C     19.595767    8.269835    1.188431
H     18.529991    8.473706    1.426492
C     20.401298    9.381804    0.754371
H     21.475236    9.208157    0.657974
C     19.971741   10.580439    0.842474
H     19.047167   10.805694    1.219558
H     20.815719   11.456625    1.037182
C     20.234983    6.725723    1.058375
H     21.219429    6.586476    1.803593
H     20.128385    7.474104   -0.144016
10

C     19.713273    8.283519    1.111989
H     18.574587    8.298281    1.545594
C     20.396855    9.438740    0.786541
H     21.417235    9.256079    0.259135
C     19.969653   10.755242    0.919265
H     19.023781   10.951508    1.575611
H     20.682607   11.663321    0.767392
C     20.297067    7.083221    1.007539
H     19.980083    6.130747    1.304250
H     21.364572    7.101904    0.567116
10

C     19.771068    8.247924    1.326475
H     18.607304    8.329402    1.414831
C     20.322864    9.545066    0.939044
H     21.408641    9.416204    0.380193
C     20.010343   10.901189    1.008350
H     18.967807   11.368465    1.056416
H     20.857046   11.426353    1.202117
C     20.394681    7.008334    0.888143
H     20.852582    6.340375    1.763417
H     20.227378    6.379248   -0.134553
10

C     20.043549    8.347860    1.704277
H     19.064834    8.114504    1.056764
C     20.593993    9.517354    1.061876
H     21.718116    9.389445    0.725626
C     19.903513   10.714726    1.039512
H     19.027135   11.210171    1.583150
H     20.333393   11.435804    0.338525
C     20.285613    7.088785    0.974153
H     20.341501    6.205751    1.588532
H     20.108068    6.938161   -0.227983
10

C     20.044810    8.309452    0.879734
H     18.964538    8.554739    1.146136
C     20.693309    9.472728    1.055241
H     21.703689    9.663554    0.933219
C     19.931502   10.652278    1.177463
H     18.981840   10.946093    1.481669
H     20.410067   11.530886    0.638317
C     20.709891    6.857925    0.546698
H     20.246910    6.736498    1.788629
H     19.733159    6.238410    0.197326
10

C     20.057146    8.366193    0.960045
H     19.042891    8.457062    1.127110
C     20.682441    9.512851    1.116217
H     21.830042    9.534155    0.732584
C     19.952510   10.662520    1.165089
H     18.908752   10.833754    1.464006
H     20.336078   11.423706    0.691478
C     20.706778    6.925338    0.683471
H     20.072077    6.848666    1.719787
H     19.831000    6.398316    0.184646
10

C     20.087045    8.269084    1.134463
H     19.084606    8.135648    1.408381
C     20.480775    9.581644    0.820597
H     21.617382    9.381763    0.582598
C     19.912002   10.764103    1.067052
H     18.866039   10.900264    0.904239
H     20.634784   11.585227    1.136764
C     20.722741    7.075488    0.890349
H     20.290716    6.295113    1.774474
H     19.723627    6.974228    0.125516
10

C     19.966036    8.343344    0.986259
H     18.883757    8.673353    1.242185
C     20.723215    9.552327    0.820387
H     21.845992    9.433631    0.672640
C     20.061303   10.755110    1.131202
H     18.930742   10.525124    1.149022
H     20.340943   11.800549    1.109856
C     20.578908    7.016976    0.611425
H     20.233835    6.652484    1.603802
H     19.854984    6.209662    0.517654
10

C     19.858092    8.271140    0.890751
H     18.744058    8.257935    1.304681
C     20.503679    9.513035    0.770265
H     21.657939    9.126121    0.653609
C     20.165994   10.745313    1.019400
H     19.164034   10.729237    1.305144
H     20.312609   11.921456    0.908643
C     20.509285    7.150886    1.198911
H     20.540003    6.217206    1.680315
H     19.964023    7.030232    0.112713
10

C     19.936949    8.226834    0.925623
H     18.869335    8.603382    1.095058
C     20.524873    9.470746    0.894182
H     21.544369    9.654767    0.620287
C     19.995792   10.760630    1.213504
H     18.912594   11.126528    1.349085
H     20.651180   11.592400    0.909077
C     20.310177    6.942437    0.883758
H     20.657323    6.251196    1.818407
H     20.017123    6.333642    0.135450
10

C     19.876495    8.282143    1.130837
H     18.656899    8.481012    0.786284
C     20.659636    9.571374    0.892264
H     21.661248    9.544770    0.300443
C     19.999928   10.849386    1.061356
H     19.262110   10.653481    1.771712
H     20.393116   11.895454    0.889750
C     20.229317    6.899402    1.107924
H     20.351306    6.361392    1.967984
H     20.329660    6.424147   -0.064121
10

C     19.560086    8.184210    1.154779
H     18.718832    8.823986    1.325812
C     20.497737    9.322126    0.685011
H     21.510359    9.061253    0.351690
C     20.078236   10.577467    1.035621
H     19.028767   10.626305    1.009392
H     20.582777   11.545114    1.409240
C     20.102395    6.853534    1.298701
H     21.102715    7.026727    1.490970
H     20.237810    6.941839    0.083217
10

C     19.787875    8.276250    1.196727
H     18.805129    8.492513    1.707750
C     20.491750    9.512593    0.786710
H     21.536941    9.500192    0.382340
C     19.921831   10.737308    0.864917
H     18.983414   10.864859    1.524380
H     20.578887   11.639040    0.742793
C     20.280427    7.004292    0.937027
H     19.737924    6.098113    1.198027
H     21.295537    6.837400    0.503761
10

C     19.777286    8.224931    1.003102
H     18.689481    8.463289    1.045868
C     20.516172    9.464967    0.990566
H     21.576299    9.309832    0.845896
C     20.101917   10.777421    1.082029
H     19.163019   11.066405    1.081404
H     20.525406   11.833551    1.001713
C     20.257224    6.983263    0.867584
H     21.185551    6.651792    1.217405
H     19.627360    6.187111    0.708866
10

C     19.772025    8.249556    1.018166
H     18.658911    8.371425    1.035004
C     20.529422    9.491889    1.002948
H     21.601753    9.578347    0.756290
C     20.173142   10.803164    1.125504
H     18.987939   10.948181    1.086452
H     20.731474   11.678425    0.996294
C     20.251989    6.996111    0.941964
H     21.181192    6.605802    1.369996
H     19.531869    6.239661    0.511814
10

C     19.757901    8.406851    1.021080
H     18.733865    8.306985    0.944262
C     20.551376    9.612246    0.909283
H     21.627792    9.224896    0.457291
C     20.081386   10.827447    1.208615
H     18.986709   10.993405    1.665618
H     20.506606   11.702405    0.729055
C     20.319408    7.035932    1.023367
H     20.526715    6.320446    1.864336
H     20.327958    6.531950    0.021527
10

C     19.812309    8.329622    0.985017
H     18.647749    8.445908    1.109505
C     20.593269    9.509463    0.847208
H     21.509048    9.257769    0.532914
C     20.029277   10.780523    1.190594
H     19.188835   11.012070    1.614469
H     20.399510   11.806155    0.731291
C     20.349710    7.069083    0.998514
H     20.453023    6.270587    1.773650
H     20.436986    6.481382    0.061272
10

C     19.710542    8.312399    0.845045
H     18.813886    8.536192    1.575145
C     20.522307    9.488188    0.792914
H     21.498336    9.472508    0.478434
C     20.043434   10.697332    1.130132
H     19.112826   10.612473    1.635168
H     20.482120   11.554479    0.696438
C     20.200784    6.948134    0.750598
H     19.902395    6.563013    1.768632
H     21.133086    6.777843    0.171927
10

C     19.707665    8.376180    1.003960
H     18.576586    8.490484    0.922866
C     20.571790    9.410004    0.848890
H     21.420244    9.158849    0.281882
C     20.029896   10.710699    1.139400
H     19.090189   10.971051    1.684335
H     20.510672   11.593829    0.976193
C     19.967046    6.815030    0.551554
H     20.461023    6.861905    1.794378
H     21.084604    6.574530    0.640975
10

C     20.179662    8.196982    0.872882
H     19.032888    8.154692    1.160913
C     20.634498    9.561438    0.872677
H     21.888473    9.510564    0.617763
C     19.992760   10.857455    1.055354
H     18.797078   10.869871    1.136413
H     20.467446   11.718853    1.237598
C     20.592384    6.878133    0.670050
H     20.180131    6.921606    1.776503
H     19.654396    6.292968    0.444281
10

C     20.057353    8.290976    1.211752
H     18.963285    8.289482    1.127086
C     20.699288    9.579281    1.151577
H     21.595584    9.483518    0.690189
C     19.872327   10.544849    0.950045
H     19.063968   10.811517    1.582658
H     20.413485   11.365839    0.543286
C     20.726484    7.084812    0.820766
H     20.050159    6.495535    1.766430
H     19.977783    7.016752    0.000643
10

C     19.833300    8.208814    0.997612
H     18.683269    8.486224    1.115265
C     20.630376    9.547381    0.969262
H     21.514843    9.306538    0.305036
C     20.098497   10.654356    1.183368
H     19.058568   10.482340    1.500138
H     20.518010   11.673186    0.959325
C     20.671832    7.141623    0.876070
H     20.080417    6.975730    1.858613
H     20.330603    6.486370    0.079743
10

C     19.722775    8.363973    1.221891
H     18.601827    8.797779    1.668517
C     20.606291    9.443721    0.906766
H     21.338156    8.898454    0.562342
C     20.098814   10.677385    0.992085
H     18.990469   10.356803    1.110158
H     20.638501   11.636225    1.010165
C     19.866835    6.955785    0.892263
H     20.927370    6.976130    1.432271
H     20.628677    6.856306    0.047973
10

C     19.747000    8.181039    1.198882
H     18.869341    8.390400    2.012128
C     20.524407    9.343172    0.981868
H     21.523828    9.594060    0.829122
C     19.898922   10.661426    0.976409
H     19.081405   11.189276    0.837320
H     20.674809   11.593008    0.897957
C     20.167135    6.984094    0.817177
H     20.778148    6.418562    1.479945
H     20.154721    6.607525   -0.186373
10

C     20.197285    8.300611    1.675621
H     19.100577    8.019183    1.239779
C     20.421150    9.671751    0.983926
H     21.527360    9.542654    0.654827
C     19.782991   10.768984    1.026317
H     18.925670   11.143727    1.207377
H     20.737911   11.277469    0.607113
C     20.324300    7.000232    0.991434
H     20.409619    6.080235    1.559956
H     19.992852    7.157716   -0.101918
10

C     20.206661    8.345901    1.529291
H     19.126792    8.425209    1.011257
C     20.851612    9.624398    1.006890
H     21.801097    9.441402    0.614892
C     20.150404   10.760081    0.922128
H     19.108373   10.557879    1.516590
H     19.960164   11.725059    0.708784
C     20.132840    7.192817    0.986832
H     20.082467    6.299570    1.640312
H     19.999307    6.590245   -0.092544
10

C     19.511089    8.180536    0.934068
H     18.730634    8.423870    1.505640
C     20.429792    9.341424    0.662362
H     21.586134    9.277188    0.632428
C     19.941761   10.615027    1.129389
H     19.015661   10.891407    1.053510
H     20.817777   11.339996    1.107283
C     20.098139    6.931649    1.313873
H     21.154773    7.009485    1.369711
H     20.133954    6.951979    0.136168
10

C     19.918378    8.356232    1.277322
H     18.836389    8.296160    1.691755
C     20.450441    9.471905    0.818784
H     21.394265    9.415467    0.495172
C     20.022998   10.728404    1.010175
H     18.968964   10.781451    1.421300
H     20.638985   11.641852    0.643777
C     20.368313    7.096992    0.955348
H     19.875348    6.275238    1.373654
H     20.945635    6.898862    0.157143
10

C     19.901390    8.327946    1.313149
H     18.932898    8.469552    1.723058
C     20.705494    9.533795    1.063157
H     21.824384    9.561302    1.022196
C     20.044838   10.797173    0.804496
H     18.964520   10.623757    0.899630
H     20.504697   11.882408    0.841817
C     20.206282    7.025275    0.881441
H     20.831607    6.255464    1.299370
H     19.503606    6.485890   -0.003882
10

C     19.881339    8.278594    1.520421
H     18.845869    8.651014    1.838235
C     20.564816    9.459035    1.081493
H     21.504127    9.324979    0.826542
C     19.904622   10.606565    0.880599
H     18.975264   10.911756    0.635402
H     20.703192   11.402698    1.025660
C     20.059920    6.913862    1.066202
H     21.205462    6.716795    1.038880
H     19.775103    6.697264   -0.069002
10

C     19.968958    8.509848    1.299694
H     19.064146    8.546308    1.981229
C     20.830501    9.492365    1.283479
H     21.856632    9.367445    0.965300
C     19.827936   10.381762    0.741808
H     19.085352   10.660699    1.524656
H     20.127244   11.162770    0.249244
C     19.989618    7.183940    0.628776
H     20.023226    6.560878    1.480351
H     20.646102    7.096547   -0.310103
10

C     19.631219    8.124919    1.162509
H     18.669463    8.079662    1.584239
C     20.432644    9.386001    0.946976
H     21.433240    9.147509    0.701493
C     20.024744   10.752166    0.910685
H     19.225536   11.306765    1.310419
H     20.563211   11.572747    0.856039
C     19.929731    6.821005    0.834994
H     20.942742    7.005503    1.622358
H     20.567185    6.766284   -0.085279
10

C     19.574741    8.165697    1.190430
H     18.594772    8.201727    1.683168
C     20.435151    9.419059    0.979293
H     21.430865    9.028797    0.548460
C     20.075092   10.709577    1.097117
H     19.011767   10.961599    1.282261
H     20.724450   11.695262    0.766868
C     20.058940    6.799981    0.791789
H     20.736857    7.173395    1.585121
H     20.777081    6.807468   -0.080073
10

C     19.794047    8.332913    1.926503
H     18.784185    8.324024    1.922065
C     20.486162    9.286176    1.325901
H     21.614042    9.013310    1.417369
C     19.966081   10.499754    0.685947
H     18.990566   10.823716    1.071559
H     20.582038   11.186335    0.016314
C     20.482300    7.504552    0.650067
H     20.973346    6.403781    0.882117
H     19.746949    7.588001   -0.053408
10

C     19.532020    8.221046    0.895590
H     18.591261    8.316997    1.387372
C     20.382600    9.211530    0.813451
H     21.338498    9.063267    0.477875
C     20.103127   10.497347    1.153756
H     19.073650   11.072506    1.559697
H     20.629832   11.284363    0.818484
C     20.094073    6.948354    0.784134
H     20.563837    7.403574    1.524109
H     21.110817    6.943578    0.429963
10

C     19.859209    8.296091    1.236678
H     18.897733    8.405683    1.726547
C     20.513354    9.516722    0.914296
H     21.517663    9.454168    0.513151
C     19.957857   10.794697    1.013546
H     18.943805   10.861111    1.510347
H     20.544480   11.539913    0.494520
C     20.343028    7.064423    0.928367
H     19.708000    6.266214    1.105250
H     21.134587    6.763539    0.401731
10

C     19.737023    8.265982    1.155680
H     18.693534    8.505553    1.261686
C     20.543907    9.536401    0.958576
H     21.610708    9.336493    0.780072
C     20.104997   10.818398    1.045833
H     18.911496   10.927780    1.049422
H     20.709806   11.714439    1.025619
C     20.314284    6.974048    0.855435
H     21.095002    6.637110    1.374620
H     19.698958    6.246356    0.337491
10

C     19.920308    8.259273    1.009827
H     18.756793    8.436103    1.052492
C     20.541054    9.678975    0.677255
H     21.572444    9.589100    0.429552
C     20.062676   10.831403    1.104774
H     19.054075   10.697413    1.531366
H     20.637518   11.816999    1.081275
C     20.115786    6.897133    1.033251
H     20.455870    6.481534    1.938598
H     20.303190    6.274628   -0.013956
10

C     19.987751    8.328023    0.963560
H     18.963463    8.658871    0.873743
C     20.615769    9.563043    0.865296
H     21.381776    9.302464    0.093437
C     19.995340   10.747580    1.164179
H     18.763308   10.641602    1.265780
H     20.709306   11.599063    1.427185
C     20.795896    7.142917    1.077446
H     20.148498    6.653946    1.828577
H     20.058609    6.325054    0.285229
10

C     19.623103    8.282284    1.042813
H     18.681707    8.626055    1.262932
C     20.428063    9.379395    0.718553
H     21.503671    9.251429    0.608058
C     19.921164   10.560145    0.904726
H     19.052898   10.514517    1.584004
H     20.841697   11.319571    0.980191
C     19.901335    6.922515    1.091121
H     20.949870    7.171311    1.685284
H     20.516208    6.935341   -0.033251
10

C     19.711465    8.190430    1.118647
H     18.835177    8.156262    1.892985
C     20.320225    9.507889    0.906454
H     21.378047    9.367019    0.716063
C     19.917654   10.883026    1.053072
H     18.962071   11.265755    0.901142
H     20.949546   11.504452    0.990062
C     19.886382    6.657338    0.822520
H     20.947796    6.934856    1.327735
H     20.511352    6.495533    0.115753
10

C     19.634434    8.092529    1.053463
H     18.693241    8.407684    1.376379
C     20.543292    9.355293    0.838127
H     21.610382    9.291377    0.497444
C     19.936480   10.702228    0.903003
H     18.947586   10.836536    1.240328
H     20.711266   11.370770    1.104100
C     20.170138    6.730962    1.055164
H     20.910672    6.897107    1.716012
H     20.262225    7.278076    0.060413
10

C     19.671266    8.315259    1.008717
H     18.820603    8.568050    0.527733
C     20.379688    9.529857    0.737287
H     21.300004    9.331265    0.329270
C     20.019859   10.803334    1.249331
H     19.127625   11.048427    1.813026
H     20.665173   11.434968    0.910106
C     19.869171    6.918717    0.825810
H     20.696028    6.509123    1.799083
H     20.870297    6.503560    0.644070
10

C     19.929297    8.178619    1.157890
H     18.751990    8.221376    1.401225
C     20.400375    9.573377    1.159014
H     21.414951    9.404888    0.757336
C     20.033652   10.924772    1.018477
H     19.009404   11.356881    1.453296
H     20.648340   11.627021    0.529974
C     20.358463    6.852169    0.840301
H     20.614467    6.312233    1.622548
H     20.258777    6.511225   -0.095626
10

C     19.762920    8.236450    1.022573
H     18.894789    8.505338    1.462306
C     20.498475    9.509020    1.050259
H     21.472977    9.510891    0.815316
C     20.053155   10.756021    1.059349
H     19.093285   11.129588    1.403993
H     20.529459   11.522449    0.612236
C     20.120657    6.996079    0.845941
H     20.704628    6.282015    1.682140
H     20.289370    6.514710   -0.109680
10

C     19.664750    8.357739    1.132962
H     18.675013    8.604006    0.823661
C     20.661161    9.440137    0.709281
H     21.449747    9.014099    0.142025
C     20.184884   10.587417    1.000861
H     19.035033   10.716163    1.207388
H     20.440143   11.649589    1.466585
C     20.015889    6.977486    1.387188
H     21.123565    6.471930    1.771374
H     20.169531    7.143996    0.203107
10

C     19.571154    8.163240    1.145520
H     18.414983    8.435958    1.678873
C     20.511091    9.380434    0.975256
H     21.564791    9.151522    0.931208
C     20.095603   10.589746    1.067202
H     19.299519   10.995507    1.633949
H     20.354546   11.222269    0.346645
C     20.140816    6.794629    0.710976
H     20.779089    7.245420    1.649240
H     20.688124    6.983838   -0.294436
10

C     19.711323    8.365275    1.115937
H     18.707200    8.317355    1.239622
C     20.545564    9.529264    1.054861
H     21.521511    9.205265    0.982845
C     20.083094   10.822760    0.995306
H     18.963353   10.811163    1.033430
H     20.814541   11.639139    0.853781
C     20.228837    7.110985    0.958158
H     21.309510    6.817584    0.968514
H     19.534782    6.343772    0.641979
10

C     19.675432    8.279501    1.218986
H     18.790080    8.673203    1.400825
C     20.538577    9.495091    0.974197
H     21.607212    9.309511    0.965873
C     20.063173   10.762246    0.955274
H     18.954018   11.111163    1.105032
H     20.594648   11.609614    0.868742
C     20.250768    6.855328    0.962640
H     21.194233    6.611536    1.135188
H     19.751574    6.255369    0.257675
10

C     19.679330    8.245631    1.236522
H     18.633721    8.608057    1.502798
C     20.516008    9.565002    0.955721
H     21.642052    9.326817    0.871023
C     19.982011   10.780486    0.953345
H     18.967548   11.077887    1.117668
H     20.722911   11.569178    0.898012
C     20.202710    6.877956    0.961657
H     21.175577    6.649390    1.228885
H     19.897848    6.262158    0.118803
10

C     19.683157    8.251757    1.253473
H     18.522721    8.492558    1.504621
C     20.510704    9.553865    0.955383
H     21.598473    9.378533    0.786972
C     19.934771   10.851483    0.941771
H     18.990397   11.053747    1.105857
H     20.868555   11.569893    0.966986
C     20.128721    6.916918    0.956583
H     21.233649    6.672752    1.310905
H     19.948567    6.221056    0.061882
10

C     19.666215    8.143407    0.947747
H     18.546579    8.666745    1.162382
C     20.586099    9.304309    0.935930
H     21.624432    9.210370    0.574547
C     20.122297   10.670420    1.143649
H     19.068838   10.680316    1.759895
H     20.412181   11.511514    0.596610
C     19.969098    6.786733    0.857004
H     20.674882    7.045775    1.734460
H     20.749093    6.942972    0.132209
10

C     19.582230    8.227540    1.134063
H     18.592297    8.115914    1.418948
C     20.564272    9.328632    0.848757
H     21.553845    9.236976    0.411678
C     20.021499   10.606674    0.994355
H     19.010725   10.819769    1.330328
H     20.776473   11.527969    1.093477
C     19.975592    6.988385    0.861689
H     20.754390    7.366907    1.734783
H     20.588393    6.743796    0.016356
10

C     19.672486    8.307223    1.145931
H     18.541705    8.408877    1.410397
C     20.513310    9.367411    0.923005
H     21.467116    9.220835    0.417867
C     20.008960   10.591988    1.037847
H     18.991032   10.815445    1.473699
H     20.768293   11.332552    1.015084
C     20.109722    6.929117    0.733268
H     20.653042    7.452708    1.876213
H     20.694049    6.536405   -0.188878
10

C     20.023427    8.348604    0.907460
H     19.076312    8.038196    1.476696
C     20.581072    9.649165    0.698048
H     21.584608    9.400431    0.732034
C     19.996976   10.848123    0.950328
H     18.995949   10.782645    0.960459
H     20.509911   11.850397    1.229207
C     20.746959    6.878667    0.840747
H     20.210692    6.381913    1.749586
H     19.693809    6.784420    0.299868
10

C     19.822997    8.336513    1.141399
H     18.793427    8.589671    1.449027
C     20.507439    9.569624    0.810826
H     21.542755    9.432072    0.180659
C     19.955862   10.747256    1.129069
H     19.061092   10.810556    1.451313
H     20.463594   11.629104    0.834946
C     20.352236    7.038116    1.076858
H     19.766215    6.129495    1.266442
H     21.154097    6.680154    0.503894
10

C     19.800220    8.231090    1.106438
H     18.877276    8.358280    1.572455
C     20.509567    9.529749    0.778556
H     21.600095    9.444538    0.462885
C     19.973393   10.820171    0.933744
H     19.043234   10.943360    1.665285
H     20.437943   11.672015    0.673274
C     20.321961    7.007184    0.980091
H     19.766551    6.235758    1.448510
H     21.089474    6.720415    0.223196
10

C     19.662352    8.237457    1.256267
H     18.694746    8.406540    1.689971
C     20.407465    9.339758    0.912248
H     21.625100    9.239898    0.664591
C     19.965452   10.572872    0.932976
H     19.041393   10.836077    0.922291
H     20.709235   11.451888    0.965201
C     20.134357    6.885381    1.229436
H     21.118604    6.716145    1.292657
H     20.061011    7.276545   -0.021206
10

C     19.713314    8.095305    1.103721
H     18.633147    8.361953    1.134101
C     20.460175    9.499762    0.938923
H     21.280385    9.414677    0.443631
C     20.051974   10.744110    1.021972
H     18.961673   11.013216    1.586017
H     20.862037   11.358722    0.812957
C     19.946081    6.737364    1.030907
H     20.913066    6.719345    1.867501
H     20.597863    7.018107   -0.095295
10

C     19.789518    8.306648    0.834633
H     18.854925    8.055721    1.031882
C     20.587583    9.485580    0.970030
H     21.495080    9.116069    0.676646
C     20.006072   10.802518    1.220272
H     19.047491   10.990118    1.598341
H     20.546765   11.793018    0.742323
C     20.708867    7.136267    0.648204
H     20.246913    7.000607    1.837138
H     20.136503    6.276016    0.284964
10

C     20.088907    8.309566    1.167633
H     19.154521    8.244156    1.558542
C     20.896589    9.619440    0.936460
H     21.958635    9.603453    0.907278
C     19.991219   10.696822    1.029907
H     18.798818   10.520716    0.869720
H     20.391952   11.792052    0.983693
C     20.465701    7.064890    0.480229
H     20.243673    6.528140    1.786553
H     19.429700    6.583325    0.124417
10

C     19.787753    8.240603    1.129993
H     19.079170    7.849539    1.872219
C     20.485900    9.624943    1.074526
H     21.625110    9.375979    1.200276
C     20.037844   11.017112    0.962830
H     18.889440   11.232435    0.900169
H     20.704072   11.645880    0.730776
C     20.440753    7.082443    0.273511
H     20.646581    6.620307    1.597400
H     19.723093    6.273321    0.102731
10

C     19.731446    8.273580    1.161421
H     18.598265    8.661262    0.965506
C     20.609091    9.425409    0.967074
H     21.557675    9.422333    0.467348
C     20.179331   10.671331    1.210397
H     19.164453   10.844091    1.573405
H     20.363442   11.596457    0.622250
C     19.850083    6.903326    1.172283
H     20.820098    6.416297    1.378123
H     20.545830    6.748475    0.326624
10

C     19.562738    8.124127    0.927219
H     18.590448    8.465077    1.141533
C     20.428596    9.332953    0.844817
H     21.415055    9.178868    0.577287
C     20.043314   10.582129    1.234771
H     19.080035   10.861284    1.442773
H     20.723621   11.281517    0.773775
C     20.125813    6.847918    1.098338
H     21.058939    7.095378    1.623382
H     20.391158    7.193311    0.180539
10

C     20.037242    8.350273    1.168884
H     18.943662    8.467928    1.653001
C     20.713539    9.521763    1.074862
H     21.720207    9.322968    0.903651
C     19.979304   10.630511    1.052923
H     18.896207   10.720179    1.027704
H     20.417736   11.436091    0.794516
C     20.609740    7.127762    0.570027
H     20.320245    6.845805    1.518054
H     19.781834    6.539282    0.080809
10

C     19.936752    8.330076    0.870266
H     18.867863    8.548522    1.401985
C     20.576033    9.560584    0.926991
H     21.525986    9.557254    0.494468
C     20.027319   10.699294    1.022027
H     18.942136   10.945737    1.115976
H     20.621789   11.490994    1.278766
C     20.344158    7.005601    0.915646
H     20.547201    6.607058    1.777700
H     20.030477    6.217441    0.040606
10

C     20.128354    8.304863    1.307287
H     19.195302    8.175690    0.698580
C     20.665910    9.530888    1.133188
H     21.659692    9.688903    0.442943
C     19.876109   10.708964    1.220915
H     19.159223   11.154326    1.900712
H     20.222827   11.471300    0.344233
C     20.129900    6.988843    1.023715
H     19.930195    6.281279    1.784358
H     20.452203    6.657506   -0.011498
10

C     19.835445    8.289113    0.498720
H     19.132536    7.824785    1.446825
C     20.555359    9.630351    0.780756
H     21.800771    9.691770    0.601094
C     20.052408   10.919430    1.073407
H     19.053604   11.113514    0.821238
H     20.551956   11.991971    1.548534
C     20.201481    6.922472    0.716524
H     20.522308    6.571807    1.932126
H     19.713845    6.007349    0.425209
10

C     19.721852    8.235140    0.922199
H     18.917625    8.744737    1.388342
C     20.492542    9.388115    0.663645
H     21.630365    9.247210    0.749047
C     19.984349   10.611736    0.926276
H     18.851238   10.673721    1.427683
H     20.688037   11.473630    1.063546
C     19.888211    6.773572    1.102684
H     20.922925    7.132807    1.550338
H     20.322571    6.681894    0.050673
10

C     19.660976    8.217405    0.953559
H     18.944040    8.847612    1.281489
C     20.511209    9.390007    0.687138
H     21.674005    9.203625    0.699515
C     19.975342   10.582035    1.047188
H     18.916670   10.549694    1.337800
H     20.635682   11.468015    1.088880
C     19.807700    6.808173    1.073066
H     21.066529    7.132810    1.656977
H     20.227562    6.763185    0.018820
10

C     19.773260    8.259229    1.189339
H     18.859786    8.409467    1.693198
C     20.421559    9.512819    0.854268
H     21.342434    9.424910    0.481619
C     19.994925   10.822016    0.970457
H     19.110318   10.922233    1.513035
H     20.539350   11.543970    0.580576
C     20.249614    7.007068    0.935709
H     19.903028    6.067638    1.341927
H     21.225441    6.993212    0.284303
10

C     19.792434    8.298449    1.072087
H     18.772511    8.617976    1.252933
C     20.613551    9.538438    0.920842
H     21.620205    9.388323    0.728082
C     20.016685   10.741095    0.993889
H     19.089690   10.890406    0.885294
H     20.552603   11.488561    1.313336
C     20.250575    7.045260    0.800573
H     21.143320    6.629032    1.585270
H     19.568140    6.325023    0.292127
10

C     19.846729    8.322812    1.248100
H     18.673989    8.325094    1.531913
C     20.493936    9.500186    0.897571
H     21.662842    9.464901    0.497744
C     20.003510   10.752401    0.991731
H     18.923173   10.958464    0.890852
H     20.779670   11.626602    1.263551
C     20.223729    7.053089    0.927362
H     20.873500    6.527366    1.647491
H     19.938637    6.431647   -0.051884
10

C     19.964450    8.243445    1.076778
H     18.916715    8.578154    1.464920
C     20.588358    9.553338    0.812850
H     21.795867    9.525015    0.798896
C     19.880949   10.712351    1.181827
H     18.793477   10.921226    1.106151
H     20.605218   11.635191    0.818024
C     20.753637    6.979293    0.874326
H     20.357132    6.217136    1.525032
H     19.763913    6.597413    0.185630
10

C     19.863006    8.214509    1.350472
H     18.705350    8.358029    1.689607
C     20.414578    9.542342    0.883759
H     21.592380    9.327574    0.789985
C     19.964389   10.788413    0.955393
H     18.994664   11.016484    1.422970
H     20.633128   11.696807    0.487132
C     20.278635    6.991401    0.966674
H     20.453314    6.167711    1.416901
H     20.520270    6.859292   -0.118460
10

C     19.947397    8.312145    1.074290
H     18.844105    8.452380    1.352284
C     20.687347    9.548101    0.815226
H     21.654965    9.554614    0.766552
C     19.936997   10.788049    1.137948
H     18.970249   10.922253    1.259026
H     20.464163   11.487310    0.751544
C     20.799412    7.014540    0.906366
H     20.249121    6.141400    1.587894
H     19.865959    6.741770    0.193302
10

C     19.744963    8.245114    1.131032
H     18.530011    8.206441    1.362322
C     20.482099    9.535442    0.937659
H     21.759453    9.622967    0.837042
C     20.015333   10.825648    1.038563
H     19.016388   10.993547    1.658252
H     20.746298   11.702297    0.432826
C     20.278037    6.981488    0.937784
H     20.644728    6.384527    1.601321
H     20.202405    6.465092   -0.092368
10

C     19.795746    8.268824    1.254961
H     18.780914    8.224029    1.626202
C     20.468490    9.638394    1.185227
H     21.479626    9.273906    0.699795
C     19.981997   10.803505    1.104200
H     19.137493   11.359177    1.657384
H     20.386482   11.477153    0.125451
C     20.499672    7.046992    0.910486
H     20.032042    6.145264    1.319637
H     20.857255    6.725318   -0.038910
10

C     19.816009    8.281189    1.159019
H     18.906647    8.477203    1.694199
C     20.553670    9.483003    0.802983
H     21.595725    9.304407    0.504721
C     20.028656   10.684603    1.020173
H     19.109973   10.952516    1.555509
H     20.211886   11.699529    0.633021
C     20.331935    7.001137    0.827651
H     19.682960    6.351329    1.403289
H     21.182255    6.727646    0.243869
10

C     19.760222    8.247085    1.209651
H     18.792141    8.615124    1.283806
C     20.530725    9.496925    0.952862
H     21.730379    9.300941    0.661664
C     20.132450   10.744249    1.020058
H     18.916405   10.829933    0.845405
H     20.563116   11.650817    1.208659
C     20.235100    6.939357    1.031400
H     21.137079    6.691486    1.224114
H     19.622097    6.446645    0.406813
10

C     20.167799    8.257996    1.912477
H     18.801813    8.350696    1.416767
C     20.742246    9.555153    1.279218
H     21.724531    9.136825    0.872948
C     20.006187   10.584311    0.838710
H     19.013966   10.669981    1.294966
H     20.274847   11.481672    0.236631
C     20.120951    7.319821    0.946513
H     20.561437    6.296404    1.109044
H     20.005939    7.309703   -0.062842
10

C     20.545866    8.051833    1.345130
H     19.864048    8.845844    1.808677
C     20.877312    9.655261    1.158544
H     21.964930    9.808349    1.181968
C     19.836548   10.530231    0.812549
H     18.949546   10.189303    0.510567
H     20.045406   11.761420    0.855454
C     19.916473    7.024059    0.799714
H     20.311831    6.001908    1.392792
H     19.107754    7.094353   -0.020961
10

C     20.545835    8.002397    1.267927
H     19.900874    9.018652    1.882849
C     20.933506    9.673447    1.105698
H     21.906258    9.812179    1.284164
C     19.933627   10.521037    0.787858
H     18.875371   10.167770    0.440900
H     20.004193   11.808430    0.917913
C     19.875441    6.977585    0.774345
H     20.373690    6.019807    1.264586
H     19.070919    6.961256    0.118192
10

C     20.824982    8.242878    0.945438
H     19.084467    7.604734    1.497422
C     21.044545    9.703672    0.851622
H     22.058207    9.997208    0.877814
C     20.000890   10.643729    0.900204
H     18.907991   10.370098    1.347340
H     20.069749   11.726788    0.659519
C     19.958346    7.097577    1.171112
H     19.981201    5.749439    1.724719
H     19.616729    7.052009   -0.070157
10

C     19.909990    8.297841    1.198173
H     18.882188    8.285704    1.241053
C     20.669937    9.541623    1.260733
H     21.584347    9.332899    0.788293
C     19.940633   10.631445    1.033624
H     19.158492   10.997583    1.574689
H     20.316891   11.326377    0.324414
C     20.676835    7.251395    0.895568
H     20.198635    6.464093    1.432796
H     20.081766    6.833601    0.095090
10

C     20.165340    8.228825    1.094197
H     19.454712    8.107583    2.093286
C     20.556598    9.575181    1.058867
H     21.519946    9.861607    1.434643
C     19.984856   10.746905    0.699425
H     18.938284   10.910772    0.482720
H     20.609099   11.627613    0.906076
C     20.447129    6.900352    0.368534
H     20.483809    6.279568    1.249378
H     19.259940    6.724154    0.457308
10

C     20.002039    8.200097    1.012445
H     18.938000    8.634250    0.907454
C     20.611916    9.554600    0.844661
H     21.453956    9.148569    0.353936
C     19.968813   10.712459    0.945820
H     19.093067   10.648013    1.485524
H     20.357928   11.749929    1.120940
C     20.591612    7.056866    1.157539
H     20.251925    6.350142    1.789140
H     20.150461    6.907636    0.226973
10

C     19.791598    8.294925    0.672553
H     18.957954    8.847319    0.312339
C     20.549273    9.489851    0.831446
H     21.655231    9.623960    0.648309
C     19.926639   10.658131    1.075862
H     19.112460   10.578499    1.989047
H     20.603554   11.455380    0.991341
C     20.225880    6.990822    0.869184
H     20.701116    6.915954    2.011963
H     19.896011    6.107719    0.442390
10

C     19.835602    8.404044    0.977949
H     21.662500    7.493194    0.314622
C     20.472749    9.532428    1.017181
H     21.577844    9.326218    0.977027
C     19.922231   10.842026    0.958887
H     18.951369   11.239927    1.338266
H     20.644379   11.602997    0.724679
C     20.457710    7.129390    0.800234
H     20.743169    6.215489    1.640319
H     19.857587    6.290880   -0.026929
10

C     19.777269    8.391253    1.040560
H     21.385616    7.142775    0.134016
C     20.531270    9.521053    0.994765
H     21.465009    9.219197    0.998186
C     20.001066   10.800824    0.914375
H     18.917892   11.312182    1.355318
H     20.604891   11.659893    0.679221
C     20.389154    7.059179    0.947939
H     20.862948    6.187880    1.487446
H     19.913140    6.431936   -0.010198
10

C     19.947439    8.360119    0.989281
H     18.971447    8.645033    0.908191
C     20.676985    9.605186    0.844658
H     21.677332    9.697024    0.616697
C     20.181765   10.750745    1.371204
H     19.030924   10.720300    1.755180
H     20.248578   11.518954    0.523751
C     20.255349    6.968052    0.965427
H     20.157369    6.313219    1.846659
H     20.272527    6.383929    0.023385
10

C     19.930921    8.386843    1.030195
H     18.743522    8.593166    0.910544
C     20.679387    9.618454    0.933244
H     21.694195    9.879357    0.453471
C     20.135658   10.764376    1.402587
H     19.168334   10.815530    1.711520
H     20.270382   11.385736    0.560045
C     20.357950    6.967808    0.951132
H     20.088049    6.268928    1.798299
H     20.351317    6.282364    0.093396
10

C     19.532160    8.250908    0.775002
H     18.471257    8.365881    1.107019
C     20.510978    9.424078    0.721108
H     21.557180    9.177233    0.553197
C     20.093698   10.742975    1.140716
H     19.189692   10.667645    1.894673
H     20.601790   11.677379    0.737327
C     19.868784    6.920774    0.840381
H     20.619535    7.208905    1.703811
H     20.974640    6.526783    0.371199
10

C     19.781074    8.312144    0.821636
H     18.568357    8.696938    0.559650
C     20.634964    9.469019    0.985883
H     21.308695    9.471495    0.256050
C     20.052643   10.610631    1.240896
H     19.274392   10.538944    2.018763
H     20.539067   11.542867    0.756807
C     19.991137    7.039127    0.699142
H     20.290229    6.905389    1.833122
H     20.979157    6.376008    0.672484
10

C     20.255862    8.268546    0.831363
H     21.432060    6.365097    0.383963
C     20.744473    9.542971    0.953700
H     21.739964    9.782734    0.916928
C     19.999410   10.689514    0.933203
H     18.725471   10.765328    1.158842
H     20.596818   11.625609    0.931877
C     20.498251    6.814223    0.790356
H     20.460742    6.368021    1.879827
H     19.441649    6.726453    0.011516
10

C     20.192198    8.263853    0.680722
H     19.485200    7.076683    0.369879
C     20.739004    9.640812    0.931384
H     21.830091   10.021131    0.917662
C     19.976712   10.647899    0.925347
H     19.064693   10.480282    1.141210
H     20.403615   11.634450    0.851189
C     20.535613    6.769346    0.861029
H     20.235513    6.048941    1.729191
H     21.475363    6.469576    0.235830
10

C     19.806224    8.270405    1.103352
H     18.811951    8.399211    1.465290
C     20.404040    9.506941    0.788120
H     21.506237    9.512743    0.329606
C     19.847273   10.741967    0.937516
H     19.236661   10.898203    1.627644
H     20.509372   11.523329    0.747591
C     20.317802    7.033335    1.024370
H     19.780966    6.148522    1.394021
H     21.199189    6.927905    0.426922
10

C     19.870156    8.290141    1.069413
H     18.781732    8.342719    1.058319
C     20.466027    9.498437    0.818702
H     21.480345    9.547627    0.346266
C     19.869978   10.699966    0.904764
H     19.034828   11.260422    1.433489
H     20.656367   11.465378    1.131110
C     20.856395    7.082839    1.107084
H     20.216738    6.110633    1.651229
H     20.187149    6.664399    0.324055
10

C     19.631541    8.274785    1.138260
H     18.618165    8.602508    1.128290
C     20.465317    9.491590    0.943911
H     21.514627    9.135291    0.730154
C     20.143901   10.840681    1.224596
H     19.180834   11.245806    1.698449
H     20.298838   11.429778    0.380802
C     20.245149    6.959138    1.037607
H     20.803736    6.246196    1.524997
H     20.517607    6.736789    0.037366
10

C     19.969959    8.316912    1.183531
H     21.515149    6.601148    1.111294
C     20.413082    9.630150    0.843203
H     21.420837    9.414731    0.421981
C     19.856971   10.880082    0.980597
H     19.015998   11.237291    1.400134
H     20.623774   11.669018    0.927482
C     20.506322    7.007702    1.118251
H     20.126204    5.970966    1.662998
H     20.529493    6.456546   -0.130563
10

C     19.755468    8.238347    1.025836
H     18.748435    8.438610    1.446776
C     20.567865    9.511264    0.659098
H     21.706551    9.197032    0.522591
C     19.858375   10.860993    0.878570
H     19.165551   10.958102    1.876072
H     20.294422   11.851640    0.647586
C     20.309143    6.993742    0.953141
H     19.787840    6.204168    1.420013
H     21.226066    6.708664    0.414749
10

C     19.582066    8.286586    0.852007
H     18.666488    8.365559    1.203184
C     20.490065    9.551239    0.880020
H     21.535109    9.391389    0.702876
C     20.043527   10.824301    1.009433
H     19.041349   11.039294    1.038513
H     20.841463   11.682550    1.330523
C     20.222789    6.963170    0.759608
H     21.204220    6.857459    1.513155
H     19.792640    6.001013    0.555113
10

C     19.766687    8.257243    0.876194
H     18.795157    8.158109    1.237664
C     20.387894    9.476798    0.874866
H     21.411882    9.380201    0.498197
C     20.038049   10.846140    0.979783
H     19.067156   11.040750    1.209858
H     20.807191   11.734229    1.303380
C     20.297115    7.045954    0.838405
H     20.792332    6.699465    1.994140
H     20.056251    6.323672    0.031945
10

C     19.808753    8.228493    0.938596
H     18.783542    8.308994    1.275575
C     20.382771    9.523463    0.859289
H     21.331422    9.288748    0.499505
C     20.027683   10.791104    1.000422
H     19.001403   11.158553    1.318639
H     20.765979   11.610953    1.135950
C     20.354908    7.042135    0.917233
H     20.697547    6.501713    1.913142
H     20.265707    6.508405   -0.013919
10

C     19.817645    8.309911    1.106216
H     18.810064    8.318730    1.048781
C     20.544114    9.675424    0.815526
H     21.574802    9.715997    0.615446
C     19.969732   10.734933    1.203000
H     19.005722   11.001664    1.522086
H     20.684076   11.602873    0.689551
C     20.769692    7.055011    0.936073
H     20.193158    6.117988    1.647442
H     20.050711    6.430030    0.260313
10

C     19.886913    8.286382    1.292640
H     18.749616    8.237985    0.856211
C     20.587799    9.470898    0.870826
H     21.594241    9.521254    0.461623
C     20.041298   10.751410    1.087008
H     19.208691   10.844872    1.626013
H     20.363878   11.839597    0.641447
C     20.788988    7.007238    1.210100
H     20.119962    6.090241    1.573835
H     20.078328    6.912684    0.224729
10

C     19.976269    8.262151    1.231848
H     18.728275    8.524111    1.187509
C     20.720759    9.535622    0.964056
H     21.620515    9.274407    0.405824
C     20.053823   10.696171    1.030326
H     19.091430   10.476414    1.196775
H     20.333522   11.846258    0.912818
C     20.519389    7.090551    1.162165
H     20.390861    6.071855    1.619529
H     19.984872    7.185023    0.133580
10

C     20.187206    8.166077    1.612471
H     19.894541    8.208130    2.568053
C     20.608331    9.488062    1.185802
H     21.451949    9.730936    1.762301
C     20.039039   10.503417    0.476228
H     18.953225   10.393153    0.314888
H     20.498017   11.473969    0.466538
C     19.874795    6.931798    1.072241
H     20.693923    6.747623    0.280645
H     19.218689    7.319396    0.105266
10

C     19.875796    8.229081    1.072934
H     19.016095    8.017527    1.555008
C     20.380594    9.489640    1.072445
H     21.329862    9.271722    0.710828
C     20.077198   10.746287    1.051121
H     18.907353   11.044672    0.982504
H     20.815610   11.764334    1.018796
C     20.585758    7.126334    0.563818
H     20.430046    6.982502    1.605651
H     20.001404    6.290463    0.211327
10

C     19.726074    8.171912    1.132033
H     18.675759    8.420301    1.161787
C     20.533791    9.196809    1.089879
H     21.518005    9.288409    0.796819
C     20.034792   10.487894    1.143024
H     19.027181   10.896905    1.209404
H     20.679746   11.442708    0.714274
C     20.193382    6.905242    0.952430
H     21.230155    7.110436    1.488549
H     21.723629    6.558467   -0.061539
10

C     19.653159    8.331822    1.188777
H     18.588986    8.496722    1.357768
C     20.680796    9.520509    1.015146
H     21.564509    8.977781    0.929765
C     20.105430   10.666613    0.858082
H     19.124934   10.545103    1.280609
H     20.475634   11.537744    0.709728
C     20.183810    6.812217    1.251570
H     21.241630    7.032104    1.096753
H     22.274275    7.001394   -1.044592
10

C     19.791595    8.304304    1.077686
H     18.856604    8.500129    1.599391
C     20.590541    9.527961    0.822035
H     21.661727    9.277529    0.361392
C     20.011070   10.817910    0.968069
H     18.835471   10.855069    1.560958
H     20.405855   11.652454    0.691968
C     20.290055    7.070783    0.871070
H     19.694241    6.046818    1.259183
H     21.282556    6.909606    0.632681
10

C     19.717440    8.242375    0.999569
H     18.576473    8.411047    1.162082
C     20.518848    9.508298    1.036683
H     21.523993    9.348565    0.799559
C     20.058157   10.808539    1.043563
H     19.026005   11.099236    1.058574
H     20.797751   11.672579    1.052501
C     20.249181    6.990030    0.967124
H     21.400781    6.695754    1.372997
H     19.551086    6.186138    0.351781
10

C     19.784357    8.330712    1.173514
H     18.595171    8.346880    1.367602
C     20.384964    9.607563    0.823539
H     21.307077    9.262761    0.488324
C     19.987906   10.854973    1.005375
H     19.053278   11.123028    1.188152
H     20.855777   11.776481    1.171512
C     20.337556    6.957932    0.812018
H     20.810056    6.355801    1.840408
H     20.303574    6.346432   -0.026010
10

C     19.795069    8.216046    1.223429
H     18.739714    8.427757    1.340365
C     20.453248    9.595115    0.879942
H     21.415106    9.299978    0.363003
C     20.054822   10.870969    0.999512
H     18.896753   11.139030    1.258468
H     20.725048   11.510675    1.159634
C     20.365844    7.012499    0.951432
H     20.617326    6.461645    1.835836
H     20.356785    6.428847   -0.167188
10

C     19.720145    8.102177    1.145801
H     18.681974    8.535628    1.151724
C     20.464676    9.490818    0.908992
H     21.404262    9.526776    0.503703
C     19.974876   10.771449    0.995511
H     19.007194   11.038822    1.402039
H     20.835971   11.683569    0.953786
C     20.306457    7.017930    0.963509
H     20.813023    6.186398    1.844076
H     20.211137    6.608995   -0.024709
10

C     19.694157    8.212468    1.153256
H     18.622505    8.593828    1.165877
C     20.500096    9.492311    0.930763
H     21.544497    9.544694    0.603487
C     20.063543   10.773024    1.007864
H     18.994834   11.134931    1.544865
H     20.668800   11.508828    0.782457
C     20.271270    7.012234    1.018006
H     20.859181    6.156386    1.811014
H     20.200833    6.533858   -0.173156
10

C     19.957012    8.408525    1.029725
H     18.825199    8.303339    1.206160
C     20.635403    9.560273    0.890668
H     21.653366    9.273429    0.736353
C     20.056178   10.755336    1.071004
H     18.918003   10.788852    1.571337
H     20.383382   11.561814    0.514502
C     20.817290    7.147920    0.965224
H     20.090063    6.076132    1.604038
H     20.083820    7.086944    0.255421
10

C     19.614338    8.247435    1.101846
H     18.777751    8.594949    1.576839
C     20.609567    9.226881    0.977676
H     21.618414    9.364836    0.426507
C     20.078362   10.581716    1.028484
H     18.965182   10.680664    1.242449
H     20.551101   11.461123    1.036903
C     19.876116    6.828203    0.848850
H     20.677775    7.227092    1.693050
H     20.651109    6.749664   -0.088172
10

C     19.722018    8.161750    0.988357
H     18.673157    8.499400    1.646545
C     20.418827    9.446286    0.832321
H     21.546150    9.414255    0.761812
C     20.021499   10.660075    1.066608
H     19.122395   10.989267    1.312319
H     20.648838   11.592647    0.906458
C     19.960428    6.860003    0.626007
H     20.724327    7.057080    1.663966
H     20.582076    6.281799    0.040039
10

C     19.984590    8.239805    1.015094
H     19.011080    8.034038    0.973537
C     20.562698    9.598631    0.994896
H     21.561949    9.395343    0.512901
C     19.996732   10.812286    1.087305
H     19.057690   10.982885    1.524619
H     20.443641   11.780107    0.816125
C     20.778620    6.937478    0.937141
H     20.030153    6.580546    1.809208
H     19.992562    6.601444    0.173606
10

C     19.729176    8.241896    0.973876
H     18.577707    8.703985    1.031534
C     20.527868    9.436947    0.749920
H     21.537619    9.414917    0.718589
C     19.931664   10.529363    1.142431
H     19.245781   11.126736    1.754938
H     20.483325   11.289640    0.645671
C     19.865751    6.784797    1.142404
H     21.011337    6.677469    1.615178
H     20.509488    6.756810    0.069892
10

C     19.718768    8.242317    0.981726
H     18.606248    8.565740    0.984399
C     20.516371    9.467191    0.807203
H     21.510580    9.495215    0.617468
C     19.889606   10.544459    1.184087
H     19.202194   11.165045    1.718149
H     20.600394   11.217171    0.646806
C     19.896310    6.771594    1.163106
H     20.970541    6.643165    1.642591
H     20.508702    6.850665    0.098897
10

C     19.776732    8.193353    1.037284
H     18.565765    8.318594    0.855666
C     20.532421    9.449359    0.859071
H     21.336234    9.471322    0.179343
C     20.047428   10.746494    1.105941
H     18.994582   10.984011    1.496821
H     20.794714   11.483684    1.030632
C     20.056234    6.858802    1.232921
H     20.864631    6.313863    1.914376
H     20.450975    7.143079    0.132377
10

C     19.641676    8.124080    1.072861
H     18.868550    8.234346    1.910051
C     20.295794    9.392497    0.987497
H     21.273314    9.392284    0.746262
C     19.933153   10.607640    0.912098
H     18.996054   11.149046    1.002272
H     20.987248   10.989939    0.998486
C     20.037233    6.835950    0.959986
H     20.999256    7.392833    1.420473
H     20.387437    6.843945   -0.165553
10

C     19.789284    8.252269    1.177144
H     18.899094    8.539242    1.624994
C     20.517590    9.504869    0.752095
H     21.487118    9.487371    0.494108
C     20.001196   10.769065    0.979697
H     19.055129   10.711998    1.515600
H     20.473472   11.749730    0.643271
C     20.257720    7.001861    0.870867
H     19.730383    6.116708    1.189012
H     21.208729    6.829448    0.597644
10

C     19.764435    8.291316    1.051953
H     18.713657    8.229496    0.975079
C     20.539026    9.549036    1.036514
H     21.654125    9.408936    0.917617
C     20.041882   10.781592    1.110942
H     19.049080   11.042179    1.215771
H     20.697808   11.573224    0.809743
C     20.263816    6.989836    0.898346
H     21.190112    6.832137    1.237124
H     19.505774    6.264809    0.591344
10

C     19.990471    8.351121    1.015782
H     18.952452    8.465924    1.096212
C     20.672370    9.578962    0.840700
H     21.663368    9.227246    0.602094
C     20.063695   10.746476    1.004719
H     19.029845   10.542327    1.375200
H     20.309133   11.741677    1.025034
C     20.680344    7.170175    0.912283
H     20.144316    6.594986    1.646085
H     19.913721    6.543668    0.326324
10

C     19.910738    8.313705    1.067932
H     18.793533    8.462508    0.536994
C     20.509289    9.650352    0.755294
H     21.391965    9.432000    0.307044
C     20.055679   10.778159    1.180700
H     19.211802   10.897506    1.953258
H     20.451908   11.690662    0.828287
C     20.426876    7.106876    1.069947
H     20.154810    6.281869    1.928834
H     20.513114    6.348925    0.216143
10

C     19.880742    8.302146    1.009377
H     18.936020    8.492446    0.322633
C     20.471221    9.507444    0.752814
H     21.178701    9.624139   -0.004899
C     20.102164   10.704366    1.303278
H     19.107722   10.794267    1.841703
H     20.639151   11.573133    1.037188
C     20.216622    6.961713    1.171985
H     20.278040    6.243087    2.217331
H     20.609334    6.759821    0.193022
10

C     19.735303    8.418356    1.253949
H     19.393443    8.021261    0.107202
C     20.444163    9.639250    0.715813
H     21.142474    9.789928   -0.196801
C     20.073819   10.731895    1.275450
H     19.270049   10.791507    1.870314
H     20.606138   11.668400    1.111908
C     20.004143    6.983159    1.150150
H     19.809019    6.415303    1.924478
H     20.941165    6.503502    0.631971
10

C     19.758662    8.134167    0.769906
H     18.859646    8.324248    1.486765
C     20.612470    9.549561    0.883494
H     21.655591    9.592339    0.911819
C     20.009778   10.724246    1.097404
H     19.076871   11.033109    1.368194
H     20.531534   11.555824    0.848102
C     20.428460    6.985618    0.516689
H     20.353478    7.038398    1.645762
H     20.133224    6.025052    0.316296
10

C     19.713490    8.313143    1.136281
H     18.455620    8.632130    1.073846
C     20.481893    9.388993    0.938256
H     21.556341    8.877412    0.408852
C     20.046916   10.578068    1.132717
H     19.204155   10.696369    1.724850
H     20.394644   11.518212    0.734842
C     19.982840    6.981110    0.789193
H     20.651693    7.112499    1.710117
H     20.932123    6.864625    0.195478
10

C     19.699129    8.193341    1.083773
H     18.514410    8.513488    1.647470
C     20.503478    9.328542    0.799429
H     21.710341    9.599230    0.470509
C     19.930245   10.646284    1.045816
H     18.914534   10.989069    1.317721
H     20.798302   11.330977    1.053036
C     19.987163    6.915674    0.623153
H     20.526936    7.086715    1.626432
H     20.835177    6.359242    0.177093
10

C     19.676064    8.222582    0.993784
H     18.927938    8.329854    1.786780
C     20.458818    9.545588    0.982807
H     21.576820    9.059786    0.681659
C     20.086516   10.735927    1.044062
H     19.091372   10.929673    0.980853
H     20.495574   11.593288    1.135191
C     19.953119    6.889528    0.735789
H     20.812893    7.366472    1.612079
H     20.340602    6.289864   -0.108570
10

C     19.705876    8.208117    0.968923
H     18.891583    8.288797    1.918318
C     20.465346    9.545767    1.002591
H     21.602146    9.007963    0.747469
C     20.122108   10.752889    1.034704
H     19.015583   10.837171    0.932131
H     20.537188   11.715177    1.072468
C     19.963432    6.863861    0.774749
H     20.840559    7.384816    1.551614
H     20.275894    6.358004   -0.158535
10

C     19.981939    8.434038    1.359418
H     19.042527    8.577557    2.130571
C     20.912069    9.523323    1.493212
H     21.797116    9.182062    1.088575
C     20.035154   10.641011    1.013832
H     18.899500   10.630187    1.176389
H     20.074554   10.934600   -0.005693
C     19.961367    7.276302    0.666337
H     20.373436    6.442673    1.266063
H     20.342053    7.320809   -0.344269
10

C     20.077936    8.455475    1.492221
H     19.216388    8.650861    1.907318
C     20.851647    9.520673    1.689501
H     21.692830    9.156566    0.884827
C     19.878560   10.585029    1.020899
H     18.882082   10.583413    1.300190
H     20.182445   10.967671   -0.068720
C     20.004098    7.376529    0.677080
H     20.112646    6.443108    1.188349
H     20.521082    7.223235   -0.247232
10

C     19.710239    8.236121    1.616097
H     18.774903    8.345411    2.268145
C     20.526967    9.370017    1.441059
H     21.478679    9.186764    1.750331
C     20.199134   10.630672    0.897505
H     19.166250   10.684759    0.860872
H     20.502256   10.706593   -0.086301
C     20.413661    7.660345    0.467316
H     21.143972    7.058925    0.809853
H     19.503655    7.082954   -0.180446
10

C     19.876214    8.451188    1.438628
H     18.877407    8.667062    1.772195
C     20.803852    9.401062    1.664030
H     21.955629    9.388810    1.552324
C     19.987794   10.312687    0.790942
H     19.108556   10.690006    1.336026
H     20.117603   10.513678   -0.272123
C     20.088240    7.272796    0.813588
H     21.065744    6.733235    0.867130
H     19.538676    7.532039   -0.118308
10

C     19.815108    8.192895    1.314839
H     18.765199    8.561592    1.290711
C     20.476675    9.454732    1.057216
H     21.383522    9.544435    0.496625
C     19.996725   10.655539    1.131802
H     18.911596   10.923685    1.366627
H     20.808661   11.381371    0.700902
C     20.291841    7.000072    0.894775
H     20.614488    6.426910    1.762037
H     20.355899    6.821331   -0.171101
10

C     19.984937    8.399231    1.660070
H     19.044037    8.114579    0.959870
C     20.475951    9.617500    0.841782
H     21.525979    9.360417    0.420171
C     20.066445   10.894340    0.953147
H     18.987662   10.978585    1.382770
H     20.522995   11.831977    0.905156
C     20.262838    7.063878    1.063254
H     20.335558    6.082413    1.558714
H     20.213313    6.619641    0.099500
10

C     19.845818    8.294334    1.251881
H     19.032786    8.539440    2.088869
C     20.648804    9.489326    0.998390
H     21.682871    9.420163    1.061842
C     20.002960   10.621792    0.914066
H     18.996240   10.534075    0.787779
H     20.515241   11.690775    0.656066
C     19.838155    6.845793    1.163757
H     20.952347    6.443108    1.055725
H     19.904494    7.083755   -0.133943
10

C     19.848390    8.275254    1.248181
H     19.017679    8.541785    2.094539
C     20.624876    9.483610    1.008257
H     21.696867    9.480495    1.038731
C     19.987378   10.607115    0.911351
H     18.998846   10.545534    0.781209
H     20.540149   11.617500    0.657539
C     19.832705    6.832227    1.169313
H     20.957571    6.419137    1.080294
H     19.915254    7.159905   -0.144982
10

C     19.885453    8.239775    1.255456
H     19.109258    8.543366    1.923263
C     20.603613    9.481278    1.040393
H     21.744401    9.678743    0.934985
C     19.981510   10.603600    0.914337
H     18.861779   10.648186    0.801066
H     20.599904   11.335025    0.726866
C     19.908188    6.825617    1.108152
H     20.871385    6.358589    1.196049
H     19.854224    7.248382   -0.056135
10

C     20.182709    8.246430    1.147984
H     19.270292    8.103125    1.636349
C     20.659518    9.570244    1.070443
H     21.720324    9.800931    1.024310
C     19.961651   10.626366    1.014764
H     18.896506   10.616656    0.736905
H     20.610223   11.559973    0.895042
C     20.418155    7.081063    0.469065
H     20.329389    6.677758    1.570977
H     19.370947    6.680016    0.278595
10

C     20.327457    8.312347    1.629325
H     19.389453    8.282712    1.061648
C     20.635849    9.629067    1.214527
H     21.536657    9.298728    0.649145
C     19.909250   10.749762    1.001811
H     18.993898   10.965428    1.662899
H     20.158848   11.398227    0.294254
C     20.303732    7.010431    0.967367
H     19.865619    6.301183    1.607221
H     20.298952    7.014675   -0.243764
10

C     19.880080    8.245006    0.873025
H     18.811471    8.335301    1.264411
C     20.519236    9.538227    0.611013
H     21.639378    9.369066    0.391629
C     19.998580   10.635629    1.190337
H     18.890745   10.781192    0.959331
H     20.737366   11.585737    1.581617
C     20.615956    7.197150    0.738036
H     20.443980    6.980442    1.992343
H     19.882922    6.294812    0.242691
10

C     20.119840    8.307351    1.080068
H     18.943659    8.419345    0.952006
C     20.731652    9.516009    0.779457
H     21.731895    9.645520    0.420570
C     20.019414   10.582995    1.042316
H     19.031721   10.530303    1.380473
H     20.338299   11.679940    1.127015
C     20.701102    6.972956    1.078734
H     19.998955    6.631038    1.784473
H     19.803178    6.677104    0.199320
10

C     20.096269    8.210911    0.959916
H     19.016213    8.207446    0.722720
C     20.592144    9.588211    0.942451
H     21.622671    9.688096    0.604866
C     20.045061   10.774690    1.149325
H     19.211752   10.832349    1.898755
H     20.278867   11.579696    0.572734
C     20.690203    6.973154    1.147431
H     19.871887    6.719813    1.704827
H     19.994647    6.388194    0.141408
10

C     19.804893    8.296935    1.136517
H     18.899672    8.389358    1.621964
C     20.551332    9.535343    0.894082
H     21.463541    9.276527    0.482567
C     19.998973   10.791308    1.062076
H     18.969923   11.002140    1.587396
H     20.426913   11.662787    0.493355
C     20.284974    7.064636    0.816686
H     19.719326    6.155382    1.232558
H     21.300169    6.788144    0.517233
10

C     19.732589    8.216792    1.202915
H     18.712718    8.462669    1.406217
C     20.473974    9.553724    0.829114
H     21.419752    9.280502    0.464826
C     20.003971   10.790017    1.067355
H     18.940743   11.225157    1.015662
H     20.780940   11.640154    1.243440
C     20.147596    6.990031    0.934575
H     20.961373    6.486961    1.610128
H     20.246058    6.316555    0.070200
10

C     19.700460    8.178869    1.202182
H     18.713701    8.420726    1.405771
C     20.486626    9.571327    0.859734
H     21.453617    9.385054    0.465338
C     20.029438   10.799577    1.015536
H     19.042485   11.022493    1.156356
H     20.734199   11.690062    1.140868
C     20.159085    7.008416    0.924940
H     20.790593    6.496065    1.708658
H     20.309511    6.389972   -0.034951
10

C     19.730901    8.196625    1.276500
H     18.571649    8.386768    1.250419
C     20.537947    9.576962    0.913359
H     21.576673    9.525966    0.537241
C     20.102416   10.819860    0.946451
H     19.047435   10.764787    1.496528
H     20.676531   11.695607    0.814184
C     20.319616    7.011824    0.922669
H     20.567886    6.378054    1.736028
H     20.288661    6.606108   -0.048945
10

C     19.719600    8.264048    1.336269
H     18.686825    8.337044    1.205070
C     20.511173    9.553850    0.971173
H     21.511926    9.448893    0.677406
C     20.018218   10.809062    0.964617
H     19.232944   10.835885    1.615830
H     20.558420   11.768738    0.539317
C     20.366515    7.019690    0.962989
H     20.531085    6.165004    1.707510
H     20.283007    6.760349   -0.135746
10

C     19.698980    8.340325    1.198671
H     18.564955    8.377920    1.215431
C     20.512183    9.549637    1.027732
H     21.575114    9.326934    0.757030
C     20.033259   10.832170    0.990471
H     19.256454   11.045232    1.667944
H     20.466651   11.614520    0.480208
C     20.291707    7.065903    0.969420
H     20.712329    6.230595    1.573184
H     20.308083    6.579325   -0.035657
10

C     19.837014    8.314693    1.362446
H     18.684104    8.423333    1.114989
C     20.513855    9.513702    1.069238
H     21.518075    9.166320    0.762722
C     20.001566   10.766710    1.022086
H     19.152497   11.247673    1.706868
H     20.365481   11.496313    0.322151
C     20.367368    7.067535    1.034990
H     20.636084    6.116511    1.443408
H     20.343672    6.849772    0.005534
10

C     19.775244    8.330939    1.232191
H     18.661684    8.363160    1.170073
C     20.489132    9.499174    1.081170
H     21.456659    9.178762    0.764527
C     19.988324   10.758962    1.086235
H     19.156454   11.308551    1.683635
H     20.485588   11.513286    0.354529
C     20.268756    7.109386    0.988596
H     20.729741    6.247096    1.481229
H     20.408134    6.653244    0.002248
10

C     19.321736    8.277340    0.227645
H     18.523698    8.555029    1.058827
C     20.406984    9.358452    0.579265
H     21.530005    9.375913    0.330689
C     19.995875   10.432358    1.261998
H     19.183516   10.733478    1.705366
H     20.834335   11.025184    1.292351
C     20.211167    7.354027    1.003531
H     20.713041    7.427666    2.029917
H     20.699358    6.423114    0.354843
10

C     19.622604    8.314601    0.804606
H     18.569516    8.528119    0.933772
C     20.497592    9.391999    0.324218
H     21.527099    9.325978    0.330088
C     20.040741   10.361745    1.292038
H     18.974391   10.557509    1.424474
H     20.865747   11.035830    1.464543
C     20.127712    7.112964    1.212386
H     20.849148    7.764782    1.717994
H     20.345166    6.569036    0.340314
10

C     20.215116    8.208599    1.836011
H     20.081970    7.697665    2.751505
C     20.505892    9.541363    1.434529
H     20.845702   10.395541    2.197814
C     20.168168   10.126372    0.092533
H     19.484315   10.360497    0.980398
H     20.508735   11.011215   -0.347338
C     20.075897    7.425796    0.643250
H     19.904613    6.464607    0.650051
H     19.629306    7.730907   -0.394320
10

C     19.745493    8.316507    1.065237
H     18.798493    8.548577    1.195130
C     20.643942    9.501623    1.017767
H     21.703544    9.243944    0.970038
C     19.995796   10.699049    0.922532
H     18.888660   10.941354    0.954362
H     20.671440   11.763522    1.025885
C     20.261338    7.002368    0.947261
H     21.309231    6.623226    0.953010
H     19.401779    6.322393    0.793211
10

C     19.690574    8.235295    1.067691
H     18.766992    8.483912    1.535462
C     20.481694    9.544150    1.008112
H     21.541693    9.249093    0.539917
C     20.092726   10.766180    1.175798
H     19.112033   10.854536    1.600005
H     20.358089   11.662391    0.372727
C     20.171630    6.963614    0.761021
H     20.093465    6.204124    1.539290
H     21.110819    6.999267    0.244409
10

C     19.690439    8.199909    1.043618
H     18.684610    8.557989    1.476038
C     20.497825    9.557404    1.012675
H     21.569847    9.246345    0.553344
C     20.085837   10.809223    1.164885
H     19.153365   10.808310    1.648807
H     20.340661   11.555472    0.391281
C     20.186671    6.957737    0.804640
H     20.175223    6.343457    1.524059
H     21.035238    6.926715    0.225087
10

C     19.662157    8.200498    1.021853
H     18.669166    8.499152    1.208476
C     20.568469    9.545178    0.995841
H     21.422176    9.391302    0.563166
C     20.081150   10.859499    1.149239
H     19.222268   10.927269    1.838619
H     20.426353   11.588271    0.434136
C     20.172539    6.977079    0.826717
H     20.354122    6.291093    1.885255
H     20.841314    6.683221   -0.078870
10

C     19.814145    8.195204    1.017854
H     18.813312    8.289508    1.307819
C     20.509992    9.408299    1.072320
H     21.374053    9.292939    0.628064
C     19.911041   10.615308    1.083168
H     19.152493   11.187761    1.615493
H     20.592120   11.423833    0.668233
C     20.037077    6.809883    0.869006
H     20.573850    7.266375    1.628003
H     20.641632    6.473451   -0.045526
10

C     19.778424    8.182477    0.941679
H     18.760374    8.518864    1.179660
C     20.467023    9.579670    0.917191
H     21.548939    9.192915    0.685114
C     19.916972   10.783883    1.123812
H     19.314710   11.220318    1.885329
H     20.286827   11.788051    0.465470
C     20.294632    6.950613    0.848743
H     20.326468    6.248940    1.875344
H     20.725346    6.496830   -0.077909
10

C     19.837159    8.319168    0.817749
H     18.776044    8.629008    0.481034
C     20.389526    9.584838    0.841930
H     21.529987    9.349287    0.786679
C     19.999249   10.818308    1.100691
H     19.140005   10.847767    1.794869
H     20.635431   11.477471    0.839599
C     20.416915    7.018265    0.947222
H     20.923022    6.609581    1.751500
H     19.772378    6.308867    0.483159
10

C     19.771008    8.320340    0.552207
H     18.758891    8.636160    0.496509
C     20.585360    9.562457    0.682051
H     21.607645    9.570778    0.654587
C     20.049353   10.763666    1.097230
H     18.917413   10.615961    1.602231
H     20.801080   11.611593    1.243435
C     20.308452    7.025010    0.824216
H     20.860591    6.747541    1.728325
H     19.759922    6.109055    0.963640
10

C     19.839860    8.282102    1.015339
H     18.724238    8.395987    1.055815
C     20.672458    9.428745    0.784794
H     21.736407    9.449261    0.542525
C     19.932527   10.678424    1.022250
H     18.766658   10.839210    1.498944
H     20.694202   11.467446    0.945928
C     20.745718    7.166400    1.001484
H     20.358069    6.483797    1.712793
H     19.949578    6.771190    0.264560
10

C     20.080889    8.199661    0.813458
H     19.113125    8.317215    1.138139
C     20.691904    9.550462    0.701301
H     21.775163    9.340373    0.521943
C     20.023411   10.871477    1.076708
H     18.779738   10.807468    1.016631
H     20.406339   11.707939    1.490026
C     20.652933    6.924484    0.758955
H     20.217548    6.854691    1.822113
H     19.678665    6.388791    0.505159
10

C     19.660092    8.212760    1.248898
H     18.847197    8.327855    1.923703
C     20.419384    9.403536    0.959441
H     21.453848    9.354017    0.762603
C     19.961848   10.734731    1.027946
H     19.002463   11.143371    1.122496
H     20.751302   11.371816    0.761628
C     19.868665    6.965293    0.667953
H     20.692145    6.948065    1.355453
H     20.762772    6.501118    0.014311
10

C     19.664311    8.182445    1.243350
H     18.881309    8.249024    1.924143
C     20.426858    9.388252    0.989532
H     21.320566    9.362157    0.804758
C     19.984425   10.755097    1.008206
H     19.022498   11.185854    1.093700
H     20.808800   11.499234    0.754761
C     19.847794    6.954194    0.694244
H     20.781204    6.910659    1.381179
H     20.681951    6.475646   -0.049442
10

C     19.815491    8.366397    0.794044
H     18.893602    8.442356    1.430612
C     20.576023    9.562399    0.863344
H     21.607218    9.582240    0.557605
C     20.024113   10.812179    1.145141
H     19.089764   10.806952    1.475007
H     20.482390   11.768344    0.849576
C     20.357041    7.018563    0.850476
H     20.126222    6.301413    1.889271
H     20.447850    6.301718   -0.010644
10

C     19.797772    8.335932    0.806153
H     18.911809    8.416190    1.327673
C     20.633588    9.599779    0.936906
H     21.578332    9.595271    0.546536
C     20.047557   10.817330    1.138749
H     19.043739   10.872353    1.609723
H     20.471182   11.626156    0.753141
C     20.348237    6.986840    0.898355
H     20.063697    6.509792    1.719135
H     20.523802    6.202920    0.108061
10

C     19.661387    8.259123    0.764354
H     18.489989    8.484558    0.612908
C     20.371344    9.436782    0.592190
H     21.355503    9.259771    0.119334
C     20.098950   10.587865    1.281087
H     19.141914   10.654119    1.684102
H     20.806842   11.592690    1.259377
C     19.875433    6.997818    0.959869
H     20.796791    7.019653    1.989857
H     20.821561    6.670182    0.581354
10

C     19.656372    8.222335    1.418257
H     18.806866    8.748636    1.854974
C     20.577870    9.226569    1.003682
H     21.622897    9.323969    0.812380
C     20.030078   10.471098    1.114092
H     19.006536   10.670457    1.032847
H     20.517915   11.448342    0.587817
C     19.744336    6.913480    0.751320
H     20.929877    6.783789    1.401370
H     20.526968    7.153887   -0.132306
10

C     19.618683    8.249024    1.017036
H     18.596426    8.054854    0.665944
C     20.365795    9.410565    0.751443
H     21.238627    9.234987    0.325858
C     20.126024   10.576896    1.167035
H     19.266522   10.814318    1.690302
H     20.728585   11.423423    0.860016
C     20.127019    6.948092    1.254183
H     20.881265    6.851444    1.852886
H     20.470769    7.398959    0.259730
10

C     19.576152    8.278386    1.057264
H     18.683173    8.318046    0.476039
C     20.362976    9.401002    0.750897
H     21.385178    9.208681    0.310120
C     20.065694   10.612087    1.169208
H     19.167153   10.898740    1.775839
H     20.654446   11.228471    0.858593
C     20.156720    6.954272    1.248994
H     20.962592    6.613891    1.920884
H     20.405630    7.448986    0.276594
10

C     19.759530    8.328471    1.225183
H     18.781031    8.254496    1.668642
C     20.491581    9.591906    0.824797
H     21.394470    9.365957    0.508738
C     20.046395   10.842888    0.932441
H     19.037277   11.010965    1.536027
H     20.535675   11.691572    0.568901
C     20.301950    7.025383    0.922345
H     19.944778    5.871659    1.398836
H     21.127029    6.979265    0.258523
10

C     19.712244    8.290572    0.969878
H     18.702449    8.600981    1.381090
C     20.506077    9.522176    0.986445
H     21.450091    9.281537    0.794319
C     20.105897   10.817763    1.083995
H     19.020119   10.913239    1.450038
H     20.610655   11.658709    0.661999
C     20.259465    7.035044    0.839065
H     20.828046    6.291423    1.775155
H     20.224672    6.551118   -0.097552
10

C     19.656093    8.336258    0.947745
H     18.641322    8.414844    1.525652
C     20.491341    9.523306    0.747020
H     21.646634    9.581525    0.478307
C     20.003353   10.755500    0.980690
H     18.914533   11.053590    1.052502
H     20.851938   11.541110    1.396486
C     20.152402    6.981611    0.845428
H     20.870421    6.545419    1.811763
H     20.191679    6.229400    0.058839
10

C     19.647738    8.326338    0.947298
H     18.627892    8.415633    1.438005
C     20.495104    9.510401    0.746401
H     21.647378    9.525839    0.500516
C     20.015896   10.739057    1.010540
H     18.900129   11.063387    1.049743
H     20.866588   11.547723    1.435588
C     20.144588    6.937523    0.834540
H     21.000925    6.745763    1.842240
H     20.073476    6.150898    0.039562
10

C     19.694432    8.340682    1.018982
H     18.719508    8.476070    1.424369
C     20.503674    9.535247    0.750152
H     21.526663    9.560788    0.551160
C     19.999729   10.755464    1.039643
H     19.089956   11.025827    1.072314
H     20.716539   11.372585    1.303981
C     20.179030    6.977012    0.947078
H     20.850282    6.725605    1.596482
H     20.139902    6.193281    0.140273
10

C     19.686447    8.268563    0.963785
H     18.628364    8.505492    1.226989
C     20.526703    9.374580    0.665817
H     21.627828    9.150157    0.506581
C     20.066307   10.672418    1.075614
H     18.887975   10.797134    1.284612
H     20.692115   11.697865    1.097337
C     19.979272    6.915204    1.316757
H     21.091665    6.656973    1.525802
H     20.233039    6.924176    0.181139
10

C     19.623650    8.284816    0.943724
H     18.441041    8.448027    0.855052
C     20.517845    9.441312    0.718431
H     21.632615    9.321672    0.310559
C     20.080559   10.593259    1.122204
H     19.000792   10.675853    1.620157
H     20.774770   11.678956    1.003916
C     19.838663    6.943751    1.281775
H     21.055988    6.650171    1.744416
H     20.453791    6.924745    0.244199
10

C     19.585094    8.301317    0.917006
H     18.499282    8.451946    1.095525
C     20.563371    9.464217    0.685030
H     21.659757    9.277715    0.425574
C     20.065968   10.641473    1.058690
H     19.065374   10.711515    1.372248
H     20.672362   11.665405    1.115767
C     19.905434    6.964273    1.279537
H     21.123402    6.534014    1.653395
H     20.279673    6.950686    0.241662
10

C     19.703975    8.149611    1.543581
H     19.014605    8.368491    2.459366
C     20.726814    9.452145    1.452722
H     21.867037    9.438621    1.441571
C     20.127015   10.476989    0.646919
H     18.970409   10.499611    1.047502
H     20.389530   11.219278    0.009638
C     19.699056    7.314244    0.618091
H     20.786404    6.794266    0.949207
H     20.134871    7.249305   -0.324165
10

C     19.935846    8.145407    1.630443
H     19.275647    7.876567    2.441397
C     20.484880    9.505158    1.123733
H     21.528582    9.583261    1.492946
C     19.981355   10.702294    0.476291
H     18.993155   10.779685    0.332153
H     20.744056   11.617858    0.602568
C     20.144346    6.821139    1.051712
H     21.036119    6.351166    0.558482
H     19.295730    7.580026    0.134708
10

C     19.754105    8.356964    1.194122
H     18.832538    8.256590    1.721888
C     20.532077    9.518118    0.808426
H     21.524543    9.401337    0.290574
C     19.961576   10.716955    0.944797
H     19.067708   10.831813    1.305968
H     20.515089   11.719482    0.883344
C     20.389363    7.081183    0.978311
H     19.781671    6.125519    1.370444
H     21.061045    6.954601    0.346559
10

C     19.951725    8.312388    1.223135
H     19.200704    8.566110    1.807667
C     20.541755    9.604494    0.844947
H     21.532353    9.212698    0.308296
C     19.960691   10.763053    1.124638
H     18.791058   10.920172    0.980041
H     20.453365   11.618998    1.105271
C     20.334655    7.027841    0.934169
H     19.931170    6.305430    1.591265
H     20.722240    6.631377   -0.074994
10

C     19.740112    8.267879    1.380412
H     19.270625    8.120037    2.237576
C     20.540625    9.427221    1.136190
H     21.638114    9.347703    1.326645
C     20.003482   10.650658    0.840962
H     18.898545   10.829896    0.937398
H     20.626141   11.478652    0.390736
C     19.882929    6.773251    0.907172
H     20.888960    7.111413    1.096574
H     19.930182    6.955852   -0.409233
10

C     19.850293    8.381732    1.265164
H     18.796134    8.542519    1.826364
C     20.646262    9.512025    1.004340
H     21.828703    9.283399    1.082900
C     20.022264   10.778895    0.908633
H     18.933358   10.599552    0.706896
H     20.549302   11.659595    0.915585
C     20.226233    7.170453    0.625187
H     21.016926    6.407827    1.272818
H     19.550240    6.626564    0.236546
10

C     19.625522    8.167265    1.336462
H     18.597073    8.334911    1.839554
C     20.473020    9.308268    1.124490
H     21.578369    9.411750    0.752898
C     19.920125   10.570721    1.058823
H     18.985805   10.885010    0.983712
H     20.839073   11.205824    0.539473
C     20.053229    6.857718    1.030508
H     21.085796    6.738064    1.253605
H     20.261703    7.483030   -0.075093
10

C     19.812557    8.272874    1.877703
H     18.756108    8.033452    2.091901
C     20.562254    9.352633    1.465683
H     21.477464    9.112009    0.955417
C     20.028538   10.611970    0.739272
H     19.002187   10.552297    0.620938
H     20.789091   11.470778    0.526982
C     20.349764    7.557273    0.729720
H     20.907381    6.714447    1.021553
H     19.734371    7.284828   -0.184737
10

C     19.801714    8.282423    1.926188
H     18.890089    8.093174    2.059922
C     20.541443    9.297681    1.500788
H     21.425016    9.159149    1.027137
C     20.001469   10.561134    0.792199
H     19.026472   10.609864    0.665799
H     20.768309   11.387025    0.389041
C     20.358888    7.555521    0.784259
H     20.899607    6.734096    0.959122
H     19.706709    7.282495   -0.260023
10

C     19.968073    8.355504    1.672352
H     19.233735    8.540002    2.417375
C     20.675984    9.486332    1.295312
H     21.702037    9.392964    1.315869
C     19.853743   10.349699    0.764492
H     18.962380   10.078611    0.447614
H     20.582011   11.151675    0.368394
C     19.941549    7.024077    0.972542
H     20.858322    6.751318    0.599841
H     19.641882    7.832380   -0.009358
10

C     19.996714    8.271852    1.340774
H     18.959727    8.524877    1.249771
C     20.711135    9.642702    1.107898
H     21.751605    9.515943    0.898319
C     19.990139   10.631954    0.951267
H     18.916660   10.673373    1.643816
H     20.372752   11.529158    0.241084
C     20.712515    7.161755    0.940267
H     20.030655    6.132960    1.314286
H     19.977813    6.877987    0.156950
10

C     19.688168    8.350333    1.097498
H     18.561472    8.327414    0.928854
C     20.441104    9.496025    0.780367
H     21.509566    9.159022    0.543127
C     19.968896   10.690727    1.036231
H     19.136328   11.143354    1.855517
H     20.637035   11.523995    0.782154
C     20.140159    7.118353    0.888023
H     20.688251    6.696189    1.786746
H     20.648736    6.457149    0.145917
10

C     20.023942    8.307428    1.348006
H     18.826677    8.483576    1.232737
C     20.707922    9.607895    1.070152
H     21.810396    9.530001    0.890147
C     19.984428   10.639562    0.885719
H     19.038668   10.660643    1.655653
H     20.297391   11.533181    0.292577
C     20.662530    7.161543    0.929937
H     20.068509    6.102465    1.307535
H     19.999253    6.936268    0.231969
10

C     19.875801    8.287795    1.243338
H     18.635111    8.799652    1.231885
C     20.667466    9.497967    0.992541
H     21.812826    9.437401    0.855493
C     19.999355   10.710925    0.965808
H     19.125774   10.736408    1.507334
H     20.351481   11.651413    0.652242
C     20.253077    7.015835    0.860051
H     20.748458    6.407177    1.585419
H     19.950366    6.417990   -0.049678
10

C     19.831803    8.312157    1.274687
H     18.815542    8.701972    1.394391
C     20.598970    9.485424    0.914647
H     21.714127    9.408613    0.782483
C     19.994280   10.745354    0.953214
H     19.186986   10.799707    1.452942
H     20.326135   11.702656    0.719941
C     20.111801    7.020213    0.915166
H     20.604583    6.363415    1.594255
H     20.235488    6.423051   -0.157294
10

C     20.066561    8.425090    1.549732
H     19.173354    8.010503    1.135977
C     20.511309    9.660728    0.824685
H     21.393770    9.500116    0.389729
C     19.945020   10.819760    0.917836
H     18.838533   10.701706    1.174854
H     20.860318   11.547197    1.096437
C     20.354144    7.167618    1.155144
H     20.295966    6.295570    1.678014
H     19.980740    6.834275   -0.077975
10

C     19.994637    8.334850    1.162585
H     19.119633    8.531105    1.516796
C     20.694805    9.596554    0.984447
H     21.747355    9.539290    0.533389
C     19.970599   10.697590    1.240805
H     18.797335   10.567929    0.810226
H     20.496702   11.603296    0.940392
C     20.655962    7.110793    0.918439
H     20.148882    6.119853    1.493550
H     19.793805    6.861301    0.243804
10

C     20.055289    8.297226    1.477247
H     19.250459    7.902326    0.927402
C     20.360135    9.673317    0.995588
H     21.115384    9.329827    0.221308
C     20.053134   10.952239    1.228592
H     18.926725   11.602007    1.326839
H     20.645644   11.740976    0.902371
C     20.227238    6.878211    0.982183
H     20.253985    6.164075    1.788034
H     20.531722    6.422358   -0.005132
10

C     19.802100    8.239218    1.554563
H     18.805763    8.169795    1.780312
C     20.394601    9.415157    0.987751
H     21.748302    9.297872    0.784814
C     19.985867   10.644265    0.941406
H     19.037193   10.824720    0.753224
H     20.619825   11.659524    0.718570
C     20.056167    6.800298    1.195943
H     21.050378    6.365846    1.088415
H     19.919520    7.545866    0.039435
10

C     19.850756    8.238046    1.549823
H     18.853715    8.220787    1.732095
C     20.464778    9.438806    1.057568
H     21.480911    9.303322    0.725060
C     20.036586   10.702089    0.966259
H     18.906880   10.856726    0.714960
H     20.729613   11.623772    0.729407
C     20.139317    6.774074    1.206978
H     21.028231    6.257395    1.070921
H     19.928928    7.547545    0.091364
10

C     19.682840    8.279595    1.090519
H     18.842258    8.446414    1.732632
C     20.502589    9.463753    0.737054
H     21.683757    9.295023    0.478660
C     20.025816   10.780577    0.928014
H     19.042962   11.007840    1.534738
H     20.321612   11.695878    0.760658
C     20.270649    7.103885    0.839549
H     19.861552    6.118068    1.496465
H     21.185680    6.771527    0.246144
10

C     19.872461    8.205557    0.759148
H     18.716175    8.022953    0.562648
C     20.465408    9.542767    0.701504
H     21.409508    9.645492    0.297474
C     19.979396   10.786663    1.109116
H     19.250429   10.948159    1.939512
H     20.684226   11.718324    1.095429
C     20.725982    7.052402    0.848571
H     19.925201    6.953912    2.045633
H     20.390929    6.086333    0.485399
10

C     19.931542    8.241180    0.575727
H     18.657793    8.211658    0.377240
C     20.529625    9.552343    0.490985
H     21.530331    9.582592    0.288348
C     20.047712   10.696107    1.143152
H     19.223593   10.627440    1.882862
H     20.592329   11.727651    1.315129
C     20.717192    7.108720    1.020287
H     20.020341    7.037725    1.906588
H     20.169259    6.177148    0.844114
10

C     19.799935    8.273493    1.215106
H     18.810615    8.551353    1.196558
C     20.559562    9.539411    1.031882
H     21.527091    9.183708    0.568980
C     20.072650   10.807318    1.131851
H     19.061330   10.843761    0.700227
H     20.583746   11.596482    1.289596
C     20.220590    7.052580    1.100001
H     21.263881    6.724672    1.256017
H     19.520317    6.389783    0.354214
10

C     19.807469    8.158901    1.218474
H     18.923566    8.476182    1.714594
C     20.452574    9.598645    0.814048
H     21.558899    9.415915    0.920740
C     20.005104   10.912019    0.863826
H     19.081985   11.289530    0.580685
H     20.585681   11.478994    1.415198
C     20.289273    6.935880    0.776025
H     21.137672    6.592819    1.298772
H     19.577491    6.103675    0.242070
10

C     19.861164    8.300928    1.051066
H     18.996137    8.346957    1.894897
C     20.478753    9.545582    0.952866
H     21.641384    9.416512    0.819998
C     20.011232   10.857673    0.887172
H     18.926703   11.032082    1.019098
H     20.587300   11.712037    0.960765
C     20.252903    7.019803    0.802671
H     20.545546    6.303746    1.622221
H     20.118594    6.427242   -0.166321
10

C     19.865930    8.328544    1.062308
H     18.874969    8.332323    1.850056
C     20.604076    9.580263    1.163338
H     21.672009    9.529503    0.775434
C     20.013363   10.794334    1.207197
H     18.893349   10.976461    1.036196
H     20.561446   11.424161    0.525348
C     20.324079    7.046567    0.800347
H     20.464064    6.163094    1.573138
H     20.146430    6.787309   -0.148928
10

C     19.818350    8.325520    1.148398
H     18.961741    8.547254    1.660953
C     20.607399    9.650757    1.146006
H     21.658350    9.526197    0.904505
C     19.994254   10.789561    1.186234
H     19.002478   10.838123    1.251602
H     20.504633   11.295046    0.411509
C     20.276447    7.076329    0.914656
H     20.558580    6.348453    1.502174
H     20.037483    6.565323   -0.281604
10

C     19.649282    8.357415    1.129632
H     18.646210    8.582039    0.941093
C     20.502681    9.411939    0.932649
H     21.370812    9.246382    0.368308
C     19.990734   10.648064    1.221351
H     19.129442   10.874580    1.832343
H     20.631878   11.462823    0.670511
C     20.177513    7.122087    0.869946
H     20.483683    6.720605    1.866162
H     20.837480    6.536628    0.012437
10

C     19.956729    8.253215    1.347980
H     19.060443    8.550143    1.295809
C     20.709536    9.655352    1.152498
H     21.680445    9.500315    0.859686
C     19.980474   10.644555    1.030441
H     18.877263   10.706799    1.558288
H     20.418861   11.476558    0.263203
C     20.714907    7.141568    0.954573
H     20.060764    6.209641    1.373319
H     19.960292    6.824416    0.008636
10

C     19.597623    8.237269    1.240379
H     18.684618    8.459946    1.891466
C     20.513657    9.384626    1.155477
H     21.592778    9.119715    0.707395
C     19.964683   10.642034    1.086002
H     18.909115   10.834739    0.998113
H     20.737068   11.345567    0.579500
C     20.053582    6.935352    1.199508
H     21.021435    6.855311    1.031898
H     20.345155    7.148002   -0.045306
10

C     19.705140    8.247601    1.216409
H     18.598969    8.414849    1.119590
C     20.441446    9.415117    1.033678
H     21.476120    9.181183    0.852700
C     20.070039   10.763258    0.992996
H     19.205936   11.088824    1.668932
H     20.429508   11.385275    0.258942
C     20.153349    6.819154    1.234267
H     21.074980    6.135317    1.419436
H     20.264228    7.511983    0.047482
10

C     19.969743    8.362532    0.818165
H     18.813752    8.123925    0.972962
C     20.551467    9.522674    0.540594
H     21.565062    9.384948    0.440706
C     20.004212   10.666561    1.132967
H     19.062297   10.775951    1.398162
H     20.564396   11.471446    1.257762
C     20.712424    7.299312    1.012927
H     20.156430    6.714662    1.864609
H     20.019932    6.640549    0.405577
10

C     19.998890    8.319482    0.955875
H     18.944155    8.097772    0.902124
C     20.471750    9.530505    0.805894
H     21.633960    9.388544    0.740716
C     19.984569   10.745309    1.083778
H     18.912041   10.762266    1.663205
H     20.690411   11.602389    0.817541
C     20.683470    7.169003    0.683820
H     20.163264    6.927394    1.857495
H     19.937205    6.419897    0.333985
10

C     19.616044    8.233156    0.897582
H     18.462879    8.560966    1.228223
C     20.522223    9.293788    0.805807
H     21.766820    9.190775    0.376473
C     19.965075   10.595423    0.912526
H     19.142126   10.583644    1.597361
H     20.568546   11.605636    1.112794
C     19.881335    6.899503    0.932475
H     20.729018    7.240177    1.674982
H     20.765649    6.759494    0.306211
10

C     19.607491    8.232896    0.900813
H     18.686634    8.857445    0.870794
C     20.462290    9.315979    0.817035
H     21.462142    9.279540    0.339735
C     19.992745   10.519172    1.196350
H     19.161965   10.642318    1.689538
H     20.601373   11.446620    0.970499
C     19.867182    6.831409    1.000271
H     20.831381    7.067456    1.827682
H     20.746511    6.769727    0.231716
10

C     19.598436    8.223775    0.906008
H     18.556414    8.417416    1.493675
C     20.464806    9.485941    0.732234
H     21.609472    9.362306    0.620092
C     19.949769   10.615331    0.964169
H     19.175181   10.867846    1.528751
H     20.675019   11.601964    0.969722
C     19.980382    6.824123    0.740517
H     20.570527    7.171542    1.516161
H     20.839710    6.392317    0.373102
10

C     19.840940    8.227855    1.527574
H     18.812313    8.266982    2.118488
C     20.556131    9.551123    1.256913
H     21.371840    9.329904    0.852082
C     19.956968   10.722345    0.881661
H     19.010631   10.988449    0.605702
H     20.727179   11.336078    0.629339
C     20.074765    6.880320    1.203922
H     21.027644    6.425382    0.721228
H     20.041305    7.234124    0.047525
10

C     19.741991    8.303601    1.335829
H     18.760744    8.601961    1.358926
C     20.613851    9.480570    0.894056
H     21.603451    9.306809    0.659301
C     20.015208   10.736911    0.927173
H     18.889876   10.600358    1.096326
H     20.636409   11.509985    0.837339
C     20.188112    6.826940    1.181012
H     20.990033    6.134000    1.369230
H     19.980041    7.461427    0.185241
10

C     19.695959    8.240027    1.221539
H     18.733882    8.508558    1.837468
C     20.530117    9.352784    1.085254
H     21.776669    9.428454    0.732302
C     20.057329   10.590499    1.003409
H     18.842497   10.845671    1.131314
H     20.648439   11.409396    0.626687
C     19.847066    6.951871    1.029934
H     20.861308    6.735855    1.167187
H     20.426448    6.899448    0.009341
10

C     19.587695    8.259052    1.039466
H     18.592886    8.366646    1.203625
C     20.333168    9.454485    0.743554
H     21.723394    9.134739    0.382849
C     19.926657   10.747067    1.017275
H     18.989835   10.735152    1.684133
H     20.780939   11.260917    1.026121
C     20.073810    7.021142    0.715731
H     20.484659    7.410197    1.734855
H     20.926673    6.573166    0.296823
10

C     19.592194    8.249726    0.945734
H     18.583070    8.648618    1.387320
C     20.619147    9.271975    0.958028
H     21.354588    9.148662    0.515436
C     20.145046   10.581806    1.257918
H     19.079686   10.460506    1.503793
H     20.571596   11.503798    0.660564
C     19.994641    6.884606    0.892622
H     20.645682    7.276795    1.562850
H     20.834065    6.936070    0.160167
10

C     20.016463    8.188933    1.308001
H     18.975835    8.326579    1.546250
C     20.473329    9.645343    0.997492
H     21.505014    9.252247    0.839795
C     19.927377   10.737160    1.017664
H     18.966490   10.975270    0.824225
H     20.598038   11.551720    0.835769
C     20.680812    6.990072    0.930320
H     20.708525    6.097567    1.523094
H     19.567832    7.197671    0.021823
10

C     19.689450    8.326969    0.938704
H     18.722369    8.451207    1.122569
C     20.520572    9.497823    1.067781
H     21.717839    9.419564    0.936604
C     20.033385   10.751226    1.131053
H     18.894250   10.961649    1.080242
H     20.810064   11.565299    0.849456
C     20.222810    7.048033    0.886583
H     21.273412    6.763801    1.016043
H     19.535564    6.176992    0.815398
10

C     19.675003    8.251043    1.060250
H     18.673284    8.480984    0.974164
C     20.549485    9.489495    1.018947
H     21.587964    9.166944    0.921757
C     20.052012   10.782196    1.147527
H     19.080425   10.985215    1.175738
H     20.654700   11.767493    0.858525
C     20.193307    7.005262    0.918870
H     21.413020    6.842135    1.233109
H     19.540515    6.191793    0.535546
10

C     19.720754    8.237048    1.096810
H     18.473070    8.436451    0.985219
C     20.615310    9.485588    0.955697
H     21.598056    9.378673    0.866343
C     20.125677   10.800288    1.067527
H     19.068468   11.012080    1.292856
H     20.643097   11.586374    0.862421
C     20.234967    6.974436    0.942334
H     21.273588    6.839421    1.208470
H     19.666729    6.212202    0.566755
10

C     19.800677    8.212510    0.981848
H     18.814712    8.562825    1.275358
C     20.429668    9.539173    0.854721
H     21.322850    9.319040    0.530270
C     19.969105   10.811204    0.989239
H     18.986514   11.083786    1.331550
H     20.756651   11.529025    1.101505
C     20.297866    7.015908    0.923855
H     20.759929    6.323952    1.914563
H     20.281742    6.565139   -0.058477
10

C     19.652642    8.301715    1.018587
H     18.436604    8.488150    0.928281
C     20.560614    9.442191    0.775243
H     21.672012    9.128413    0.324483
C     20.119756   10.639196    1.158060
H     19.120598   10.678080    1.632374
H     20.481070   11.728623    0.929899
C     19.889043    6.802321    1.119306
H     20.849223    6.912016    1.662312
H     20.638152    6.841857    0.295886
10

C     19.592964    8.308517    0.997575
H     18.371444    8.421963    1.019115
C     20.517251    9.426748    0.762161
H     21.585493    8.949952    0.265080
C     20.220653   10.608540    1.191593
H     19.204022   10.620181    1.530190
H     20.420652   11.768244    1.019640
C     19.927520    6.871385    1.072767
H     20.834187    7.114617    1.654669
H     20.745529    6.872414    0.331644
10

C     19.613626    8.281365    0.943604
H     18.449830    8.604020    1.155816
C     20.480546    9.417777    0.742601
H     21.617639    8.831051    0.356265
C     20.200778   10.570161    1.174997
H     19.231014   10.548798    1.506928
H     20.320582   11.788644    1.014672
C     19.977689    6.882820    1.089609
H     20.779741    7.213749    1.581806
H     20.748269    6.824176    0.278135
10

C     19.835333    8.315379    0.873182
H     18.846406    8.622839    1.058685
C     20.541905    9.535957    0.812702
H     21.454586    9.286915    0.663992
C     20.028434   10.820044    1.049210
H     19.110384   10.728553    1.704962
H     20.510407   11.706504    0.846717
C     20.277627    7.076397    0.869918
H     20.501095    6.450562    1.992516
H     20.313539    6.419412   -0.027450
10

C     19.788847    8.357276    1.099869
H     18.830962    8.796320    1.237988
C     20.582762    9.384395    0.768888
H     21.611209    9.120421    0.511499
C     19.938734   10.573607    1.219527
H     18.907857   10.825499    1.405185
H     20.507660   11.454319    0.962484
C     19.839641    6.750149    0.793441
H     20.717084    7.070846    1.665308
H     20.694959    6.629729    0.180245
10

C     19.708991    8.329173    0.528120
H     19.310764    8.334248    1.850627
C     20.306485    9.536479    0.983857
H     21.357098    9.378060    1.505788
C     19.951123   10.907852    1.024504
H     18.980674   11.245854    1.145492
H     20.788431   11.465753    0.584026
C     20.389997    7.025188    0.571196
H     20.887210    6.553649    1.472043
H     19.738942    6.186304    0.178780
10

C     19.347262    8.159442    1.611348
H     18.480047    8.454213    1.115073
C     20.315573    9.149677    0.865977
H     21.338001    8.924521    0.562120
C     20.114019   10.498816    0.926596
H     19.240517   10.845091    1.385519
H     20.710865   11.480590    0.831187
C     20.395934    7.338617    1.040873
H     21.164596    6.879296    1.472750
H     20.312901    7.232298    0.032989
10

C     19.564741    8.313946    0.897923
H     18.837769    8.814759    1.520698
C     20.771028    9.455207    0.771929
H     21.847418    9.418662    0.767083
C     20.048717   10.589164    1.024944
H     19.054727   10.526345    1.272733
H     20.385912   11.717538    1.066757
C     20.093155    7.048316    0.802172
H     20.675084    6.863929    1.661503
H     20.141164    6.214695    0.058689
10

C     19.608850    8.347917    0.927571
H     18.754942    8.777609    1.570085
C     20.843060    9.487263    0.721998
H     21.914132    9.548616    0.725672
C     20.097954   10.661630    1.022339
H     18.993401   10.427497    1.225411
H     20.402454   11.726585    1.112868
C     20.108075    7.103446    0.789521
H     20.590320    6.700532    1.695908
H     20.106528    6.181465    0.053059
10

C     19.916655    8.383290    1.067564
H     18.782616    8.422974    1.427910
C     20.676004    9.648447    0.849361
H     21.635129    9.352483    0.538080
C     20.090917   10.724191    1.050320
H     18.929006   10.727566    1.072807
H     20.548338   11.717375    1.137083
C     20.208004    7.088744    1.060431
H     20.668111    6.400063    1.668629
H     19.964934    6.497429   -0.027753
10

C     20.006281    8.267736    1.082192
H     19.014355    8.608077    1.284678
C     20.474054    9.488436    0.907659
H     21.513213    9.441870    0.571031
C     19.887779   10.793962    1.055965
H     18.845838   10.995028    1.231248
H     20.697649   11.659100    0.957945
C     20.250740    6.902346    1.034444
H     20.619356    6.120339    1.712143
H     20.110452    6.685668    0.007127
10

C     20.220573    8.219334    1.001178
H     19.148563    8.391056    1.179003
C     20.716408    9.481497    0.912678
H     21.711792    9.767089    0.613382
C     19.858045   10.724386    1.031675
H     18.749973   10.824876    1.346301
H     20.545240   11.631958    0.877501
C     20.764951    6.810765    1.042751
H     19.945523    6.377607    1.654844
H     19.758647    6.733994    0.185120
10

C     19.668858    8.297909    0.689597
H     19.452307    8.617405    1.837400
C     20.393409    9.436493    1.019862
H     21.467723    9.296773    1.026011
C     19.967691   10.826515    1.012653
H     18.818985   11.092578    0.910125
H     20.722186   11.645540    1.056216
C     20.148567    7.027052    0.724528
H     20.811241    6.767101    1.422471
H     19.968748    5.955195    0.145569
10

C     19.817239    8.235797    1.300232
H     18.934255    8.837077    0.981277
C     20.597699    9.501676    0.996795
H     21.422509    9.314606    0.339527
C     20.065798   10.784699    1.145165
H     18.920230   10.693852    1.433712
H     20.507086   11.652811    0.846359
C     20.395239    6.999591    1.052845
H     20.463987    6.156917    1.776441
H     20.295672    6.785533   -0.027921
10

C     19.663971    8.307143    1.192779
H     18.316732    8.479505    1.302881
C     20.551739    9.418250    0.874429
H     21.531538    9.330698    0.471787
C     20.059597   10.591554    1.065909
H     19.071624   11.068210    1.433880
H     20.663927   11.496878    0.889126
C     20.286493    7.153686    0.876250
H     20.804379    6.494306    1.737553
H     20.469714    6.622332   -0.000160
10

C     19.968311    8.300446    1.310715
H     18.903721    8.418449    1.634530
C     20.687154    9.609159    1.327996
H     21.712193    9.618335    1.144167
C     19.985222   10.624693    0.906037
H     19.124915   10.735755    1.478959
H     20.300414   11.232951   -0.014696
C     20.657874    7.142714    0.901291
H     20.211352    6.128517    1.214204
H     19.868559    7.151541   -0.058770
10

C     20.071420    8.275280    1.219788
H     19.275219    8.350999    1.983064
C     20.771247    9.492522    1.058364
H     21.933436    9.314462    1.284088
C     19.983332   10.650932    0.817011
H     18.862616   10.533837    0.723132
H     20.243500   11.651664    0.685129
C     20.501528    7.144701    0.632575
H     20.435640    6.378389    1.314579
H     19.341779    7.169777    0.126702
10

C     19.786939    8.276867    1.129200
H     18.787696    8.574639    1.590125
C     20.525553    9.480214    0.849932
H     21.556232    9.514463    0.334446
C     20.004373   10.693429    1.128405
H     18.936267   10.765936    1.422154
H     20.580769   11.676979    0.754396
C     20.300206    7.004300    0.862196
H     19.901295    6.240257    1.504432
H     21.040386    6.735477    0.269147
10

C     19.799941    8.261832    1.060426
H     18.911655    8.296003    1.560190
C     20.496138    9.615671    0.893011
H     21.522959    9.398267    0.727789
C     20.021981   10.844872    1.052033
H     19.157681   11.041239    1.521096
H     20.411096   11.661660    0.542317
C     20.260835    6.942991    0.947749
H     20.247969    6.194676    1.642830
H     20.589459    6.705351   -0.103007
10

C     19.702273    8.238159    1.169025
H     18.576520    8.479337    1.309043
C     20.525594    9.330611    1.137995
H     21.427759    8.884611    0.830854
C     19.983654   10.662128    0.913210
H     19.132958   11.028371    1.664242
H     20.473550   11.376595    0.348261
C     20.003885    6.875832    1.101934
H     21.086614    6.734819    1.361617
H     20.506907    7.352098    0.008252
10

C     19.849745    8.288946    1.283133
H     18.999279    8.747280    2.025101
C     20.559261    9.416029    0.908586
H     21.771304    9.212290    0.788982
C     20.031516   10.595690    0.823688
H     18.817820   10.631582    0.604537
H     20.492223   11.600133    1.118643
C     19.962998    6.829427    1.241179
H     20.989726    6.582785    0.944020
H     19.945843    7.058400    0.106564
10

C     19.669847    8.140755    1.301371
H     18.735598    8.338420    1.733513
C     20.466811    9.458197    0.692944
H     21.657408    9.082926    0.698027
C     20.034530   10.707873    0.950571
H     18.822215   11.031248    0.736578
H     20.731653   11.467516    1.202481
C     20.176064    6.921081    1.269433
H     21.233778    6.740089    1.214621
H     19.891811    7.074456    0.044895
10

C     19.720360    8.210092    1.350358
H     18.580613    8.234817    1.732905
C     20.477696    9.433987    0.667653
H     21.550415    9.356251    0.606640
C     20.008062   10.776560    0.896230
H     19.056280   11.054888    0.661240
H     20.752044   11.469488    1.325424
C     20.200082    6.869484    1.397205
H     21.211081    6.618438    1.112995
H     19.863083    6.938557    0.093781
10

C     19.887429    8.262564    1.185675
H     18.974647    8.450031    1.542622
C     20.519554    9.502853    1.093622
H     21.650219    9.499459    0.811778
C     20.017309   10.686987    1.094310
H     18.963144   10.798677    1.225052
H     20.619821   11.527737    0.703454
C     19.806301    6.810237    0.752786
H     20.770912    7.005479    1.559028
H     20.210379    6.418536   -0.123894
10

C     19.773718    8.218261    1.143455
H     18.660198    8.713257    1.107187
C     20.563418    9.490192    0.879081
H     21.643684    9.452630    0.549979
C     19.994128   10.734036    0.935292
H     18.982514   10.672280    1.512877
H     20.600863   11.525982    0.788146
C     20.114546    6.755081    1.228836
H     20.874842    6.168873    1.647780
H     20.211805    7.231969    0.051799
10

C     19.760729    8.224180    1.142666
H     18.684116    8.646439    1.109803
C     20.555958    9.489879    0.889396
H     21.607180    9.512760    0.536002
C     19.986327   10.720652    0.930398
H     19.087592   10.579385    1.463980
H     20.604477   11.650882    0.794640
C     20.079405    6.769544    1.226347
H     20.828226    6.117190    1.593031
H     20.225705    7.251649    0.158168
10

C     19.722006    8.174537    1.198980
H     18.745462    8.123556    1.716006
C     20.407682    9.515254    0.983113
H     21.528681    9.286880    0.804658
C     20.058197   10.895875    0.843455
H     19.007571   11.193818    0.961846
H     20.755258   11.581690    1.053312
C     20.170754    6.978429    0.869162
H     21.045076    6.764407    1.445411
H     19.979029    6.448115   -0.031510
10

C     19.875170    8.254450    1.199948
H     18.859177    8.510332    1.314477
C     20.536046    9.462666    0.935449
H     21.609573    9.316015    0.790447
C     20.065409   10.771801    1.124089
H     18.954864   10.945238    1.533825
H     20.470598   11.626939    0.542522
C     20.294408    7.052645    0.864695
H     20.515903    6.445726    1.709086
H     20.238566    6.576748   -0.170105
10

C     19.897831    8.465902    1.339144
H     18.968033    7.948362    0.688484
C     20.627944    9.639744    0.837791
H     21.419211    9.513273    0.167604
C     20.002796   10.792767    1.026194
H     19.115133   10.769920    1.644992
H     20.626639   11.841240    0.963786
C     20.133200    7.102820    1.194647
H     20.212746    6.196592    1.843451
H     20.416183    6.691942    0.138341
10

C     19.925376    8.311599    0.851167
H     18.701548    8.466482    1.067306
C     20.520621    9.593891    0.717165
H     21.637128    9.591123    0.600941
C     20.162808   10.711618    1.163186
H     19.062870   10.754384    1.534864
H     20.523209   11.599163    0.987293
C     20.228827    6.997448    0.900847
H     20.478083    6.708707    1.822880
H     20.179246    6.228147    0.198783
10

C     19.725268    8.229990    1.112425
H     18.681865    8.617357    1.619982
C     20.521668    9.531780    0.597935
H     21.635030    9.369520    0.633590
C     20.097515   10.673335    1.034142
H     18.960936   10.838127    0.955104
H     20.622276   11.464585    1.229743
C     19.971464    6.860260    1.208551
H     21.060567    6.651394    1.415055
H     20.143127    6.726213    0.037905
10

C     19.602735    8.171415    1.037822
H     18.470372    8.556863    0.677084
C     20.326866    9.398080    0.932890
H     21.295023    9.356659    0.371848
C     20.199533   10.603349    1.258632
H     19.327319   10.791718    1.871194
H     20.580224   11.238771    0.592676
C     19.963172    6.948022    1.058674
H     20.876960    6.816275    1.759576
H     20.777512    7.081409    0.284036
10

C     19.840275    8.258460    0.390855
H     19.072432    8.039059    1.236448
C     20.415881    9.585747    0.705161
H     21.551523    9.356515    0.729205
C     20.022448   10.850370    1.158488
H     18.949573   10.939098    1.387049
H     20.749464   11.606771    1.161585
C     20.158808    6.989852    0.867227
H     20.563891    7.138814    1.881106
H     20.095421    6.197877    0.327309
10

C     19.447114    8.226639    0.963889
H     18.683877    8.476012    1.625754
C     20.311075    9.388598    0.755345
H     21.253610    9.007235    0.364658
C     20.031212   10.648480    0.982758
H     19.005080   10.805029    1.329722
H     20.899390   11.438591    1.245915
C     20.109581    6.856895    0.879114
H     20.651373    7.576252    1.572067
H     21.027403    6.538832    0.125211
10

C     19.741407    8.300411    0.906407
H     18.905327    8.544507    1.451887
C     20.412454    9.535482    0.830295
H     21.644714    9.379749    0.575008
C     19.898893   10.751604    1.037751
H     18.924129   10.771080    1.649073
H     20.672299   11.514225    0.689908
C     20.204450    6.987733    0.847558
H     20.205044    6.369807    1.768102
H     20.810998    6.807961    0.088444
10

C     19.751067    8.219747    0.877817
H     18.861731    8.483948    1.261725
C     20.457516    9.571297    1.036459
H     21.765870    9.363908    0.561829
C     19.897175   10.772450    1.063395
H     19.087740   10.823646    1.875664
H     20.440752   11.550830    0.420301
C     20.207597    6.970476    0.852892
H     20.098453    6.338708    1.750467
H     20.851812    6.867550    0.143885
10

C     19.650656    8.256475    1.119372
H     18.675123    8.545984    1.133465
C     20.535789    9.477142    0.685276
H     21.834314    9.049812    0.570305
C     20.052380   10.775499    0.901741
H     18.955396   10.913946    1.392637
H     20.509709   11.805797    1.291551
C     20.122213    6.987586    0.907534
H     20.948308    6.918041    1.734476
H     20.135827    6.232279    0.108076
10

C     19.866071    8.250489    0.601668
H     19.008456    7.804871    1.623897
C     20.386398    9.553088    1.122563
H     21.370216    9.515968    0.951889
C     19.981152   10.776905    1.016181
H     18.974066   11.099874    1.083903
H     20.899071   11.403841    0.739108
C     20.377844    6.980161    0.791011
H     20.755613    6.535420    1.757981
H     20.060972    5.604588    0.209809
10

C     19.706381    8.346444    1.115223
H     18.555184    8.459028    1.026910
C     20.532082    9.583967    0.818175
H     21.842146    9.374909    0.657833
C     19.964958   10.785606    1.022554
H     19.133683   11.042250    1.783071
H     20.488770   11.810485    0.727653
C     20.305816    7.043941    0.857582
H     20.597329    6.318980    1.809018
H     20.293366    6.196952    0.026413
10

C     19.824232    8.429818    0.861395
H     19.297015    7.941417    2.024611
C     20.578848    9.501685    0.918090
H     21.904135    9.489802    1.001921
C     20.059999   10.831167    0.877620
H     18.931498   11.214309    0.585939
H     20.401072   11.951187    1.175000
C     20.077340    7.005719    0.842721
H     20.714044    6.288141    1.341215
H     19.631534    6.309318    0.215920
10

C     19.671236    8.301466    1.026412
H     18.715896    8.173808    1.419713
C     20.457133    9.517939    0.825716
H     21.835224    9.464169    0.763626
C     20.068929   10.869686    1.053135
H     19.055302   11.145021    1.233716
H     20.552934   11.813078    0.871956
C     20.338015    7.049844    0.896453
H     20.746907    6.212707    1.615210
H     19.978140    6.414843    0.138496
10

C     20.681404    8.124037    0.914768
H     18.603226    7.294360    1.082005
C     20.812866    9.366949    0.846975
H     21.782365    9.915168    0.773861
C     20.008120   10.506540    0.942932
H     19.038492   10.544643    1.406125
H     20.243614   11.420245    0.859562
C     19.638132    7.238178    0.921755
H     20.084234    6.843875    1.662097
H     20.173412    6.623763    0.079536
10

C     19.861476    8.288030    1.242268
H     18.413065    8.421046    1.724329
C     20.461086    9.481499    0.839315
H     21.478141    9.339464    0.479525
C     19.929259   10.753393    0.973144
H     19.008090   10.968358    1.593965
H     20.523559   11.768361    0.613339
C     20.230872    7.018728    0.933423
H     19.904298    6.139974    1.315650
H     21.065858    6.825592    0.416982
10

C     19.870186    8.252858    1.046001
H     18.950450    8.378974    1.544821
C     20.395638    9.539067    1.005840
H     21.441294    9.503099    0.834614
C     20.007459   10.828376    1.056158
H     19.086015   11.129877    1.567126
H     20.584942   11.694415    0.469372
C     20.247564    7.052872    0.792868
H     20.342010    6.180071    1.749015
H     20.494157    6.402954   -0.221382
10

C     19.838613    8.118215    1.038770
H     18.891836    8.761304    1.405743
C     20.373801    9.540787    1.042814
H     21.432116    9.304029    0.704705
C     19.980981   10.701362    1.028821
H     18.931517   11.065283    1.449295
H     20.659183   11.498584    0.731732
C     20.239402    6.891571    0.827091
H     20.658534    6.541325    1.682174
H     20.413732    6.540101   -0.066711
10

C     19.981271    8.237476    0.856347
H     19.316546    8.613353    1.416951
C     20.562544    9.507820    0.923271
H     21.735873    9.432176    0.828402
C     19.906096   10.681127    0.983269
H     18.767847   10.870041    1.112240
H     20.552329   11.491567    1.209038
C     20.554843    7.061472    0.573309
H     20.329734    6.966850    1.796521
H     19.712631    6.100679    0.145084
10

C     19.700281    8.210045    1.122132
H     18.749243    8.848210    1.374915
C     20.434266    9.480328    1.021890
H     21.362817    9.270628    0.517064
C     19.928850   10.790873    1.003687
H     18.836370   11.107038    1.143251
H     20.900948   11.493925    1.136228
C     20.159670    6.798844    1.015231
H     21.181395    6.564271    1.664246
H     20.165875    6.398399   -0.154211
10

C     19.650206    8.394933    1.222415
H     18.453212    8.006703    1.743983
C     20.520474    9.406753    0.716130
H     21.596007    9.064272    0.697456
C     20.196868   10.714781    0.945206
H     19.024338   10.913112    0.956888
H     20.651974   11.832345    1.014064
C     19.936888    6.886912    1.258016
H     21.220574    6.713696    1.275975
H     20.169174    7.029054    0.014300
10

C     19.723408   11.660526    2.915442
H     18.591262   12.502288    4.036156
C     20.553530    9.879819    0.926176
H     21.780448    9.377858    0.731028
C     20.012977   10.450557    0.976982
H     20.200041   13.094465    2.536163
H     19.796537   12.169425    0.420529
C     19.880554   11.797369    3.457155
H     20.750909   10.107751    2.429449
H     19.432016    8.554099    0.084554
10

C     18.272377    8.775967    0.762460
H     18.051309    8.356539   -0.800387
C     20.338552    9.707507    0.951359
H     21.907367   10.259233    2.448768
C     20.316482   10.452606    1.021252
H     18.907337   10.573883    1.124315
H     20.452629   11.823757    0.747519
C     17.446257    8.728394    0.703895
H     17.149082    7.244991    1.115796
H     20.399827    8.439570   -0.515722
10

C     19.764040    8.257436    0.779835
H     19.070201    8.444775    1.583820
C     20.249981    9.593108    0.384065
H     21.167773    9.761752    1.272043
C     20.020345   10.811828    0.914231
H     19.737385   10.575426    1.934010
H     20.415496   11.653896    0.408716
C     20.233871    7.013072    0.795331
H     19.973642    6.311975    1.705489
H     20.786981    6.539294    0.066894
10

C     19.778225    8.213135    0.727509
H     18.986620    8.416830    1.689327
C     20.321087    9.531841    0.291585
H     20.853504    9.589200    1.231961
C     20.019089   10.821881    0.829934
H     19.569650   10.801518    1.878992
H     20.624812   11.853190    0.609733
C     20.218971    6.952583    0.796150
H     20.070435    6.426123    1.618002
H     20.977323    6.356261    0.171240
10

C     19.786319    8.171547    0.852979
H     19.210329    8.334914    1.794750
C     20.244413    9.446482    0.139523
H     20.782230    9.415837    1.211156
C     19.904241   10.891578    0.823292
H     19.415277   11.110808    1.729968
H     20.680865   11.704466    0.739120
C     20.272645    6.914833    0.777349
H     20.052023    6.355822    1.690916
H     21.071374    6.616276    0.085380
10

C     19.822539    8.160151    0.882869
H     19.125201    8.380813    1.904052
C     20.259081    9.428046    0.141979
H     20.761286    9.374609    1.237362
C     19.876352   10.909014    0.810268
H     19.312586   11.038212    1.757030
H     20.784929   11.722883    0.640152
C     20.306862    6.918839    0.819735
H     20.021645    6.343098    1.577477
H     21.149234    6.686896    0.073509
10

C     19.860458    8.195003    0.960217
H     19.143796    8.408190    1.874497
C     20.280529    9.447403    0.165735
H     20.840172    9.470697    1.248541
C     19.899895   10.943504    0.819843
H     19.260645   10.967722    1.774078
H     20.748769   11.597984    0.532340
C     20.358370    6.969517    0.848125
H     19.934490    6.152102    1.513343
H     21.092591    6.810439    0.107714
10

C     19.852107    8.437291    1.147336
H     19.130060    7.584337    1.814372
C     20.582264    9.630138    0.934003
H     21.875080    9.530457    0.857568
C     20.020633   10.811429    0.813310
H     19.013094   10.974885    0.947453
H     20.523371   11.793164    0.865359
C     20.101303    7.097320    1.034966
H     20.526825    6.194379    1.526988
H     19.794979    6.909163   -0.096922
10

C     19.893814    8.247725    0.968933
H     18.778205    7.984515    1.063416
C     20.552860    9.581031    0.899517
H     21.568023    9.532267    0.452136
C     19.997110   10.787075    1.056715
H     19.055483   11.180430    1.398445
H     20.617706   11.682863    1.155542
C     20.655991    6.939635    0.658369
H     20.215388    6.899329    1.926172
H     20.085134    6.127692    0.265188
10

C     19.727642    8.329592    1.149993
H     18.881058    8.193144    1.688961
C     20.481386    9.507556    0.923856
H     21.439165    9.498387    0.390706
C     19.987749   10.805850    0.996495
H     19.040594   10.980111    1.444176
H     20.588764   11.520890    0.628828
C     20.252596    7.076675    0.948027
H     19.859115    6.105432    1.328763
H     21.161645    6.944925    0.344628
10

C     19.873256    8.229134    1.304611
H     18.750669    8.523108    1.655404
C     20.478474    9.532960    0.806000
H     21.481820    9.434026    0.445808
C     20.005754   10.793929    1.024331
H     18.931933   10.857246    1.379519
H     20.615243   11.702441    0.740021
C     20.371893    6.946539    0.950309
H     20.047450    6.131001    1.496387
H     20.863224    6.812178    0.042043
10

C     19.903234    8.371236    0.931079
H     18.823912    8.342677    1.542670
C     20.761103    9.504025    0.925063
H     21.766406    9.575021    0.831730
C     20.147032   10.666519    1.100944
H     19.002886   10.521030    1.152011
H     20.428476   11.712043    0.964092
C     20.418132    7.028597    0.527030
H     20.298129    7.100074    1.695572
H     19.870407    6.141340    0.174242
10

C     19.819550    8.314315    1.055812
H     18.983807    8.259454    1.841127
C     20.625226    9.648209    0.881486
H     21.771102    9.418734    1.007992
C     19.984848   10.786787    0.952228
H     19.009750   10.897242    0.886045
H     20.544416   11.732438    0.997589
C     20.151184    7.025605    0.722924
H     20.794802    6.552127    1.604988
H     19.735031    6.327650   -0.105757
10

C     20.018530    8.282671    1.374498
H     18.915268    8.769058    1.324957
C     20.634067    9.499148    1.031660
H     21.571103    9.511944    0.585480
C     20.006265   10.702447    0.950151
H     18.910925   10.790903    1.191822
H     20.492885   11.717570    0.850170
C     20.273148    6.942416    1.056532
H     20.581811    5.991702    1.528901
H     20.015712    6.754702   -0.049738
10

C     19.955285    8.362746    1.171448
H     18.880437    8.292367    1.449715
C     20.688835    9.615204    1.197157
H     21.767941    9.627339    0.844288
C     19.957490   10.653324    1.016291
H     19.028480   10.747315    1.398084
H     20.416973   11.367482    0.305001
C     20.675897    7.120848    1.046975
H     20.197114    6.082832    1.376793
H     19.851262    7.093103    0.038679
10

C     20.135050    8.189063    1.002000
H     19.332442    8.172914    1.697725
C     20.632503    9.481720    0.998503
H     21.713764    9.358188    1.013679
C     19.966749   10.749994    0.972341
H     18.829382   11.101914    0.782425
H     20.345124   11.772558    0.906259
C     20.641049    7.013180    0.702856
H     20.344142    6.257922    1.534626
H     19.479509    6.865108    0.234018
10

C     20.156390    8.183192    0.998461
H     19.303416    8.175625    1.709158
C     20.602510    9.481438    0.989384
H     21.744176    9.335952    1.035286
C     19.962152   10.747334    0.973327
H     18.864756   11.057313    0.800048
H     20.329616   11.763945    0.894021
C     20.634956    7.009821    0.701816
H     20.345871    6.349857    1.532344
H     19.475872    6.858084    0.210589
10

C     19.664674    8.217664    1.151201
H     18.605015    8.598187    0.810619
C     20.516233    9.478798    1.051613
H     21.387918    9.379027    0.346675
C     19.889774   10.829714    1.096307
H     19.257546   11.219795    1.869929
H     20.548399   11.659894    0.612469
C     20.249910    6.925578    1.058258
H     20.614332    6.061496    1.807715
H     20.685915    6.592408    0.039647
10

C     19.627045    8.274730    0.941515
H     18.540429    8.662906    1.379338
C     20.527399    9.553778    0.732895
H     21.525245    9.483146    0.402564
C     20.100162   10.774795    1.004501
H     19.021182   10.828788    1.192066
H     20.726899   11.567437    1.334278
C     20.209422    7.090184    0.913577
H     20.812398    6.368082    1.825863
H     20.329533    6.358716    0.117835
10

C     19.631055    8.281123    1.092277
H     18.593614    8.213784    0.974721
C     20.512006    9.619421    0.525658
H     21.487398    9.343267    0.266289
C     20.195671   10.810798    1.121700
H     19.147017   10.908360    1.076532
H     20.656322   11.620518    1.640151
C     20.151930    6.959276    1.033659
H     20.991567    6.886646    1.890120
H     20.053133    6.319369    0.223326
10

C     19.811312    8.462096    1.087698
H     19.021257    7.618729    0.732318
C     20.378394    9.673020    0.494450
H     21.496527    9.395960    0.343963
C     20.080852   10.860188    1.212479
H     19.006053   10.993262    1.478353
H     20.798473   11.726386    1.212374
C     20.294452    7.152299    1.020634
H     20.337433    6.695634    1.938268
H     20.194961    6.384987    0.323894
10

C     19.650041    8.147031    0.790374
H     18.531220    8.211337    0.895867
C     20.434372    9.436728    0.767861
H     21.452771    9.554053    0.422947
C     20.117809   10.673906    1.136402
H     19.238901   11.178347    1.914483
H     20.605830   11.580831    0.882436
C     19.973285    6.832767    0.722037
H     20.473388    7.111129    1.878693
H     20.942098    6.236431    0.433333
10

C     19.517840    8.161768    1.402398
H     18.594150    8.800551    1.430930
C     20.602605    9.443404    1.151151
H     21.593849    9.211906    0.545635
C     19.999311   10.504880    0.839867
H     19.090507   10.705686    1.309169
H     20.537076   11.363036    0.723300
C     19.956818    6.793180    1.157911
H     21.086375    6.684490    1.261035
H     20.441183    7.293660    0.023038
10

C     19.337309    8.352931    0.349732
H     18.323397    8.656559    0.608144
C     20.348269    9.197629    0.614956
H     21.357140    8.906683    0.092434
C     19.894317   10.519526    1.034073
H     19.413002   10.539590    2.152278
H     20.683045   11.395932    1.202749
C     20.300815    7.137843    1.142993
H     20.677589    7.099157    2.199991
H     21.084832    7.156712    0.447083
10

C     19.494678    8.210057    0.881391
H     18.463680    8.474565    0.814862
C     20.298229    9.486779    0.509488
H     21.149995    9.233904    0.007281
C     20.070200   10.573015    1.259401
H     19.085260   10.989821    1.443057
H     20.997054   11.065955    1.493421
C     20.080979    6.954199    1.361235
H     21.058742    7.233178    1.809034
H     20.720897    6.741089    0.265264
10

C     19.683488    8.086864    0.773519
H     18.855984    8.464988    0.221757
C     20.492008    9.653308    0.591414
H     21.376403    9.428862    0.147363
C     20.080103   10.622553    1.302600
H     19.324660   10.599188    2.149853
H     20.465871   11.532403    0.925591
C     19.916587    6.818787    1.123762
H     20.350192    6.889445    2.145424
H     20.874419    6.866163    0.463148
10

C     19.815940    8.306411    1.301859
H     18.905913    8.572266    1.775901
C     20.502273    9.417465    0.852998
H     21.426102    9.402084    0.586311
C     20.053824   10.727106    0.989218
H     19.048253   10.730125    1.412284
H     20.443106   11.584616    0.553741
C     20.287841    7.105048    0.925332
H     19.933210    6.129571    1.324337
H     21.003253    6.987867    0.122453
10

C     19.791998    8.231470    1.232441
H     18.876617    8.523471    1.902263
C     20.547807    9.577767    1.103456
H     21.560900    9.162777    0.602905
C     20.009172   10.955015    1.278297
H     18.854750   11.007514    1.253571
H     20.449260   11.417679    0.331375
C     20.312246    7.058813    0.856083
H     20.144538    6.122935    1.377444
H     20.872427    6.905121   -0.093402
10

C     19.808287    8.199750    1.098131
H     18.950580    8.200559    1.664849
C     20.502917    9.649812    1.061126
H     21.569673    9.304429    0.885045
C     20.047939   10.890518    1.089371
H     19.156450   11.322463    1.639287
H     20.243193   11.424334    0.212193
C     20.192602    6.978984    0.713942
H     20.146345    6.300857    1.551783
H     20.801729    6.690856   -0.071293
10

C     19.832450    8.120571    1.203625
H     18.982105    8.622859    1.781189
C     20.512164    9.566476    0.922411
H     21.627870    9.444426    0.792034
C     20.011771   10.815668    0.838840
H     19.080416   11.144312    0.444758
H     20.460292   11.528098    1.442368
C     20.276148    6.892229    0.971847
H     21.078686    6.421139    1.158722
H     19.557814    6.406783    0.288638
10

C     19.743048    8.108794    1.120825
H     19.135534    8.612858    1.872933
C     20.483291    9.633443    0.921418
H     21.582679    9.347533    0.915076
C     19.983205   10.807967    0.890551
H     18.970314   11.111145    0.525494
H     20.581672   11.707201    1.269596
C     20.258787    6.930481    0.866386
H     21.080523    6.217979    1.403486
H     19.600663    6.485160    0.058666
10

C     19.867020    8.346058    1.189557
H     19.011948    8.441489    1.965558
C     20.515799    9.536090    0.907793
H     21.573594    9.473159    0.616118
C     19.982555   10.768343    1.065068
H     18.920103   10.803867    1.074416
H     20.579641   11.574361    0.828065
C     20.432068    7.108080    0.842207
H     20.003632    6.426641    1.446757
H     20.533355    6.484474   -0.091105
10

C     19.840550    8.230520    0.987270
H     18.775063    8.505460    1.392517
C     20.462271    9.580878    1.136312
H     21.537258    9.391161    0.856099
C     20.023120   10.750137    1.159272
H     19.241253   11.188527    1.765513
H     20.317435   11.324023    0.230744
C     20.294232    7.034964    0.811555
H     20.400547    6.377531    1.738187
H     20.527986    6.579362   -0.233037
10

C     19.682868    8.319021    0.582106
H     19.250948    8.705589    1.789029
C     20.410131    9.404740    1.090080
H     21.415022    9.175458    1.093807
C     19.892473   10.662822    1.038970
H     19.040115   11.039360    1.510582
H     20.500482   11.344768    0.464547
C     20.256252    7.085301    0.691438
H     20.519626    6.539933    1.804530
H     20.451799    6.685570   -0.220656
10

C     19.641454    8.238393    0.987462
H     18.368084    8.293555    1.380514
C     20.503935    9.425006    0.790502
H     21.513912    9.132789    0.504238
C     20.044610   10.677922    0.957747
H     19.153249   10.721298    1.573455
H     20.682922   11.591065    0.960853
C     20.068566    6.794317    0.974618
H     20.741000    7.367984    1.621631
H     20.701983    6.720234    0.093413
10

C     19.696330    8.273361    1.226547
H     18.736844    8.543362    1.542600
C     20.508188    9.414460    1.051833
H     21.638832    9.430112    0.792492
C     20.047247   10.744837    1.034178
H     18.996761   10.889357    1.202041
H     20.637760   11.522620    0.724140
C     20.296250    7.099927    0.859196
H     20.823577    6.531393    1.499114
H     20.037925    6.513132   -0.087708
10

C     20.005814    8.395580    0.272440
H     18.889737    6.484103    0.939630
C     20.623725    9.633631    0.963157
H     21.684147    9.777192    0.901433
C     19.978468   10.800757    1.019694
H     18.911907   10.504257    1.296088
H     20.338413   11.729902    1.305563
C     19.693771    7.198965    1.067504
H     20.272418    6.825292    1.937774
H     21.021316    7.612883    0.141150
10

C     20.063641    8.452074    0.514032
H     18.969504    6.583345    0.768662
C     20.719766    9.639376    0.765700
H     21.779925    9.736549    0.726091
C     19.848567   10.560620    1.269742
H     18.827454   10.755477    0.987685
H     20.302397   11.534801    1.430240
C     19.692437    7.280511    1.188806
H     20.255914    6.747709    1.880672
H     20.960110    7.672100    0.312802
10

C     19.700580    8.225912    1.332267
H     18.684985    8.269462    1.079779
C     20.364071    9.463712    0.954878
H     21.490360    9.321129    0.778771
C     19.993984   10.788666    0.883821
H     19.223727   11.113250    1.622949
H     20.583605   11.521253    0.492821
C     19.970137    6.658914    1.110908
H     21.036130    6.379358    1.387898
H     20.372135    7.220905    0.200342
10

C     20.302508    8.367444    0.427234
H     18.793801    6.777057    0.834400
C     20.786528    9.771408    0.584816
H     21.812648   10.038927    0.646415
C     19.987677   10.707970    1.024008
H     18.896595   10.515822    0.953062
H     20.367702   11.412012    1.744926
C     19.588096    7.360893    1.287795
H     20.140922    6.874449    2.027310
H     20.743239    7.136579    0.314465
10

C     19.661911    8.138903    0.999378
H     18.890643    8.403997    1.817852
C     20.434556    9.575428    0.928086
H     21.389505    9.273357    0.653392
C     19.902894   10.804059    1.122006
H     19.015072   11.277862    0.800025
H     20.793392   11.511771    1.164792
C     20.204826    6.923079    0.865314
H     20.948772    6.695789    1.594642
H     20.178145    6.358315   -0.101054
10

C     19.886254    8.154005    0.885881
H     18.693332    8.376395    0.809111
C     20.478658    9.501214    0.813292
H     21.299093    9.672664    0.314761
C     20.031711   10.687099    1.137112
H     19.037667   10.947762    1.685641
H     20.805141   11.475799    1.065628
C     20.773210    7.083175    1.031957
H     20.183194    6.817985    1.874972
H     20.231455    6.246464    0.226078
10

C     19.839504    8.295056    1.197864
H     18.808893    8.356965    1.623900
C     20.488896    9.432266    0.754172
H     21.458836    9.419115    0.416236
C     19.991943   10.706363    0.985203
H     19.076173   10.928091    1.553060
H     20.459138   11.642179    0.640552
C     20.295796    7.032950    1.003465
H     19.739357    6.214786    1.207005
H     21.261179    6.934792    0.462975
10

C     19.820677    8.217833    1.273662
H     18.799399    8.499017    1.679358
C     20.487341    9.465599    0.848916
H     21.462765    9.343866    0.431199
C     19.991108   10.769103    1.040897
H     19.022850   11.002617    1.446803
H     20.456670   11.696984    0.599627
C     20.337428    6.985595    0.980816
H     19.887918    6.092575    1.236333
H     21.153560    6.889372    0.306821
10

C     19.765333    8.294476    1.049842
H     18.914327    8.343097    1.750601
C     20.524449    9.539465    0.949791
H     21.510583    9.518407    0.890510
C     20.031078   10.815055    1.040636
H     18.994898   10.973479    1.159939
H     20.658010   11.716927    0.689233
C     20.296944    6.950712    0.860906
H     20.620158    6.236910    1.616185
H     20.103936    6.574034   -0.163208
10

C     19.778997    8.308176    1.043482
H     19.011091    8.539642    1.794694
C     20.520534    9.504375    0.876034
H     21.686591    9.344288    0.689608
C     19.997937   10.803413    0.983180
H     18.856830   10.981988    0.919155
H     20.590271   11.607152    1.174730
C     20.172303    7.033954    0.800168
H     20.664901    6.507724    1.623735
H     20.140261    6.331849   -0.060353
10

C     19.798784    8.326663    1.074460
H     19.128752    8.591608    1.885473
C     20.515226    9.507299    0.796160
H     21.661603    9.449435    0.606011
C     19.970757   10.710018    0.949918
H     18.839625   10.902561    0.972508
H     20.553929   11.511639    1.160924
C     20.193489    6.942856    0.853529
H     20.394528    6.368343    1.736836
H     20.363022    6.652139   -0.191387
10

C     19.727449    8.303942    1.270248
H     19.006605    8.433112    2.063475
C     20.391360    9.546452    0.886109
H     21.463077    9.320105    0.621394
C     19.933085   10.764710    0.864382
H     18.942216   11.040132    0.943289
H     20.696462   11.624034    0.995812
C     20.381838    7.094813    0.879420
H     20.336422    6.141330    1.467386
H     20.541200    6.693932   -0.147083
10

C     20.220919    8.162112    0.647923
H     19.418071    8.503726   -0.103035
C     20.849515    9.403931    1.034660
H     20.605469    9.967322   -0.015916
C     20.138149   10.625517    1.384306
H     19.226881   10.914538    0.870320
H     20.599325   11.443186    1.902353
C     20.242144    6.984485    1.097568
H     20.774579    6.695409    1.946428
H     19.344662    6.262335    1.079824
10

C     19.786678    8.282101    1.043794
H     19.006775    8.562989    1.779898
C     20.538252    9.547877    0.856569
H     21.709831    9.460541    0.682741
C     19.978068   10.774846    0.955908
H     18.903700   10.833207    1.369143
H     20.492949   11.625068    0.788764
C     20.305269    6.943581    0.828691
H     20.123795    6.356125    1.659676
H     20.574398    6.576227   -0.120751
10

C     19.837981    8.337611    1.201567
H     18.991976    8.433155    1.681696
C     20.441527    9.542753    0.774003
H     21.545362    9.270594    0.440153
C     19.936571   10.785864    1.001948
H     18.827530   10.877410    1.550105
H     20.585419   11.676734    0.646766
C     20.340090    7.083099    0.882035
H     19.685828    6.148999    1.368632
H     21.227430    6.806342    0.297527
10

C     19.755294    8.228259    1.020595
H     18.890109    8.453138    1.521657
C     20.442889    9.504502    0.902370
H     21.507682    9.441255    0.726546
C     20.123044   10.781761    1.136156
H     18.960410   11.156299    1.524293
H     20.519216   11.619136    0.580410
C     20.326528    7.031340    0.799746
H     20.354687    6.225170    1.828099
H     20.539857    6.521701   -0.195438
10

C     19.654885    8.303823    0.922221
H     18.515611    8.413976    1.369078
C     20.460938    9.469690    0.906922
H     21.449252    9.366951    0.505346
C     20.025113   10.738084    1.017490
H     19.186494   11.062862    1.337006
H     20.688997   11.675947    1.057899
C     20.260331    7.004674    0.960432
H     20.790550    6.618126    1.636173
H     20.387545    6.308428    0.131866
10

C     19.714049    8.367720    0.943982
H     18.514999    8.499693    1.197084
C     20.538136    9.535675    0.715260
H     21.587882    9.397481    0.624353
C     20.041651   10.702747    1.099089
H     19.159570   11.031193    1.424219
H     20.558154   11.740635    0.950704
C     20.254839    7.055672    0.956117
H     20.863209    6.066632    1.893758
H     20.187226    6.565114    0.039866
10

C     20.051351    8.251068    0.723616
H     18.994977    8.887517    0.724388
C     20.694892    9.581763    0.887458
H     21.711030    9.542748    0.391956
C     19.962073   10.633322    1.111165
H     19.136736   10.457678    1.574556
H     20.254966   11.680125    1.243141
C     20.601317    6.985436    0.749475
H     19.982299    6.871267    1.915001
H     20.030075    6.071637    0.523678
10

C     19.854780    8.269509    0.879805
H     18.675743    8.591557    0.992159
C     20.519269    9.545389    0.952580
H     21.452368    9.564947    0.416048
C     19.983882   10.776581    1.166452
H     19.133389   10.671475    1.608014
H     20.699564   11.655498    0.896771
C     20.249436    7.076763    0.819783
H     20.476230    6.409344    2.061958
H     20.375055    6.401499    0.050864
10

C     19.621784    8.224003    0.988212
H     18.881805    8.667690    1.649959
C     20.418794    9.362968    0.848329
H     21.428918    9.390203    0.724868
C     20.015522   10.588140    1.260444
H     18.973685   10.893803    1.201086
H     20.743760   11.291572    0.811056
C     19.851633    6.893681    0.713764
H     20.798802    7.093290    1.527406
H     20.685013    6.557212    0.119309
10

C     19.908059    8.270351    1.273093
H     19.308487    8.416849    2.189028
C     20.512006    9.509623    0.930386
H     21.543580    9.659734    0.725261
C     19.946582   10.758303    0.996666
H     18.921556   10.861701    1.005186
H     20.521173   11.607922    0.693242
C     20.189528    6.903192    0.860035
H     19.940822    6.192701    1.493372
H     20.627922    6.782185   -0.321837
10

C     19.961150    8.257255    1.331728
H     19.378104    8.238103    2.241901
C     20.514865    9.515829    0.873685
H     21.610586    9.291046    0.660692
C     19.930866   10.871991    0.888022
H     18.728884   10.937209    0.883528
H     20.528010   11.814827    0.879160
C     20.301293    7.034036    0.909115
H     19.876938    6.197816    1.368613
H     20.589019    6.804449   -0.192011
10

C     19.714272    8.185095    1.147057
H     18.729032    8.889701    1.278127
C     20.560781    9.407980    0.817516
H     21.680389    9.324264    0.632831
C     19.980585   10.570270    1.133820
H     18.968274   10.679513    1.405488
H     20.559511   11.533000    0.754707
C     19.970410    6.820358    1.177962
H     20.932227    6.609706    1.498331
H     20.324232    6.942675   -0.001406
10

C     19.705567    8.171282    1.126918
H     18.755522    8.892486    1.258231
C     20.568850    9.410845    0.806238
H     21.655759    9.293236    0.644014
C     19.983570   10.551943    1.122787
H     18.949412   10.716581    1.432653
H     20.549274   11.507494    0.737729
C     19.987963    6.836476    1.207810
H     20.931552    6.569861    1.488731
H     20.332246    7.012357    0.019321
10

C     19.695682    8.180167    1.095034
H     18.801956    8.839286    1.173828
C     20.590869    9.421107    0.806524
H     21.617613    9.264629    0.666762
C     20.001438   10.546472    1.108039
H     18.944485   10.781021    1.460692
H     20.529866   11.458664    0.744177
C     20.008397    6.871077    1.234434
H     20.972671    6.556695    1.503352
H     20.256738    7.043444    0.051591
10

C     19.965227    8.406483    1.447176
H     18.929499    8.528187    1.658026
C     20.682704    9.578767    0.962409
H     21.758494    9.521651    0.604370
C     19.990714   10.723717    0.973148
H     18.792619   10.567721    0.745651
H     20.645809   11.619238    1.123403
C     20.274985    7.082686    0.889003
H     20.619652    6.289657    1.491887
H     19.760012    6.644454   -0.050640
10

C     20.013149    8.254979    1.092884
H     19.055495    8.349404    1.675705
C     20.718231    9.571088    0.959705
H     21.753876    9.649003    1.197338
C     19.937994   10.656155    1.010298
H     19.012027   10.583892    1.194634
H     20.458725   11.579227    0.418884
C     20.557599    7.138880    0.792404
H     20.298593    6.260877    1.447562
H     19.614027    6.919056    0.055018
10

C     19.582532    8.178875    1.199364
H     18.976276    8.675784    1.901744
C     20.516330    9.377098    0.810265
H     21.702343    9.352320    0.879427
C     19.981678   10.600826    0.966386
H     18.902735   10.517882    1.057915
H     20.692410   11.576095    0.828631
C     19.897209    6.741944    1.050720
H     20.888151    7.045321    1.269841
H     20.280053    6.896416   -0.119861
10

C     19.641551    8.269134    0.920104
H     18.693329    8.721478    1.321209
C     20.602610    9.290150    0.717390
H     21.645556    9.271704    0.227061
C     20.082877   10.476900    1.090141
H     19.007374   10.586810    1.269762
H     20.514434   11.600443    1.405119
C     19.985888    6.800994    1.095903
H     20.635493    7.440903    1.636686
H     20.610603    6.504046    0.161057
10

C     19.700732    8.109206    1.298653
H     18.786273    8.022569    1.962916
C     20.447202    9.357348    1.267378
H     21.351682    8.974606    0.766918
C     19.984334   10.683018    0.821814
H     19.063643   11.072892    1.001479
H     20.712448   11.539551    0.751807
C     20.045817    6.976389    0.692988
H     20.906990    7.129596    1.528487
H     20.420595    7.097387   -0.248009
10

C     19.720360    8.289002    1.079838
H     18.803778    8.474125    1.564650
C     20.455028    9.488692    0.661120
H     21.604805    9.398958    0.357391
C     19.931671   10.727308    0.958196
H     19.092317   10.805352    1.531890
H     20.489890   11.666733    0.855935
C     20.289540    7.037689    0.943517
H     19.847434    6.143749    1.460087
H     21.184891    6.930953    0.431809
10

C     19.913973    8.245179    1.503092
H     19.180279    8.576634    2.280756
C     20.768594    9.549433    0.969424
H     21.712167    9.329829    1.358755
C     19.932820   10.599959    0.758546
H     18.927213   10.370964    0.780983
H     20.484835   11.446886    0.511181
C     19.679956    6.908064    0.985378
H     20.953846    6.721895    0.912467
H     19.866033    7.213718   -0.216150
10

C     19.881261    8.253768    1.528727
H     19.170571    8.509949    2.242239
C     20.707158    9.546944    0.951262
H     21.708818    9.389422    1.345636
C     19.925713   10.601208    0.768676
H     18.964596   10.285497    0.787483
H     20.571846   11.486631    0.490199
C     19.658205    6.943426    1.007197
H     20.955925    6.707548    0.866302
H     19.875624    7.238167   -0.143287
10

C     19.753234    8.274504    1.062318
H     18.571000    8.340668    0.869381
C     20.501175    9.506046    0.919314
H     21.673709    9.372241    0.764258
C     20.075641   10.808081    0.987221
H     18.941313   11.006847    1.317141
H     20.797012   11.625854    0.980688
C     20.239610    7.028462    1.162140
H     21.242634    6.807072    1.030922
H     19.624388    6.192786    0.751050
10

C     19.598834    8.267034    0.901107
H     18.634046    8.699807    1.388688
C     20.602435    9.312143    0.853807
H     21.688561    9.265782    0.640252
C     20.084979   10.506670    1.046530
H     19.084985   10.487021    1.500062
H     20.480424   11.371911    0.823275
C     19.885567    6.914558    1.017919
H     20.836224    7.174151    1.572953
H     20.523661    6.963485    0.099839
10

C     19.750979    8.260170    1.076490
H     18.742431    8.644692    0.649263
C     20.497697    9.447715    0.846793
H     21.429254    9.499355    0.428592
C     20.038954   10.708508    1.121083
H     19.148709   10.853264    1.838343
H     20.583753   11.551526    0.855168
C     20.283467    6.940683    1.000476
H     20.628249    6.530707    2.040705
H     20.316223    6.525941   -0.012479
10

C     19.778419    8.376741    0.993219
H     18.715953    8.453085    0.969850
C     20.575921    9.584112    0.851119
H     21.609877    9.382766    0.388039
C     20.041866   10.807019    1.184290
H     19.056427   10.759979    1.419320
H     20.604200   11.765333    1.078527
C     20.220112    6.970817    1.013568
H     20.663306    6.580450    1.837072
H     20.153634    6.282261    0.109429
10

C     19.937211    8.310377    0.898405
H     18.934499    8.158434    1.187329
C     20.660064    9.568875    0.877753
H     21.728140    9.709629    0.441812
C     19.862125   10.713725    1.064352
H     18.855521   10.915605    1.285189
H     20.697214   11.511116    1.074362
C     20.749801    7.044045    0.975598
H     20.063700    6.479282    1.670057
H     19.931441    6.551473    0.369576
10

C     20.031453    8.338294    1.150808
H     19.014753    8.048515    1.334705
C     20.705823    9.622992    0.926241
H     21.853230    9.439877    0.903916
C     19.976590   10.727849    1.021009
H     18.992149   10.885074    1.311589
H     20.319188   11.813810    0.628857
C     20.735321    6.984457    0.876102
H     20.133653    6.390548    1.523768
H     19.657553    6.711147    0.167438
10

C     19.666178    8.148283    1.100409
H     18.891724    8.582365    1.839491
C     20.509262    9.496943    1.101903
H     21.532911    9.311573    0.643568
C     19.915698   10.739137    0.967383
H     18.916546   10.971716    1.147213
H     20.744559   11.645734    0.902574
C     19.928703    6.882943    0.652686
H     20.681632    6.831712    1.578584
H     20.632502    6.352156   -0.089378
10

C     19.842407    8.385843    1.203308
H     20.118505    7.910352    0.272451
C     20.388447    9.654347    1.042701
H     21.666032    9.659531    1.034256
C     19.927164   10.913525    0.948473
H     18.854896   11.262473    1.452311
H     20.643909   11.581985    0.720935
C     19.838558    6.965497    1.284399
H     20.966169    6.349689    1.061388
H     19.173629    6.279320    0.824211
10

C     19.860838    8.284929    1.326918
H     18.752210    8.754764    1.725569
C     20.663377    9.310133    0.971941
H     21.618880    8.790477    0.677228
C     20.008500   10.536554    1.050998
H     18.958475   10.642700    0.890217
H     20.327655   11.663303    0.833537
C     20.047144    6.941284    1.170022
H     21.010525    6.616320    1.275785
H     20.172111    7.422098   -0.077782
10

C     19.783991    8.288943    1.308460
H     18.784392    8.591855    1.427632
C     20.651779    9.473786    0.892148
H     21.645087    9.645069    0.690776
C     20.051219   10.579090    0.818041
H     19.051746   10.643610    1.326338
H     20.527359   11.391522    0.787316
C     19.897725    6.843003    1.266678
H     20.874509    6.321668    1.458390
H     20.151909    7.184017   -0.131346
