6

C     -0.125463    1.404092    0.405653
H     -1.180342    2.069359    0.791098
H     -0.189833    1.817979   -0.701711
C     -1.541852    0.106471    0.391454
H     -2.508014    0.256642   -0.151321
H     -1.984947    0.012686    1.315138
6

C     -1.503573    0.290583    0.023942
H     -2.393970    0.248823    0.073727
H     -1.601717    0.022136    1.251961
C     -0.963626    1.322478    0.223506
H     -1.078465    2.289012    0.740304
H      0.010901    1.494195   -0.263129
6

C     -1.562953    0.188381   -0.123509
H     -2.952406    0.071445    0.216623
H     -1.293636    0.259865    1.038286
C     -0.611898    1.567942    0.268521
H     -1.411113    2.227976    0.780675
H      0.301556    1.351620   -0.130285
6

C     -1.633910    0.189375   -0.026027
H     -1.297952    0.236504    1.311002
H     -2.696861    0.171152   -0.042337
C     -2.191970   -1.676227   -0.550869
H     -2.844658   -2.283520    0.233897
H     -3.067313   -2.001518   -1.153269
6

C     -0.705423    1.185347   -0.013538
H     -1.393683   -0.829448   -0.459471
H      0.264909    1.675692   -0.147851
C     -1.782232    0.433544    0.108766
H     -2.632965    0.018326    0.097094
H     -1.504961    0.139563    1.192300
6

C     -0.612394    1.308237    0.484116
H     -1.455953    2.043458    0.728729
H      0.382347    1.499776    1.038172
C     -1.658280    0.274211    0.136359
H     -2.735727    0.239773   -0.021040
H      0.323934    1.570598   -0.460592
6

C     -0.903214    1.362872    0.111722
H     -1.393157    2.140764    0.786447
H      0.244240    1.430883   -0.114127
C     -1.552704    0.112927   -0.202776
H     -0.097319   -1.199322   -1.479973
H     -2.533585    0.388829    0.286306
6

C     -0.893647    1.290948    0.081884
H     -1.352867    2.144572    0.770627
H      0.290014    1.513684   -0.082831
C     -1.607065    0.153240   -0.191370
H      0.264249   -0.844144   -1.510529
H     -2.574855    0.333832    0.289263
6

C     -1.116830    1.513744    0.258783
H      0.097519    1.052040   -0.042890
H     -1.222025    2.267764    0.869095
C     -1.949280    0.374472    0.531298
H     -2.589595    0.032328   -0.349651
H     -0.750239    0.426879    0.783676
6

C     -1.507199    0.136197    0.076617
H     -0.733945   -0.864187   -0.554675
H     -1.566253    0.320086    1.190829
C     -1.190679    1.497408    0.020383
H     -0.877375    2.169506    0.951755
H     -2.528491    0.063238    0.001458
6

C     -1.601981    0.233717    0.198909
H     -0.808938   -0.580493   -0.110484
H     -1.386547    0.053554    1.268284
C     -1.141163    1.566618    0.171634
H     -0.973081    2.156894    0.709441
H     -2.567225    0.175653   -0.107227
6

C     -0.776686    1.563511    0.064626
H     -0.983515    2.281758    0.820314
H      0.232275    1.445256   -0.024116
C     -1.768239    0.444145   -0.087998
H     -2.842256   -0.298394    0.094747
H     -0.641017    2.418771   -1.017921
6

C     -0.723915    1.068097    0.120261
H     -2.222842   -0.841563    0.204654
H      0.143388    1.868385   -0.394488
C     -1.496161    0.056720    0.237996
H     -2.635650    0.402780   -0.051796
H     -1.648334    0.056491    1.324798
6

C     -1.797740    0.334333    0.195338
H     -0.219500    0.957534    1.594606
H     -2.806996   -0.239204   -0.235341
C     -0.712898    1.311531    0.328976
H     -0.878237    2.445975    0.850414
H      0.057451    1.583642   -0.271815
6

C     -1.722878    0.453684   -0.103297
H      0.179798    1.675608    0.028160
H     -2.844972   -0.084753    0.174490
C     -0.708978    1.282350    0.133758
H      0.030228    0.937809    0.887214
H     -1.041390    2.109387    0.634462
6

C     -1.887599    0.429900    0.121040
H     -1.171119    2.134649    0.895498
H     -2.557176   -0.166560   -0.040465
C     -0.830602    1.759890    0.154710
H     -1.111875    2.514220   -0.974474
H      0.308076    1.278396   -0.263211
6

C     -1.449977    0.274354    0.008936
H     -1.342288    2.009138    0.618912
H     -2.812373    0.303359    0.076178
C     -0.726788    1.248324    0.475932
H      0.193006    1.601100   -0.312386
H      0.287340    0.668805    1.780713
6

C     -1.833329    0.279060    0.086693
H      0.320307    1.160426    1.406277
H     -3.153779   -0.185959   -0.039779
C     -0.363489    1.377010    0.445967
H     -1.076409    2.112308    0.601924
H      0.288585    1.853857   -0.227232
6

C     -0.762858    1.256570    0.144298
H     -2.677616    0.077091   -0.072140
H      0.120421    1.532980   -0.209933
C     -1.685159    0.387430    0.148073
H     -1.355461    0.198402    1.226474
H     -0.771595   -0.581141   -0.011804
6

C     -1.528752    0.125750   -0.216189
H      0.232266   -0.642196   -1.192183
H     -2.642741    0.340378    0.313278
C     -0.845233    1.420328    0.076696
H     -1.438849    2.128167    0.806788
H      0.317155    1.421653   -0.112999
6

C     -1.545638    0.189733   -0.034972
H     -1.145989   -2.134647    0.884215
H     -2.801702    0.134393    0.045967
C     -0.781058    1.337129    0.347150
H     -1.168528    2.227459    0.736626
H      0.158507    1.547562   -0.227199
6

C     -1.593093    0.191710   -0.136591
H      0.062419   -1.347051   -1.189740
H     -2.578885    0.177756    0.108484
C     -0.826968    1.417585    0.318860
H     -1.268173    2.297785    0.816747
H      0.128698    1.351439   -0.239928
6

C     -0.723264    1.292749    0.143398
H      0.278109    1.521459   -0.099392
H     -1.368976    2.228253    0.776616
C     -1.622269    0.158884   -0.243843
H     -2.056298    1.833639   -1.478609
H     -2.702021    0.234930    0.290793
6

C     -1.556750    0.192185    0.023037
H     -1.443204    0.228678    1.137002
H     -2.628769    0.176168    0.082599
C     -1.303934   -1.716547    0.637685
H     -2.494150   -1.900640    0.676995
H     -0.631529   -1.794193    1.636309
6

C     -1.161760    1.449613    0.332121
H     -0.168411    1.377554   -0.388677
H     -0.933478    2.248659    0.940993
C     -1.382421   -0.082874    0.149269
H     -2.360618    0.341167   -0.183362
H     -1.523762    0.333109    1.199968
6

C     -0.930814    1.497601    0.391290
H     -1.097205    2.460520    0.895223
H      0.018741    1.332303   -0.451278
C     -1.333378    0.124230    0.064377
H     -1.454579    0.091085    1.336410
H     -2.733215    0.161489   -0.185710
6

C     -0.750491    1.342692    0.159833
H     -1.425379    2.059497    0.736164
H      0.325947    1.423235   -0.057258
C     -1.774773    0.396237   -0.015602
H     -1.282949    0.308340    0.972776
H     -2.622805    0.137227    0.254399
6

C     -0.886768    1.341012    0.242088
H     -1.271984    2.320941    0.818869
H      0.321074    1.477694   -0.188050
C     -1.620695    0.118155   -0.197691
H      0.097607   -0.704065   -1.449120
H     -2.680047    0.178474    0.192357
6

C     -1.569123    0.182156   -0.085923
H     -2.665912    0.235506    0.187141
H     -0.555094   -2.094386    0.613686
C     -0.920028    1.408334    0.103820
H      0.343987    1.453947   -0.168883
H     -1.327344    2.156333    0.831418
6

C     -1.607774    0.193106    0.080076
H     -2.602879    0.175621    0.051096
H     -1.418070    0.228304    1.111466
C    -25.557591   -4.012463   14.680802
H    -24.797756   -3.303018   14.557515
H    -26.228336   -4.697032   15.036881
6

C     -1.579354    0.190430   -0.021346
H     -2.614952    0.176345    0.080887
H     -1.434416    0.230257    1.183097
C     15.507307  -13.907599  -21.515984
H     15.448099  -13.993020  -20.416012
H     15.406781  -14.000055  -22.494196
6

C     -1.564133    0.189827   -0.048909
H     -2.663712    0.174719    0.054715
H     -1.400877    0.232485    1.236832
C     -6.663602   32.318815    8.612464
H     -7.437387   32.536457    7.925232
H     -5.879435   32.354832    9.277159
6

C     -0.843590    1.345898    0.155669
H      0.177251    1.448301   -0.226399
H     -1.235389    2.275998    0.878403
C     28.081352   -3.546318  -19.492180
H     28.089387   -4.469437  -19.041347
H     27.903072   -2.576149  -19.774833
6

C     -0.792694    1.463937    0.203735
H      0.187152    1.383204   -0.269380
H     -1.296185    2.223055    0.873318
C    -10.763371    3.545883   36.768080
H    -10.139717    4.058637   36.157190
H    -11.554259    3.220233   37.401110
6

C     -1.595767    0.193465    0.085170
H     -2.624466    0.174973    0.041808
H     -1.408489    0.228594    1.115660
C    -27.761638  -16.441139   35.050126
H    -28.197145  -15.631084   34.659292
H    -27.100339  -17.219884   35.320489
6

C     -0.840271    1.377184    0.172823
H      0.065381    1.501755   -0.146094
H     -1.126837    2.191257    0.780944
C     46.511342   -8.047271   -0.535705
H     45.867536   -7.848757    0.221046
H     47.278401   -8.430519   -1.166402
6

C     -0.810100    1.391117    0.168012
H      0.157705    1.427469   -0.230299
H     -1.249332    2.251611    0.869960
C    -50.984352   -5.910215    4.806158
H    -50.146270   -5.524828    5.177664
H    -51.715597   -6.516149    4.342558
6

C     -1.607157    0.190020   -0.019619
H     -1.412303    0.231209    1.201880
H     -2.609263    0.175803    0.060377
C    -37.099085  -22.529945  -39.844185
H    -37.123970  -22.644140  -38.849897
H    -36.835340  -22.312460  -40.841674
6

C     -0.819349    1.342564    0.143171
H     -1.165096    2.241133    0.827184
H      0.082718    1.486500   -0.162682
C     46.809371   28.706304  -23.191311
H     45.800932   28.573653  -23.184689
H     47.803960   29.071785  -23.286093
6

C     -1.521113    0.190357   -0.054919
H     -1.508548    0.227813    1.144208
H     -2.599062    0.178861    0.153349
C     -2.117147    2.126569    2.146869
H     -2.482160    2.662012    1.069612
H     -2.070435    1.722532    3.274594
6

C     -1.633342    0.191515    0.042571
H     -1.361925    0.231820    1.194527
H     -2.633455    0.173696    0.005540
C     58.177873   -2.669936   17.233603
H     57.746298   -2.123166   16.510524
H     58.435488   -3.396566   17.941245
6

C     -0.824005    1.439271    0.202662
H      0.159810    1.424241   -0.233130
H     -1.237532    2.206685    0.838141
C     -4.160934    3.066593   -1.213778
H     -4.519600    2.069114   -0.919819
H     -3.873233    4.116280   -1.242462
6

C     -1.599459    0.191251    0.015877
H     -2.617428    0.175496    0.054869
H     -1.411835    0.230285    1.171892
C      7.337495    2.692101    1.050402
H      6.329799    2.741654    0.999489
H      8.336261    2.428863    1.236819
6

C     -0.853520    1.320818    0.145074
H      0.174362    1.462007   -0.217000
H     -1.222569    2.287372    0.879600
C      4.216562   -5.439693   10.941914
H      4.114740   -4.588367   11.467698
H      4.456349   -6.195337   10.209385
6

C     -1.549231    0.191762    0.005379
H     -2.641380    0.175897    0.080634
H     -1.438112    0.229373    1.156626
C      2.537625   -4.800492   13.978573
H      1.552989   -4.945185   14.066048
H      3.590727   -4.900473   13.819423
6

C     -0.848852    1.405204    0.193197
H     -1.278316    2.253838    0.883859
H      0.225440    1.411154   -0.269383
C      1.067852  -17.344608   -5.155914
H      1.371056  -16.394969   -4.992367
H      0.757968  -18.335828   -5.073390
6

C     -1.544053    0.191793    0.003595
H     -1.435709    0.229526    1.160274
H     -2.648960    0.175712    0.078770
C     21.892104    1.993904    4.508302
H     22.054766    1.359179    3.762911
H     21.486837    2.570269    5.345908
6

C     -1.606551    0.192743    0.067712
H     -2.606587    0.175545    0.050657
H     -1.415584    0.228743    1.124269
C      8.666200   -1.715588   24.629502
H      7.654300   -1.546732   24.605574
H      9.624486   -2.122147   24.676706
6

C     -0.818712    1.387074    0.224624
H      0.155063    1.460907   -0.135708
H     -1.232651    2.238728    0.769053
C     -1.581738    0.148496   -0.163718
H     -2.660382    0.201072    0.173322
H      0.074111   -1.343005   -1.133039
6

C     -1.087547    1.726142    0.231749
H     -0.359696    1.076886   -0.216601
H     -0.547114    2.243758    1.060222
C     -2.091633    0.553411   -0.120809
H     -1.761513   -0.479538   -0.099244
H     -1.682948    0.546570    1.194994
6

C     -0.853035    1.299681    0.470248
H     -0.992242    2.353819    0.839678
H     -0.806448    0.793726    1.606703
C     -1.787916    0.254456    0.289392
H     -2.666649   -0.048288   -0.291403
H      0.161422    1.576608   -0.440342
6

C     -0.604286    1.349134    0.400662
H     -1.182807    2.234038    0.765079
H      0.283413    0.778684    0.976342
C     -1.848469    0.525242    0.059726
H     -2.664535   -0.143586   -0.051186
H      0.161676    1.471448   -0.306708
6

C     -0.866919    1.369494    0.257393
H     -1.086318    2.371196    0.811886
H      0.126404    1.463730   -0.157263
C     -1.625584    0.174881   -0.116191
H     -0.109177   -1.849895    0.341809
H     -2.686003    0.056975    0.071748
6

C     -0.716735    1.440411    0.143099
H      0.269809    1.558847   -0.237769
H     -1.273204    2.288817    0.671651
C     -1.687707    0.361459    0.245238
H     -0.076176   -0.933717   -0.387415
H     -1.462278   -0.156501    1.192071
6

C     -1.010201    1.587865    0.000784
H      0.257772    1.365899   -0.120639
H     -0.828852    2.148850   -1.019438
C     -1.793245    0.391805    0.084229
H     -0.956396    2.310771    0.940145
H     -2.636350   -0.220064   -0.036946
6

C     -0.722196    1.278013    0.186829
H      0.150074    1.711786   -0.438690
H     -2.715804    0.310258    0.022820
C     -1.350349    0.021835    0.085079
H     -1.145898    2.499776    0.825779
H     -1.746277   -0.154441    1.368495
6

C     -1.640869    0.145946   -0.075264
H     -2.713830    0.136796    0.110709
H      0.012869   -1.720286   -0.406226
C     -0.773142    1.403141    0.185645
H      0.172146    1.519118   -0.138224
H     -1.182725    2.231275    0.784707
6

C     -1.528819    0.121685   -0.158966
H     -2.905168   -0.034508    0.108392
H      0.456192   -1.027056   -0.094718
C     -0.895392    1.439156    0.157724
H      0.232094    1.478283   -0.101730
H     -1.041135    2.431660    0.862152
6

C     -1.616132    0.067953   -0.066232
H     -2.889439   -0.033234    0.036877
H      0.285647   -1.167027   -0.062953
C     -0.891842    1.425699    0.176841
H      0.192526    1.596399   -0.086739
H     -0.933534    2.379458    0.806826
6

C     -0.678551    1.395869   -0.043762
H     -1.321137    2.113034    0.572924
H      0.259132    1.640302    0.195415
C     -1.691321    0.120720   -0.208204
H     -2.773538    0.304348    0.429907
H     -1.325035    0.092954    1.104031
6

C     -0.817915    1.396332   -0.023027
H     -1.224226    2.001748    0.718499
H      0.344068    1.598292    0.124864
C     -1.819109    0.201600   -0.056938
H     -2.810646    0.107344    0.216975
H     -1.202622    0.361911    1.069938
6

C     -1.749454    0.418269    0.195541
H     -0.262980    0.590947    0.822980
H     -2.883904   -0.176082   -0.164638
C     -0.613635    1.317256    0.353514
H     -1.071454    2.283715    0.805139
H      0.180028    1.593119   -0.321984
6

C     -1.772598    0.385348    0.069482
H      0.086162    1.344225   -0.107215
H     -2.635229   -0.236721   -0.071554
C     -0.884100    1.510379    0.003246
H     -0.932655    2.433045    0.973615
H     -0.631836    2.499682   -0.751542
6

C     -1.335983    0.179484    0.121122
H     -0.002781    1.295244   -0.409991
H     -1.607622   -0.102093    1.094420
C     -0.698959    1.592033    0.426399
H     -1.224770    2.528366    0.782341
H     -2.538527    1.286074   -0.393620
6

C     -0.770065    1.158415    0.082696
H     -2.334318    0.620547    0.113821
H     -1.246286    1.891670    0.755983
C     -1.563684   -0.068741    0.222663
H     -1.787080    0.136016    1.263970
H      0.170983    1.929320   -0.388821
6

C     -1.656183    0.236248   -0.122927
H     -2.805482    0.000721    0.149224
H      0.351670   -0.954279   -1.763182
C     -0.839790    1.427914    0.162537
H      0.287978    1.530938   -0.097095
H     -1.124942    2.240456    0.775833
6

C     -1.639546    0.346753   -0.032179
H      0.117534    0.716875    1.309856
H     -2.694548    0.112449    0.104469
C     -0.826075    1.280256    0.242817
H      0.319778    1.500866   -0.245040
H     -1.298028    2.195952    0.797505
6

C     -1.630433    0.415589   -0.065875
H     -1.299870    2.371800   -1.148978
H     -2.607711   -0.067465    0.082599
C     -1.002900    1.517565    0.105115
H     -1.039335    2.243505    0.830534
H      0.141959    1.327083   -0.084801
6

C     -1.595303    0.167030   -0.055081
H     -2.533442    0.240162   -0.000566
H     -1.554516   -0.114719    1.492035
C     -0.840673    1.211518    0.460918
H     -1.125146    2.317688    0.720145
H     -0.043855    1.499878   -0.257844
6

C     -1.576682    0.218189   -0.101043
H     -2.545063    0.237953    0.049650
H     -1.421827   -0.179431    1.621663
C     -0.830808    1.225794    0.470481
H     -1.167134    2.275415    0.693949
H     -0.018733    1.478926   -0.245464
6

C     -0.736615    1.342795    0.134349
H      0.082701    1.604908   -0.333276
H     -2.694992    0.240642   -0.212625
C     -1.620326    0.204563    0.222267
H     -1.391440    0.059565    1.426056
H     -0.948718   -0.267119   -0.832796
6

C     -1.524366    0.022237   -0.012864
H      0.078193   -1.207580    0.059520
H     -1.111526    2.367018    0.774839
C     -0.830039    1.333614    0.481703
H     -2.629920    0.246206   -0.063457
H     -0.042568    1.467201   -0.312649
6

C     -1.692851    0.334197   -0.156385
H     -1.405840    0.169850    0.878593
H     -2.680485    0.082530    0.413309
C     -0.734249    1.356540    0.308503
H      0.257498    1.492510    0.024970
H     -1.274523    2.231600    0.581322
6

C     -1.647474    0.461976    0.279929
H     -1.499734   -0.107621    1.095279
H     -0.865308   -1.406901   -0.181328
C     -0.637619    1.331686    0.411421
H      0.223200    1.593083   -0.341617
H     -1.308488    2.213909    0.569279
6

C     -1.621436    0.328164   -0.252379
H     -2.581831    0.042328    0.260916
H     -1.053402    1.608185   -1.923484
C     -0.901058    1.466306    0.004172
H     -1.148019    2.266738    0.819773
H      0.113924    1.332740    0.035090
6

C     -1.888935    0.338089    0.181248
H     -2.730609   -0.342514   -0.208435
H      0.226478    1.488027   -0.233652
C     -0.958063    1.590584    0.266652
H     -1.969350    2.341043   -0.673010
H     -0.787292    2.362090    0.861760
6

C     -1.720960    0.226712   -0.224782
H     -0.616782   -0.191599   -2.310671
H     -2.614311    0.057714    0.195193
C     -0.865941    1.409625    0.240227
H     -1.144284    2.280928    0.750872
H      0.207076    1.461297   -0.093937
6

C     -1.676709   -0.083411    0.056382
H     -1.336703    0.304215    1.115139
H     -2.776159    0.350282    0.175102
C     -0.849523    1.429685   -0.035348
H      0.363269    1.707879   -0.020857
H     -1.254624    1.958577    0.759893
6

C     -1.739889    0.462271   -0.034656
H     -2.683484   -0.026798    0.037359
H     -1.354298    0.121259    1.227982
C     -0.800037    1.345857    0.297751
H     -1.134478    2.278699    0.690955
H      0.181737    1.485940   -0.169079
6

C     -1.784703    0.426950    0.175538
H     -0.710139    0.376160   -0.381494
H     -1.345536   -0.007378    1.180386
C     -0.688760    1.333842    0.260504
H      0.241088    1.599902   -0.188128
H     -1.292204    2.139718    0.585990
6

C     -0.822350    1.249776    0.319296
H      0.251939    1.573257   -0.257111
H     -1.333621    2.082828    0.707464
C     -1.600929    0.221603   -0.014656
H     -2.633459    0.308811    0.112579
H     -0.688419    0.610950    2.070745
6

C     -0.738415    1.262827    0.547367
H     -1.060970    2.220314    0.646797
H      0.282265    1.258884    1.398859
C     -1.673884    0.494177    0.010216
H     -2.561694    0.004373   -0.065925
H     -0.103457    1.454585   -0.270882
6

C     -1.033437    1.444464    0.191562
H      0.110507    1.539947   -0.236828
H     -1.277262    1.666222   -1.019934
C     -1.766460    0.309140    0.318855
H     -2.624774   -0.106739   -0.253622
H     -0.824256    2.249463    0.847605
6

C     -0.781428    1.286653    0.049729
H      0.236382    1.652600   -0.216321
H     -1.206988    2.068626    0.825885
C     -1.661681    0.239297    0.262386
H     -0.140102    0.239344    0.391049
H     -2.724704    0.189101   -0.054107
6

C     -1.343416    0.043530    0.171974
H     -2.523529   -0.005899   -0.312913
H     -1.560165    0.424505    1.213065
C     -1.182103    1.608544    0.364002
H     -0.351695    1.365590   -0.320847
H     -0.569543    2.230957    0.935030
6

C     -1.519460    0.402754   -0.078767
H     -2.463018    0.245812    0.055320
H      0.167698    1.209916   -0.465524
C     -0.836941    1.306673    0.515031
H     -1.486700    2.271120    0.841512
H      0.276045    1.349954    1.671574
6

C     -1.215630    0.060163    0.247204
H      0.212056   -0.285707   -0.137665
H     -1.404422    0.093701    1.287318
C     -1.382549    1.418528   -0.047992
H     -1.072844    2.099595    0.828658
H     -2.594552    0.514447   -0.074147
6

C     -0.731779    1.714900    0.042458
H     -1.485571    2.652200   -1.037816
H     -1.199849    2.071840    0.811086
C     -1.935047    0.538273   -0.066697
H     -2.675923   -0.253338    0.164899
H      0.404178    1.364600   -0.084174
6

C     -1.641831    0.138843    0.194029
H     -2.667216   -0.061920   -0.141217
H     -1.440548   -0.803072   -0.580248
C     -1.121933    1.607780    0.176129
H     -0.797563    2.324232    0.846681
H     -1.441455    0.177499    1.165419
6

C     -0.528114    1.147504    0.322134
H      0.184594    1.782969   -0.175752
H     -1.337198    2.110895    0.635214
C     -1.658996    0.047100   -0.077563
H     -1.703474    1.242871   -1.177266
H     -2.798705    0.347809    0.163540
6

C     -1.809371    0.132153   -0.235963
H     -1.254728    0.030749    0.905090
H     -2.655889    0.287488    0.558559
C     -0.726466    1.419318   -0.037284
H      0.280793    1.519864    0.325560
H     -1.364791    2.277656    0.534349
6

C     -1.718900    0.335400    0.098659
H     -1.098212    0.379173    1.273580
H     -2.644726    0.039956   -0.245243
C     -0.933742    1.380419    0.144626
H      0.129612    1.192617   -0.266061
H     -1.264482    2.339662    1.044750
6

C     -1.438847   -0.092561    0.312557
H     -2.316458    0.770878   -0.058872
H     -1.763814   -0.172778    1.479291
C     -0.745493    1.246512    0.073020
H     -1.333297    2.108290    0.774794
H      0.067458    1.806887   -0.530479
6

C     -1.587516    0.495877    0.333166
H     -1.388297   -0.048812    1.247443
H     -2.666337    0.376376   -0.063343
C     -0.499432    1.491072    0.456295
H      0.123805    1.522379   -0.413885
H     -1.512672    1.830336    0.490636
6

C     -0.842600    1.362049    0.161842
H     -1.373437    2.177764    0.718790
H      0.276301    1.441705   -0.032575
C     -1.598190    0.177606   -0.386826
H     -2.888753    0.921902   -1.219811
H     -2.600495    0.277150    0.406342
6

C     -0.943543    1.417082    0.186561
H      0.111918    1.453755   -0.185830
H     -0.893731    2.297357    0.844052
C     -1.770143    0.481511    0.162525
H     -0.748095    0.186694    1.317215
H     -2.642922   -0.213429   -0.139736
6

C     -0.735539    1.272243    0.185218
H      0.151643    1.582808   -0.060782
H     -1.320970    2.316425   -0.980756
C     -1.733408    0.354395   -0.118281
H     -1.162186    2.156475    0.689377
H     -2.658930    0.070355    0.172041
6

C     -1.654388    0.439150    0.168238
H     -1.050019   -0.220994    0.860220
H     -2.871430    0.429124    0.194764
C     -0.665785    1.461226    0.866461
H      0.033617    1.610091    0.076122
H     -1.322444    1.948631   -0.115494
6

C     -1.127536    1.613599    0.129280
H     -0.823318    2.373256    0.850545
H     -1.470040   -1.369831   -0.287447
C     -1.689034    0.093946    0.211331
H     -1.362089    0.106200    1.267929
H     -2.668019   -0.000567   -0.218044
6

C     -2.003816    0.537808   -0.167380
H     -2.034369   -0.437270    0.048195
H     -1.650023    0.550624    1.009754
C     -0.841855    1.459248    0.395074
H     -0.802973    2.384101    1.020624
H     -0.197414    1.172718   -0.255957
6

C     -1.740893    0.184624    0.013556
H     -1.848409   -0.895655   -0.732891
H     -2.818774    0.137341   -0.102582
C     -0.510785    1.071311    0.181677
H     -1.346447    0.295267    1.366964
H      0.056227    1.763929   -0.222844
6

C     -0.894888    1.657411   -0.128278
H     -1.178125    2.234882    0.930106
H     -0.780257    1.709249   -1.735675
C     -1.726366    0.496060   -0.159542
H      0.319194    1.238434    0.000831
H     -2.658235   -0.190511    0.224455
6

C     -0.537038    1.449890    0.544775
H     -0.049310    1.329878   -0.497371
H     -0.324281    1.789949    1.673478
C     -1.594372    0.367295    0.213191
H     -1.258193    2.262936    0.836083
H     -2.699507    0.026278   -0.229106
6

C     -0.370668    1.500985    0.561994
H      0.148656    1.734619   -0.505130
H     -1.423672    1.872086    0.484709
C     -1.585018    0.195151    0.160179
H     -1.674781   -0.045491    1.260790
H     -2.624967    0.409878    0.087770
6

C     -1.321386    1.788738    0.246168
H     -0.453689    2.250555    0.784215
H     -0.399590    1.211513   -0.104435
C     -1.662721    0.368609    0.242574
H     -2.296703   -0.169915   -0.351024
H     -1.396362    0.217728    1.232813
6

C     -1.766315    0.233996    0.357523
H     -2.692447   -0.062107   -0.246497
H     -0.970673   -1.156408   -1.245745
C     -0.930918    1.558450    0.172750
H      0.192345    1.535043   -0.284320
H     -0.941085    2.170894    0.868116
6

C     -1.629112   -0.202527    0.176163
H     -1.493790   -0.440639    1.267347
H     -2.300863    0.766792    0.085237
C     -1.046677    1.340704    0.245195
H     -1.258527    2.521427    0.534627
H      0.198519    1.681471   -0.258258
6

C     -0.787511    1.303330    0.509810
H     -0.110620    1.501644   -0.430851
H     -1.097769    2.225552    0.836208
C     -1.502851    0.033302    0.110238
H     -2.618361    0.257345   -0.207916
H     -1.413338    0.346054    1.232822
6

C     -0.841176    1.415484    0.215439
H      0.176804    1.486172   -0.318400
H     -1.204650    2.359845    0.824862
C     -1.456767    0.143514    0.003377
H     -2.602967    0.226644    0.114552
H     -1.601694    0.035569    1.210481
6

C     -0.815051    1.367145    0.196781
H     -1.461231    2.038017    0.751814
H      0.214057    1.429308   -0.200590
C     -1.492914    0.185312   -0.103269
H      0.378488   -1.208338    0.486558
H     -2.583280    0.416494    0.222836
6

C     -0.803349    1.476897    0.443715
H      0.044759    1.246450   -0.295989
H     -1.186138    2.510817    0.772695
C     -1.480629    0.362953   -0.143876
H     -1.541068    0.045115    1.120640
H     -2.564024    0.024996    0.153125
6

C     -0.651292    1.074947    0.252919
H     -1.245216    2.132605    0.748336
H      0.194902    1.730354   -0.281366
C     -1.652154    0.322165    0.200736
H     -2.784660    0.176205   -0.053052
H      0.441988    0.370807    1.482079
6

C     -0.859254    1.300465    0.281043
H     -0.166772    1.478313   -0.380201
H     -1.169316    2.540944    0.754263
C     -1.378625    0.013871    0.288796
H     -2.296496    0.536256   -0.014518
H     -1.659987   -0.202621    1.120929
6

C     -0.821828    1.312572    0.092707
H      0.109066    1.479656   -0.140773
H     -1.299223    2.169651    0.815033
C     -1.586164    0.133714   -0.034674
H     -2.540271    0.340683    0.135280
H     -1.471018    0.153368    1.623409
6

C     -0.899063    1.348032    0.320637
H     -1.100538    2.244223    0.697914
H      0.159866    1.553397   -0.129995
C     -1.576392    0.132057   -0.156433
H      0.274940   -0.701900   -1.276682
H     -2.722293    0.158566    0.135451
6

C     -0.824888    1.389773    0.233386
H     -1.155193    2.319175    0.784323
H      0.038909    1.397958   -0.108577
C     -1.610181    0.194515   -0.189929
H      0.245480   -0.590609   -1.553730
H     -2.587067    0.134855    0.148368
6

C     -1.169308    1.480780    0.320309
H      0.034196    1.223579   -0.108871
H     -0.904760    2.412890    0.815219
C     -1.994932    0.419968    0.394391
H     -2.549428   -0.141367   -0.416524
H     -0.946218    0.271377    1.045787
6

C     -1.916294    0.636846    0.083556
H     -1.108531    0.316646    1.148647
H     -2.317177   -0.343814   -0.184701
C     -1.218337    1.910081   -0.015380
H     -0.765219    2.249175    0.889924
H     -0.204893    0.898295    0.128265
6

C     -1.111416    1.256924    0.046761
H     -0.926016    2.197237    0.811294
H      0.209929    1.692063   -0.127755
C     -1.646638    0.142400    0.051528
H     -1.388889    0.230248    1.329717
H     -2.667421    0.148356   -0.061233
6

C     -1.771815    0.266263    0.010352
H     -0.466612    2.049216   -1.289342
H     -2.819807   -0.182846   -0.012919
C     -0.847122    1.417261    0.146355
H      0.276150    1.546016   -0.145771
H     -0.975826    2.389582    0.869556
6

C     -1.700748    0.315130   -0.067843
H     -0.492056    0.990392    2.022233
H     -2.764493   -0.090103    0.033772
C     -0.874055    1.371219    0.327449
H     -0.930507    2.260339    0.684086
H      0.131383    1.579691   -0.109892
6

C     -1.096617    1.483103    0.160064
H      0.164504    1.440305   -0.175869
H     -0.869194    2.215659    1.008624
C     -1.692613    0.100756    0.136063
H     -1.247416    0.545275    1.145009
H     -2.789112   -0.117871   -0.223580
6

C     -0.710436    1.379709    0.234887
H      0.176512    1.642781   -0.203264
H     -1.232557    2.148613    0.566959
C     -1.505136    0.323957   -0.080921
H     -1.787679   -0.096126    1.134618
H     -2.471152    0.268294    0.398033
6

C     -0.665313    1.262177    0.340243
H      0.092300    1.692379   -0.229903
H     -1.197278    2.256087    0.557719
C     -1.475993    0.244077   -0.020069
H     -1.819340   -0.086178    1.016756
H     -2.464826    0.298687    0.385566
6

C     -1.370122    0.372415    0.160980
H     -2.552859    0.141026   -0.201046
H     -1.204299   -0.086533    1.267481
C     -1.097865    1.802161    0.118423
H     -1.082924    2.512786    0.841965
H     -0.222381    0.925372   -0.137491
6

C     -1.718551    0.170131   -0.223443
H     -2.706966    0.162786    0.358867
H     -1.258370    0.179193    1.065365
C     -0.801325    1.561454   -0.003097
H     -1.271667    2.187838    0.678915
H      0.226429    1.405825    0.173705
6

C     -1.778345    0.283313    0.216926
H     -2.943348   -0.185420   -0.271109
H     -1.056549    0.563859    1.039987
C     -0.824481    1.395237    0.261859
H     -1.114530    2.270448    0.999188
H      0.186802    1.339792   -0.196539
6

C     -0.729968    1.142110    0.130830
H     -1.517362    1.951360    0.668411
H      0.260110    1.671493   -0.128102
C     -1.560349    0.093253   -0.104436
H     -2.590850    0.578061    0.300870
H     -0.428151    0.271284    1.881593
6

C     -0.743828    1.095085    0.226075
H     -1.428965    1.994376    0.652376
H      0.241947    1.731343   -0.181572
C     -1.614338    0.085395   -0.035546
H     -2.593237    0.530076    0.206241
H     -0.607195    0.725020    2.139893
6

C     -0.741186    1.430020   -0.105785
H     -1.376139    2.422865    0.617184
H      0.253383    1.445461    0.352228
C     -1.870046    0.051610   -0.180272
H     -1.272468    0.016018    0.778641
H     -2.523995    0.301254    0.588314
6

C     -0.671400    1.439036   -0.070490
H     -1.492657    2.367200    0.607488
H      0.292309    1.367994    0.384051
C     -1.854332    0.137474   -0.179538
H     -1.065222    0.094532    0.786405
H     -2.739148    0.260992    0.522395
6

C     -1.582103    0.107628   -0.068922
H     -2.693185    0.309525    0.190567
H     -1.363268    0.335927    1.198287
C     -0.806671    1.336611   -0.056650
H     -1.282174    1.999639    0.817052
H      0.196951    1.577898   -0.030023
6

C     -0.876534    1.367231    0.182642
H      0.169584    1.468878   -0.210844
H     -1.194777    2.234087    0.835875
C     -2.560600    0.980446    1.130388
H     -1.953336    1.128996    2.068735
H     -2.687809    1.912914    0.725396
6

C      0.027506    0.687030    1.813958
H      0.335315    0.542439    2.832534
H      0.464904    1.562441    1.528118
C     -0.866594    1.341496    0.163035
H     -1.142319    2.225359    0.807928
H      0.107186    1.503341   -0.163290
6

C     -1.611231    0.067850   -0.199379
H     -2.621824    0.299442    0.252192
H     -0.217401   -1.321332   -1.219526
C     -0.843617    1.370141    0.140220
H      0.191524    1.532721   -0.058886
H     -1.253273    2.166123    0.733425
6

C     -1.563212    0.191827    0.014972
H     -2.658794    0.174677    0.050720
H     -1.406717    0.230527    1.176947
C     -1.313763   -1.918608    0.093273
H     -1.460253   -1.573423    1.078004
H     -2.198635   -2.155502   -0.377238
6

C     -0.453539    1.574090    0.594384
H      0.172692    1.552195   -0.324402
H     -1.547288    1.827146    0.292324
C     -1.555565    0.468425    0.283020
H     -2.706781    0.413641    0.145525
H     -1.439969   -0.168269    1.059460
6

C     -1.175122    0.084684    0.235200
H     -1.870931   -0.149711    1.224920
H     -2.577487    0.293473    0.039322
C     -0.842860    1.429973    0.059564
H     -1.022088    2.442777    0.877705
H     -0.041964    1.566031   -0.386400
6

C     -1.590835    0.141115   -0.226206
H     -0.507722   -1.491188   -1.698230
H     -2.629243    0.275071    0.284382
C     -0.797854    1.367268    0.100008
H     -1.312542    2.174048    0.761072
H      0.192055    1.478775   -0.051684
6

C     -1.775610    0.387192   -0.105424
H     -2.718331    0.089825    0.288618
H      0.463216    1.553367   -0.069154
C     -0.713989    1.408680   -0.005829
H     -1.393705    1.997210    0.759362
H     -1.010994    2.104970   -0.762667
6

C     -1.922398    0.187352    0.408250
H     -2.789516    0.160693   -0.410880
H     -0.816453    0.196740    1.044775
C     -0.770764    1.453241    0.517248
H     -1.208026    2.338376    0.645947
H     -0.023293    1.330826   -0.155029
6

C     -1.729797    0.260893    0.081008
H     -2.779896    0.102836   -0.038856
H     -1.247314    2.124469    0.668651
C     -0.547110    1.312287    0.498791
H      0.165696    1.635791   -0.342021
H      0.000284    1.183345    1.486154
6

C     -1.670858    0.002669    0.065335
H     -2.679129    0.222296   -0.074806
H     -1.644200   -0.845797    0.744278
C     -0.911756    1.323603    0.227859
H     -1.182299    2.154345    0.906045
H     -1.225955    0.483522    1.116609
6

C     -0.706732    1.341024    0.487655
H     -1.204159    2.216980    0.744745
H     -0.141441    0.881405    1.095191
C     -1.792502    0.482942    0.053125
H     -2.808593   -0.146506   -0.040267
H      0.373566    1.541837   -0.377686
6

C     -1.601101    0.004850    0.131476
H     -2.676621    0.172865   -0.131082
H     -0.800381   -0.682260    0.369701
C     -1.088624    1.444440    0.175937
H     -1.006753    2.234913    0.887194
H     -1.296898    0.329367    1.177517
6

C     -2.313281    0.472566    0.231226
H     -1.381878    0.194625    1.252291
H     -2.036495   -0.376546   -0.335315
C     -0.891106    1.780016    0.149442
H     -0.094255    1.137008   -0.263608
H     -0.813436    2.459558    1.016275
6

C     -0.657296    1.280711    0.286914
H     -0.192872    1.749139   -0.515473
H     -1.169072    2.318520    0.701654
C     -1.422123   -0.137089    0.219118
H     -1.829858   -0.225758    1.407997
H     -2.259228    0.681705   -0.049898
6

C     -1.616752    0.189546   -0.029723
H     -1.361220    0.233766    1.256793
H     -2.650750    0.173720    0.015568
C     -1.237188    2.259388   -0.547434
H     -2.089409    2.191556    0.360193
H     -0.097138    2.314373   -0.597266
6

C     -1.615659    0.190261   -0.007281
H     -1.359186    0.233261    1.239442
H     -2.653878    0.173509    0.010477
C     -1.559667    2.320670   -0.571938
H     -1.186683    2.939206    0.357577
H     -2.445270    2.932873   -1.129483
6

C     -0.710623    1.119809    0.097332
H     -0.242494    1.083583    0.994162
H     -0.932875    2.361262    0.759107
C     -1.862829    0.284975   -0.008639
H      0.141554    1.770331   -0.017820
H     -2.773647   -0.100101    0.037593
6

C     -0.876601    1.243161    0.008964
H      0.225397    1.508023   -0.005252
H     -1.096822    2.201672    0.927280
C     -1.791864    0.301613    0.175865
H     -2.930004   -0.077945   -0.144886
H     -1.060557    0.490704    1.088340
6

C     -0.863189    1.261435   -0.014840
H     -1.223487    2.082526    0.837179
H      0.038626    1.705530   -0.384498
C     -1.381436    0.017792    0.179265
H     -1.693703    0.005401    1.443049
H     -2.407261    0.594545   -0.009843
6

C     -1.023103    1.537451    0.107773
H     -1.044504    2.298059    0.932664
H      0.099234    1.107524   -0.010674
C     -2.013617    0.594476    0.347369
H     -0.945289    0.413788    0.951817
H     -2.603171   -0.284071   -0.278638
6

C     -1.691136    0.235121   -0.348942
H     -2.506347    0.179785    0.362764
H     -1.608884   -0.226015   -2.500622
C     -0.918161    1.425171    0.103075
H      0.223913    1.409065    0.019578
H     -1.246689    2.187133    0.731098
6

C     -1.553857    0.333713   -0.174188
H     -2.749808    0.023822    0.074923
H     -1.376940    2.298972   -0.950915
C     -0.745844    1.331203    0.516767
H      0.119742    1.398704   -0.289140
H     -1.208653    2.348834    0.739210
6

C     -1.640072    0.485041   -0.153203
H     -2.561367   -0.007900    0.101514
H     -1.401660    2.416065   -0.570975
C     -0.838398    1.318097    0.348287
H      0.053673    1.348508   -0.178759
H     -1.152255    2.292530    0.749733
6

C     -0.607908    1.269450    0.188936
H      0.334085    1.705115   -0.335215
H     -2.274320    1.925684    0.767091
C     -1.683539    0.414416    0.172211
H     -1.621722    0.132052    1.158689
H     -2.781589   -0.068561    0.052151
6

C     -1.719033    0.307863    0.039628
H     -2.659321    0.010696   -0.093633
H     -0.944798    2.246855    0.626538
C     -0.799704    1.252661    0.539271
H     -0.015564    1.618202   -0.244231
H     -0.349999    1.370317    1.812234
6

C     -1.786491    0.297686    0.055035
H     -2.824402   -0.077557   -0.070952
H      0.330100    1.545408   -0.414824
C     -0.602877    1.299210    0.452692
H     -1.254749    2.371528    0.845621
H      0.241867    0.837355    1.246593
6

C     -1.702038    0.252540    0.337734
H     -2.500051   -0.025983   -0.270353
H     -1.722593    1.318417   -0.587476
C     -1.016218    1.597870    0.106008
H     -0.927088    2.279411    0.966481
H      0.006975    1.332437   -0.272297
6

C     -0.944056    1.356636    0.230048
H      0.158347    1.549945   -0.322689
H     -0.938455    2.293753    0.889115
C     -1.724695    0.309706    0.339926
H     -0.238807    0.563322    0.619228
H     -2.689560   -0.073764   -0.268827
6

C     -0.552392    1.429387    0.337169
H     -1.115236    2.071909    0.654644
H     -0.449933    1.197757    1.377551
C     -1.971971    0.213187    0.098175
H      0.467150    1.840567   -0.224917
H     -2.965971   -0.118773    0.002502
6

C     -0.722181    1.631555    0.090612
H     -1.083282    2.247114    0.811077
H      0.386821    1.418162   -0.041208
C     -1.925130    0.505753   -0.168682
H     -1.342292    2.620122   -0.253916
H     -2.794648   -0.366309    0.175773
6

C     -0.744426    1.552304   -0.038035
H     -0.330918    2.073353   -1.311791
H     -1.023656    2.217736    0.815282
C     -1.856692    0.317854   -0.066293
H      0.231300    1.518955    0.026780
H     -2.744946   -0.170574    0.129839
6

C     -0.628138    1.226819    0.029149
H     -1.070076    1.843168    0.935947
H      0.154049    1.895885   -0.390345
C     -1.499296    0.110378    0.182818
H     -1.826654    0.416784    1.256722
H     -2.376667    2.170458   -0.107395
6

C     -0.674473    1.348310    0.351218
H     -0.098775    1.283451   -0.435500
H     -1.171092    2.426474    0.970055
C     -1.677577    0.380749    0.243459
H     -2.516503   -0.002708   -0.261661
H      0.415306    0.456383    0.652406
6

C     -0.580084    1.383709    0.365527
H      0.201990    1.458857   -0.199793
H     -1.141505    2.221951    0.716845
C     -1.852398    0.670407   -0.067566
H     -2.766423   -0.298649    0.052560
H      0.136770    0.016452    0.788018
6

C     -0.840468    1.590425    0.251885
H     -0.969721    1.991074   -0.744433
H     -1.021134    2.209678    0.864234
C     -1.745287    0.383813    0.236392
H     -2.741600   -0.172450   -0.180074
H      0.210069    1.424810   -0.304864
6

C     -1.625080    0.438544    0.057602
H      0.159558    1.669502   -0.278905
H     -3.011044   -0.102371   -0.045877
C     -0.487691    1.099896    0.375486
H     -1.174162    2.330704    0.759266
H      0.316227    1.164865    1.090183
6

C     -1.666924    0.330153    0.292048
H     -1.747868    1.965787   -0.135524
H     -2.562791    0.024928   -0.253107
C     -0.882706    1.346273    0.297461
H     -1.040256    2.309329    0.895249
H      0.014258    1.425593   -0.364079
6

C     -1.587200    0.473175    0.046498
H      0.364315    1.230826   -0.339656
H     -2.743345   -0.186015   -0.049879
C     -1.011303    1.537387    0.223147
H     -0.978623    2.556944   -0.632487
H     -1.160887    2.380903    0.987462
6

C     -1.644110    0.023709    0.169342
H     -2.766896    0.202993    0.088535
H     -1.393363   -1.205655    0.614645
C     -0.501709    1.165360    0.116376
H     -1.689664    0.139698    1.170473
H      0.241707    1.920713   -0.307954
6

C     -0.787650    1.456044    0.009298
H     -1.082414    2.394545    0.315515
H      0.318402    1.763700    0.226155
C     -1.734086    0.330147   -0.197045
H     -2.445518    0.176890    0.747414
H     -1.799185   -0.454098    0.948974
6

C     -0.789495    1.440607   -0.040669
H     -1.187519    2.444293    0.456517
H      0.389845    1.679308    0.207185
C     -1.714020    0.249584   -0.206705
H     -2.491177    0.183304    0.752483
H     -1.738084   -0.329868    0.881500
6

C     -0.901840    1.438224    0.130417
H     -1.347777    2.114265    1.056521
H      0.115980    1.230050   -0.339755
C     -1.613315    0.221623    0.029140
H     -2.611204    0.205626   -0.215027
H     -1.172294    0.457439    1.389016
6

C     -0.810875    1.542750    0.278635
H     -1.125369    1.411964   -1.536530
H     -0.025485    1.181883   -0.249946
C     -1.762033    0.608006    0.176294
H     -2.546254   -0.070897   -0.216682
H     -1.216024    0.190731    1.248471
6

C     -2.010130    0.548747   -0.259714
H     -1.737125    0.547367    0.853333
H     -1.899013   -0.262477    0.393462
C     -1.003532    1.384605    0.268894
H     -0.963303    2.179915    0.922031
H      0.082653    1.269071   -0.127695
6

C     -0.743899    1.614659   -0.081981
H     -1.280269    2.480625    0.469900
H      0.163856    1.492585    0.357560
C     -1.752546   -0.060332   -0.201370
H     -1.307173   -0.261107    0.966380
H     -2.610420    0.400798    0.539823
6

C     -1.569102    0.190877   -0.012447
H     -2.600980    0.177221    0.101595
H     -1.458641    0.228933    1.153490
C     -0.718514   -1.257692   -1.153346
H     -0.974429   -1.904426   -0.259733
H     -1.708531   -1.626309   -1.539976
6

C     -0.438545    1.493957    0.501178
H     -1.525814    1.924371    0.494093
H      0.103585    1.521968   -0.476912
C     -1.541690    0.473261    0.280461
H     -2.551112    0.388972    0.055466
H     -1.576874   -0.135301    1.196025
6

C     -1.488543    0.049237   -0.011977
H     -1.831409   -0.120343    1.543071
H     -2.631081    0.402769    0.134786
C     -0.884450    1.321854    0.082051
H      0.216599    1.492593   -0.189220
H     -1.350945    2.169821    0.851934
6

C     -1.701583    0.363980    0.074146
H     -2.743581    0.185783    0.077732
H      0.024456    0.939571    1.540367
C     -0.634744    1.159731    0.268862
H      0.218550    1.723399   -0.196087
H     -1.277062    2.003384    0.642920
6

C     -0.830152    1.453539    0.154615
H     -1.290658    2.256973    0.822927
H      0.193926    1.348871   -0.117627
C     -1.559257    0.228450   -0.220531
H     -0.077515   -1.139059   -1.805626
H     -2.652278    0.148443    0.228188
6

C     -0.859625    1.231791    0.189575
H      0.239959    1.611708   -0.077775
H     -1.290932    2.178544    0.702745
C     -1.551149    0.045803   -0.229864
H     -2.676672    0.368431    0.282891
H      0.239012   -0.579082   -1.149254
6

C     -0.908293    1.386367    0.183622
H     -1.121731    2.375300    0.850436
H      0.218187    1.481285   -0.147533
C     -1.666574    0.093529   -0.122416
H      0.271735   -1.046666   -0.490040
H     -2.660009    0.099795    0.103462
6

C     -0.070699    0.864579    2.335544
H      0.851037    1.531508    2.606762
H     -0.434590   -0.144065    1.679589
C     -0.847914    1.351719    0.161005
H     -1.167126    2.232886    0.823164
H      0.113313    1.485591   -0.176497
6

C     -1.603009    0.073685    0.157901
H     -2.624792    0.187032   -0.139438
H     -1.342447    0.233195    1.181487
C     -1.009049    1.298102    0.204027
H     -1.031937    2.366836    0.879704
H      0.080784    1.508378   -0.233370
6

C     -1.056870    1.452608    0.564278
H     -1.047565    2.485289    0.485644
H     -1.470707   -1.153238   -0.367376
C     -1.539302    0.168158    0.062544
H     -2.740731    0.230593   -0.020443
H     -1.285529   -0.150213    1.149019
6

C     -1.563612    0.273348   -0.153243
H     -2.552087    0.114808    0.129172
H      0.239071   -1.317353   -1.576060
C     -0.904073    1.490879    0.223542
H      0.160297    1.232881   -0.220740
H     -1.278945    2.324360    0.888842
6

C     -0.784625    1.390383   -0.031631
H     -1.179455    1.936635    0.903913
H      0.095071    1.709038   -0.403252
C     -1.413832    0.041954    0.160464
H     -2.220027    0.434668    0.250484
H     -2.027581    0.154550    1.170333
6

C     -1.956222    0.301426   -0.235626
H     -2.599339    0.171250    0.680960
H     -1.139076   -0.002139    0.650103
C     -0.762181    1.422811    0.059955
H     -1.428268    2.395116    0.447238
H      0.354634    1.378765    0.447680
6

C     -1.643588    0.314657    0.132781
H     -2.727194    0.147782   -0.051369
H     -0.069572    1.095845    1.412842
C     -0.693932    1.285481    0.412662
H     -1.365913    2.170633    0.803894
H      0.292208    1.517722   -0.430396
6

C     -1.685096    0.434657   -0.155486
H     -2.577924   -0.081035    0.186535
H     -1.206810    2.328704   -1.277979
C     -0.912349    1.449551   -0.086522
H      0.112360    1.329573    0.043856
H     -1.075410    2.303530    0.879190
6

C     -1.763296    0.494215   -0.069742
H     -2.696209   -0.106548    0.164170
H     -1.061172    2.076996   -1.234961
C     -0.939763    1.411636    0.063675
H      0.434529    1.469815   -0.105737
H     -1.173681    2.167158    0.815206
6

C     -1.809804    0.531493   -0.024510
H     -2.691112   -0.101803    0.143803
H     -0.983823    2.015588   -1.221208
C     -0.936170    1.407266    0.137928
H      0.508340    1.508017   -0.165109
H     -1.209674    2.091305    0.775460
6

C     -0.459300    1.302108    0.008772
H      0.347971    1.852013   -0.204969
H     -1.587181    0.118423    1.286301
C     -1.823355    0.177877    0.039399
H     -1.694275   -0.959003   -0.965578
H     -2.838806    0.002052    0.107267
6

C     -1.448759    0.321077    0.029459
H     -2.750291   -0.159770    0.329265
H     -1.824988   -0.028642    0.950443
C     -0.835006    1.526517    0.102809
H     -0.964699    2.456539    0.795303
H      0.293293    1.551507   -0.156968
6

C     -0.373279   -0.377760    1.331993
H     -0.333232   -1.502866    1.793074
H     -1.226638    2.263653    0.867270
C     -0.856315    1.354195    0.166122
H     -1.809351    0.713385   -0.233311
H      0.181226    1.452348   -0.225718
6

C     -1.537104    0.240328   -0.189208
H      0.184151    0.086606   -2.008869
H     -2.613381    0.138647    0.161730
C     -0.842402    1.422478    0.210452
H     -1.200830    2.295615    0.805124
H      0.055297    1.339208   -0.120525
6

C     -1.564893    0.232240   -0.166562
H     -2.613653    0.146157    0.136875
H      0.478616   -0.101486   -1.761116
C     -0.933571    1.333601    0.282124
H      0.149242    1.414685   -0.169477
H     -1.175546    2.309593    0.784613
6

C     -1.537564   -0.045996    0.184497
H     -1.438716   -0.276854    1.280409
H     -2.143826    0.879176    0.026349
C     -0.962605    1.295680    0.337635
H     -0.129184    1.556209   -0.263503
H     -1.318555    2.259013    0.484924
6

C     -1.386529    0.266900    0.191689
H     -2.018118   -0.038650    1.019573
H     -2.487667    0.160357    0.348158
C     -0.822205    1.486864    0.014584
H      0.253345    1.707814   -0.276700
H     -1.069277    2.083943    0.753008
6

C     -1.387494    0.254151    0.153934
H     -2.038813   -0.090908    1.041850
H     -2.487694    0.124992    0.368759
C     -0.805395    1.482938   -0.078200
H      0.267440    1.669822   -0.264172
H     -1.078494    2.226233    0.828139
6

C     -1.566582    0.172269   -0.214911
H     -2.612494    0.245099    0.234302
H      0.260448   -0.432045   -1.576151
C     -0.800360    1.334735    0.155398
H      0.073672    1.466134   -0.050376
H     -1.232656    2.218040    0.743159
6

C     -1.622484    0.192968   -0.186203
H     -2.568625    0.234978    0.235719
H      0.150006   -0.356480   -1.593807
C     -0.851263    1.401454    0.138546
H      0.166418    1.444508   -0.075042
H     -1.262467    2.162368    0.754552
6

C     -1.617794    0.159143   -0.223138
H     -2.559407    0.273046    0.267319
H     -0.278442   -1.051362   -1.859687
C     -0.876483    1.327235    0.123958
H      0.105528    1.522953    0.003297
H     -1.190264    2.153899    0.696137
6

C     -1.593143    0.138392   -0.188733
H     -2.641121    0.285896    0.272825
H      0.289250   -0.831087   -1.139341
C     -0.922488    1.363655    0.126171
H      0.322800    1.519829   -0.091160
H     -1.304468    2.128504    0.748469
6

C     -1.543919    0.071721    0.006198
H     -0.584232   -1.913831    0.712450
H     -2.649894    0.463374    0.139622
C     -0.763689    1.265794    0.247503
H      0.199942    1.628066   -0.216401
H     -1.380860    2.007321    0.690651
6

C     -1.734921    0.233267    0.360969
H     -0.504079    0.502227    1.560976
H     -2.479052   -0.020950   -0.309052
C     -0.981410    1.565184    0.160930
H      0.028789    1.323143   -0.347731
H     -0.971825    2.335634    1.002456
6

C     -0.788255    1.346138    0.452762
H     -0.046717    1.360749   -0.394774
H     -0.831179    2.434869    0.835841
C     -1.999297    0.810368   -0.120990
H     -2.020387   -0.439300    0.079040
H     -1.844616    0.154404    1.198433
6

C     -0.628709    1.267677    0.668771
H     -0.084207    1.464230   -0.380159
H     -1.123173    2.325182    0.685519
C     -1.572582    0.346314    0.004165
H     -2.729749    0.032873   -0.110724
H      0.642487    1.025175    1.822083
6

C     -1.659684    0.389414    0.209141
H     -2.738891    0.357882    0.009783
H     -1.339665   -0.005063    1.164291
C     -0.464011    1.361024    0.602250
H      0.124891    1.632868   -0.334033
H     -1.453090    1.931103    0.398879
6

C     -1.535542    0.452108    0.124261
H     -1.279388    0.409521    1.150464
H     -2.474116   -0.171143   -0.212651
C     -1.167489    1.738969    0.076361
H     -0.796468    2.222273    0.976763
H     -0.277446    1.015501   -0.064886
6

C     -0.647263    1.304575    0.404106
H      0.160427    1.715767   -0.236848
H     -0.935906    2.363152    0.738832
C     -1.844002    0.205921    0.081094
H     -2.871676   -0.153139   -0.119612
H      0.145005    1.539200    1.475654
6

C     -0.744760    1.364905    0.553866
H      0.044866    1.623530   -0.229283
H     -0.903573    2.278150    0.628437
C     -1.819145    0.275494   -0.000085
H      0.686497    1.511996    1.362609
H     -2.715808   -0.105804   -0.085362
6

C     -0.533324    1.416367    0.182684
H      0.077034    1.911533   -0.566491
H     -0.823549    2.276938    0.855732
C     -1.222265    0.204104    0.380243
H     -2.347985   -0.087421    1.056588
H     -2.680362   -0.054294    0.141555
6

C     -0.798526    1.305835    0.266637
H      0.101503    1.553209   -0.238099
H     -1.194419    2.112077    0.742498
C     -1.441963    0.250348    0.107768
H     -2.805015    0.214807   -0.011232
H     -2.666805   -0.514479   -0.658243
6

C     -0.869007    1.396509    0.193788
H      0.182408    1.453099   -0.170467
H     -1.234293    2.268587    0.822289
C     -1.551370    0.086698   -0.110399
H     -2.666157    0.231382    0.132362
H     -0.234909   -1.813810   -0.327322
6

C     -0.895627    1.277291    0.186743
H     -1.324946    2.153170    0.745305
H      0.158090    1.483753   -0.131138
C     -1.527323    0.133917   -0.158360
H      0.573029   -0.772909   -0.534944
H     -2.548615    0.388145    0.225023
6

C     -0.983732    1.354834    0.157026
H     -1.082508    2.308654    0.790649
H      0.147875    1.493257   -0.074828
C     -1.567057    0.113449   -0.152738
H      0.483323   -1.076361   -0.563836
H     -2.652999    0.166082    0.147464
6

C     -0.541778    1.274516    0.223621
H     -0.436494    1.748972   -0.654718
H     -1.104430    1.845067    0.857408
C     -1.061839    0.037033    0.478499
H     -2.210016    0.618786   -0.034856
H     -2.175894    0.142854    1.180357
6

C     -1.417039    0.059102    0.036121
H     -1.608703   -0.095767    1.122910
H     -2.439475    0.326294    0.164653
C     -1.209852    1.512922    0.247238
H     -0.994928    2.383883    0.670119
H     -1.212926   -1.343687   -0.150355
6

C     -0.826816    1.425353    0.257822
H     -1.116487    2.320770    0.835786
H      0.191330    1.339759   -0.201166
C     -1.778534    0.535637   -0.064364
H     -2.607913   -0.185242    0.039495
H     -0.958177    2.014409   -1.199766
6

C     -1.670734    0.296258    0.152002
H     -2.667765    0.132855    0.019902
H     -1.439510   -0.492599   -1.020795
C     -0.675423    1.173975    0.077717
H      0.117181    1.658170   -0.182962
H     -1.463931    0.191215    1.170111
6

C     -0.930102    1.479204    0.119041
H     -1.133790    2.312857    0.824078
H      0.123183    1.354475   -0.051204
C     -1.630123    0.192962   -0.220589
H     -0.625789   -1.675910   -1.563572
H     -2.567588    0.096779    0.196246
6

C     -0.857701    1.441787    0.109199
H     -1.300488    2.157435    0.804483
H      0.214093    1.372088   -0.113366
C     -1.567118    0.299918   -0.146191
H      0.824751   -0.238859   -1.773908
H     -2.627206    0.165048    0.213447
6

C     -0.787270    1.328012    0.234433
H     -1.400160    2.297486    0.860598
H      0.177742    1.405031   -0.249317
C     -1.563370    0.056615   -0.133125
H     -0.269984   -1.629835   -0.884984
H     -2.565361    0.349132    0.154983
6

C     -1.730793    0.348823    0.063792
H     -2.841338   -0.014396   -0.034645
H     -0.754715    0.762903    2.081834
C     -0.718007    1.236797    0.481717
H      0.304861    1.675771   -0.326281
H     -1.153144    2.189281    0.682990
6

C     -1.783408    0.281459    0.013584
H     -2.596005   -0.151171   -0.135488
H      0.218904    1.289611   -0.427284
C     -0.831209    1.365387    0.380500
H     -1.146703    2.650989    1.036261
H      0.027732    1.480283    1.688374
6

C     -1.629986    0.174983   -0.181518
H     -0.164020   -1.289243   -1.656826
H     -2.698438    0.151991    0.233796
C     -0.886208    1.394004    0.105722
H     -1.188027    2.187661    0.754509
H      0.264238    1.527636   -0.044937
6

C     -1.552168    0.171787   -0.238050
H     -0.032520   -0.328854   -1.819899
H     -2.692710    0.180453    0.239189
C     -0.897398    1.398837    0.217653
H     -1.205261    2.218327    0.733313
H      0.209117    1.466871   -0.084533
6

C     -1.564334    0.043729   -0.137108
H     -0.934375   -2.025914   -0.606058
H     -2.759676    0.259493    0.201288
C     -0.836347    1.427196    0.180805
H     -1.244249    2.143234    0.736513
H      0.266186    1.562624   -0.113924
6

C     -0.796871    1.481982   -0.022025
H      0.263556    1.641176   -0.032872
H     -1.225727    2.158469    0.763430
C     -1.643647   -0.109329   -0.010578
H     -1.345426    0.158615    1.209463
H     -2.782336    0.336316    0.142894
6

C     -1.294861    0.054997    0.265135
H     -1.896096    0.024226    1.323077
H     -2.342868    0.604449    0.062053
C     -0.755643    1.368260    0.136148
H     -1.278326    1.903825    0.792824
H      0.037344    1.711471   -0.528925
6

C     -1.790262    0.296292    0.263721
H     -2.641661   -0.006739   -0.169399
H     -0.283259    0.858884    1.004975
C     -0.818827    1.177025    0.095929
H      0.067429    1.660264   -0.181902
H     -0.955098    2.309433    0.859223
6

C     -1.666932    0.370120    0.350366
H     -2.681922    0.065075   -0.196706
H     -0.359405    0.358341    1.397577
C     -0.708800    1.419491    0.209347
H      0.164498    1.456901   -0.389676
H     -1.245263    2.124690    0.894241
6

C     -0.975395    1.383858    0.563476
H     -1.092183    2.493078    0.528521
H     -1.603357   -0.606013   -1.292370
C     -1.488629    0.191720    0.148005
H     -1.252110   -0.075005    1.038657
H     -2.861682    0.192784   -0.037618
6

C     -1.772282    0.340521    0.168467
H     -0.647494    1.937980   -1.203809
H     -2.600228   -0.139835   -0.138797
C     -0.915790    1.486519    0.103050
H      0.143193    1.379364   -0.225269
H     -0.993313    2.369708    0.960121
6

C     -1.643616    0.297381    0.165628
H     -1.371203    1.952449    0.661513
H     -2.642411    0.340304    0.008537
C     -0.562181    1.191409    0.312708
H      0.080991    1.654732   -0.280812
H     -0.062229    1.710761    1.590844
6

C     -0.321049   -0.427282    2.270480
H     -0.097306   -1.334285    1.453749
H      0.010545    0.312293    2.840581
C     -0.775742    1.473361    0.201980
H     -1.274453    2.204970    0.853142
H      0.148467    1.391865   -0.247449
6

C     -1.111393    1.330893    0.444893
H     -0.238366    1.356667   -0.404743
H     -0.842993    2.351015    0.969031
C     -1.466750    0.062406    0.145737
H     -2.412949    0.141089   -0.285206
H     -1.457999    0.425157    1.180599
6

C     -0.841686    1.267401    0.090608
H     -1.370764    1.857346    0.778815
H     -0.017903    1.572554   -0.249767
C     -1.453917    0.030739    0.195388
H     -1.438169    0.279701    1.205781
H     -2.408010    0.659486    0.029487
6

C     -0.676644    1.236288    0.434581
H      0.050305    1.626300   -0.271007
H     -0.976799    2.321238    0.730481
C     -1.801001    0.365785    0.119707
H      0.619976    1.588813    1.333361
H     -2.734281   -0.113335   -0.146189
6

C     -0.600786    1.205852    0.229331
H      0.177081    1.533222    1.091285
H      0.363839    1.608601   -0.338637
C     -1.645699    0.229244    0.083856
H     -1.437183    2.197819    0.848377
H     -2.818590    0.194759    0.044646
6

C     -1.525422    0.081104    0.070813
H     -2.928742   -0.027433   -0.228678
H     -0.827144   -0.740237    0.042893
C     -1.048074    1.481256    0.119025
H     -1.264481    0.399239    1.314377
H     -0.903279    2.252268    0.965504
6

C     -0.967196    1.534407    0.098022
H     -0.987620    2.158876    0.837763
H      0.215597    1.440805   -0.160989
C     -1.819162    0.433002    0.161390
H     -1.247363    1.780057   -1.221651
H     -2.580040   -0.130814   -0.068613
6

C     -0.638060    1.441588    0.451817
H     -0.347751    1.433418    1.457811
H     -0.080258    1.314680   -0.378863
C     -1.600413    0.447830    0.148090
H     -1.200756    2.212949    0.797009
H     -2.618932    0.019230   -0.150482
6

C     -1.658318    0.096880    0.291214
H     -1.411256   -0.222996   -0.828099
H     -1.339654    0.114530    1.322670
C     -0.690006    1.239487    0.059529
H     -2.757829    0.291943   -0.194962
H      0.085135    1.709632   -0.241678
6

C     -1.019951    1.501458    0.192615
H     -0.963987    2.445226    0.914680
H      0.139499    1.228675   -0.123409
C     -2.005647    0.495508    0.222214
H     -2.578175   -0.279468   -0.265513
H     -1.102189    0.275830    1.109725
6

C     -1.527027    0.285251   -0.104704
H     -2.554387   -0.034112    0.123523
H     -1.567602    0.042264    1.142146
C     -0.901253    1.533007    0.281028
H     -1.004177    2.527728    0.807418
H      0.023997    1.313090   -0.199100
6

C     -1.389479    0.106150    0.031504
H     -2.447356    0.491687    0.018754
H     -1.650019   -0.025707    1.448121
C     -0.824994    1.397473    0.234100
H     -1.269125    2.140475    0.757996
H      0.050523    1.557150   -0.440163
6

C     -1.702784    0.159161    0.027444
H     -2.791444    0.073148   -0.131296
H     -1.198241    0.365559    1.297944
C     -0.888977    1.459099    0.133690
H     -1.271127    2.236143    0.994310
H      0.322123    1.374118   -0.271781
6

C     -1.758379    0.259188    0.000133
H     -2.728122   -0.091301    0.039178
H     -0.847632    0.294227    1.558806
C     -0.919229    1.499681    0.111850
H     -1.007161    2.255888    0.824824
H      0.274471    1.512820   -0.108413
6

C     -2.234671    0.524048    0.242278
H     -1.951973   -0.404999   -0.301495
H     -1.333790    0.450630    1.051777
C     -1.079669    1.719816    0.174758
H     -0.621305    2.284604    0.973232
H     -0.309041    1.093129   -0.090238
6

C     -1.793868    0.317780    0.263104
H     -2.647653    0.020907   -0.159892
H     -0.323570    0.657911    0.911221
C     -0.849577    1.212440    0.221833
H     -1.099235    2.263584    0.863485
H      0.251913    1.621565   -0.320958
6

C     -1.668720    0.195792   -0.243382
H     -2.543828    0.195925    0.256508
H     -0.217934   -0.579380   -1.822638
C     -0.835184    1.425307    0.175876
H      0.232585    1.380874   -0.122947
H     -1.323273    2.238378    0.801517
6

C     -1.548569    0.193995   -0.318686
H     -2.329105    1.516950   -1.453011
H     -2.753232    0.188553    0.344131
C     -0.837275    1.315750    0.118481
H     -1.213560    2.188735    0.690170
H      0.214216    1.549243    0.033477
6

C     -0.590404    1.265300    0.585294
H     -1.029849    2.259440    0.666521
H     -0.166576    1.521592   -0.325254
C     -1.668212    0.409726    0.116731
H      0.394934    1.529611    1.696182
H     -2.683378   -0.019782   -0.175719
6

C     -1.492501    0.367423    0.090859
H     -2.563209    0.147629   -0.156092
H     -1.365918    0.197560    1.282188
C     -0.900340    1.462555    0.388216
H     -1.014623    2.838376    1.047914
H     -0.038705    1.277305   -0.368399
6

C     -1.395890    0.173336   -0.092516
H     -2.681621    0.229480    0.271180
H     -1.407434    0.278222    1.034063
C     -0.868438    1.580670    0.047403
H     -1.475252    2.219653    0.966958
H      0.298185    1.185867   -0.176776
6

C     -1.383864    0.143847    0.017519
H     -2.576283    0.206707    0.230258
H     -1.810980   -0.138523    1.200196
C     -0.869822    1.519993    0.148095
H      0.139917    1.612154   -0.245471
H     -1.029417    2.323050    0.699715
6

C     -1.589466    0.020168    0.193108
H     -2.821228    0.105603   -0.434551
H     -1.197562    0.415070    1.389142
C     -0.924602    1.358404    0.257593
H     -0.028704    1.489084   -0.342585
H     -0.968888    2.278899    0.987604
6

C     -0.875585    1.354966    0.254419
H     -1.177848    2.232972    0.749373
H      0.112795    1.475996   -0.142642
C     -1.591336    0.159496   -0.127467
H     -1.054494   -2.085175   -1.261876
H     -2.606445    0.212846    0.133890
6

C     -0.831827    1.238532    0.194522
H     -1.272083    2.143476    0.682937
H      0.191648    1.571699   -0.066145
C     -1.657300    0.192542   -0.212198
H     -3.435895   -0.524928   -0.963809
H     -2.568857    0.290026    0.268457
6

C     -2.073466    0.503358    0.248888
H     -2.704518   -0.232300   -0.191189
H     -1.137438    0.091144    1.112460
C     -0.847888    1.326925    0.215149
H     -0.856309    2.411980    0.638210
H      0.089169    1.566122    0.026793
6

C     -0.540632    1.156632    0.137941
H      0.204857    1.794404   -0.341776
H     -2.827538    0.068173   -0.222388
C     -1.791955    0.318585    0.296539
H     -1.405404    0.114678    1.366455
H     -1.726511   -1.032347   -0.110835
6

C     -1.585128    0.189226   -0.057009
H     -1.505467    0.228026    1.149393
H     -2.538128    0.179780    0.150254
C     -1.469466    2.194941   -0.046180
H     -2.563336    1.890523    0.222491
H     -0.758067    2.938302    0.284984
6

C     -1.223420    0.183498   -2.036912
H     -0.356528    0.951885   -2.263352
H     -0.482728   -0.480837   -2.447659
C     -1.570234    0.190301   -0.030387
H     -1.375850    0.233115    1.243688
H     -2.682639    0.173616    0.029337
6

C     -1.673098    0.203254   -0.214762
H     -2.649941    0.121999    0.258341
H     -1.178343    2.248737    0.790219
C     -0.852299    1.354229    0.023985
H      0.488889    0.442403    0.880220
H      0.215260    1.508056    0.009790
6

C     -1.587275    0.309897    0.059150
H     -2.805705    0.127510   -0.048853
H     -0.138658    1.693888   -0.200094
C     -0.557985    1.236908    0.533647
H     -1.048797    2.068073    0.523723
H      0.153720    1.016734    1.470986
6

C     -1.545642    0.362206   -0.147596
H     -1.103861    0.514558    2.093389
H     -2.573656    0.170351    0.108865
C     -0.747184    1.326341    0.436188
H      0.045680    1.330625   -0.275995
H     -1.317618    2.246752    0.746111
6

C     -1.583728    0.280260   -0.226022
H     -1.284388    0.123546    1.948690
H     -2.694737    0.004887    0.098062
C     -0.862646    1.261913    0.416000
H      0.028716    1.462627   -0.144724
H     -1.026025    2.426589    0.724256
6

C     -1.775736    0.480094   -0.029194
H     -0.144836    2.883501   -1.137362
H     -2.525957   -0.198681    0.068487
C     -0.850179    1.701869   -0.080709
H     -0.997316    2.224618    0.889750
H      0.010768    1.228376    0.019238
6

C     -1.591564    0.119019   -0.154395
H     -0.118076   -1.470720   -1.113740
H     -2.704258    0.115173    0.111751
C     -0.839079    1.406479    0.273352
H     -1.101419    2.317389    0.765268
H      0.097900    1.478216   -0.128403
6

C     -1.105665    1.350090    0.194238
H      0.011559    1.431730   -0.182205
H     -0.936030    2.231990    0.928086
C     -1.642026    0.127250    0.154999
H     -2.566088    0.091149   -0.178407
H     -1.292200    0.435019    1.133600
6

C     -0.769771    1.319759    0.108488
H      0.191830    1.545228   -0.280771
H     -1.344498    2.092714    0.863852
C     -1.442215    0.114369    0.024590
H     -2.772283    0.348512    0.011801
H     -1.393513    0.246647    1.322352
6

C     -0.805885    1.384315    0.114711
H      0.171459    1.541692   -0.261186
H     -1.288424    2.074950    0.797999
C     -1.372016    0.180596    0.067472
H     -2.608277    0.332434    0.198508
H     -1.627307    0.153242    1.132807
6

C     -1.713732    0.201568   -0.211149
H     -2.647571    0.363720    0.447276
H     -1.378168    0.098204    1.151888
C     -0.703628    1.360815   -0.005760
H     -1.359624    1.973513    0.528625
H      0.272273    1.669409    0.139431
6

C     -1.450209   -0.068264    0.114269
H     -1.444406   -0.059752    1.122387
H     -2.259358    0.664353    0.041421
C     -0.973750    1.380657    0.409350
H     -0.140221    1.389281   -0.283179
H     -1.262507    2.360953    0.646063
6

C     -1.964433    0.732851    0.289426
H     -2.405483   -0.354681   -0.163220
H     -1.412564   -0.043925    1.076248
C     -1.005117    1.490372    0.330268
H     -0.902300    2.560861    0.778065
H      0.159447    1.281750   -0.260476
6

C     -1.677307    0.187293   -0.160461
H      0.025862   -1.302285   -1.480443
H     -2.633180    0.110557    0.132004
C     -0.866196    1.322850    0.289742
H     -1.112022    2.292631    0.734907
H      0.150286    1.522944   -0.128620
6

C     -1.363783    0.046065    0.113558
H     -1.814460    0.145089    1.259624
H     -1.598715   -1.000160   -1.789320
C     -0.765745    1.402662    0.136247
H      0.137793    1.659301   -0.435508
H     -1.063921    2.239917    0.940370
6

C     -1.642699    0.243805   -0.230328
H     -2.544673    0.183943    0.280464
H     -0.001821    0.024310   -1.796598
C     -0.909132    1.457210    0.083789
H      0.189284    1.407710   -0.017115
H     -1.231200    2.143609    0.750762
6

C     -1.563318    0.076026   -0.316278
H     -2.650268    0.384609    0.405233
H     -0.541109   -1.062775   -1.985841
C     -0.804394    1.293667    0.039909
H      0.256377    1.558421    0.021310
H     -1.376817    2.123553    0.717398
6

C     -2.111249    0.703350    0.234545
H     -2.074307   -0.346070   -0.082315
H     -1.321275    0.296955    0.910099
C     -1.057990    1.588638    0.097229
H     -0.915777    2.382859    0.947736
H     -0.049852    1.041497   -0.056982
6

C     -1.582788    0.164397   -0.096255
H     -2.128909    1.969804   -1.126905
H     -2.729448    0.294778    0.210575
C     -0.823338    1.297554    0.199702
H      0.414592    1.559661   -0.221866
H     -1.417437    2.119886    0.775417
6

C     -1.077493    1.549442    0.496838
H     -2.771062    0.122145    0.032231
H     -0.919649    2.581461    0.584224
C     -1.477812    0.058743   -0.029016
H     -1.423981   -0.125357    1.156765
H     -1.197180   -0.127676   -1.186535
6

C     -1.740825    0.372492    0.133802
H     -0.239482    0.718028    1.380231
H     -2.896320   -0.022665   -0.055385
C     -0.693155    1.094332    0.364684
H     -1.133653    2.212301    0.715048
H      0.325532    1.779816   -0.290577
6

C     -1.893300    0.318680   -0.066387
H      0.356414    1.587755   -0.019640
H     -2.739371   -0.086819    0.177166
C     -0.714048    1.486671   -0.000786
H     -1.148114    2.129989    0.777220
H     -0.922420    2.140546   -1.279733
6

C     -0.926560    1.399961    0.175944
H      0.126500    1.434395   -0.015859
H     -1.012798    2.424430    0.796308
C     -1.616638    0.199785   -0.281174
H     -2.549478    1.069657   -1.118422
H     -2.708924   -0.022295    0.192354
6

C     -1.668937    0.207345   -0.236857
H     -0.514775   -0.599876   -2.211376
H     -2.600730    0.109861    0.213896
C     -0.884998    1.406260    0.215568
H     -1.188976    2.285669    0.774609
H      0.205221    1.427141   -0.099644
6

C     -1.653880    0.104081   -0.209038
H     -2.553820    0.278479    0.236595
H     -0.072783   -0.796259   -1.612262
C     -0.892864    1.280768    0.163075
H      0.156675    1.551512   -0.049131
H     -1.194530    2.221437    0.726071
6

C     -1.736026    0.156730    0.239341
H     -1.175019    0.552476    1.151444
H     -2.560255    0.177320   -0.272847
C     -0.954258    1.286792    0.260204
H      0.030341    1.424256   -0.276360
H     -1.135232    2.069654    0.948530
6

C     -1.177372    1.490642    0.200779
H     -1.355503    0.013342    1.287882
H     -0.962212    2.309990    0.722745
C     -1.572004    0.178102    0.144919
H     -2.602906    0.194358   -0.115283
H     -0.905081   -1.066315   -0.201085
6

C     -1.679731    0.254557   -0.359848
H     -2.645101    0.146809    0.397576
H     -1.701011   -0.383349   -2.508388
C     -0.826479    1.434398    0.108214
H      0.217101    1.519075    0.091374
H     -1.204209    2.081437    0.630257
6

C     -0.843448    1.349800    0.135402
H      0.173894    1.612200   -0.007864
H     -1.125331    2.105920    0.669034
C     -1.619057    0.198564   -0.139104
H      0.091865   -1.230446   -1.859626
H     -2.724478    0.169792    0.210104
6

C     -0.878336    1.544350    0.003884
H      0.100348    1.349456   -0.093178
H     -1.185395    2.422858    0.753346
C     -1.526881    0.317547    0.201452
H     -3.197119    0.740896    1.400465
H     -1.379851   -0.141179    1.148786
6

C     -0.922432    1.371255    0.359464
H      0.279708    1.487976   -0.395481
H     -1.274119    2.164038    0.811486
C     -1.542715    0.182233    0.098307
H     -1.457929    0.213564    1.172381
H     -2.612963    0.248162    0.004155
6

C     -0.955335    1.532124    0.001802
H      0.196945    1.392851    0.137914
H     -0.922044    2.351365    0.863845
C     -1.724808    0.262416   -0.136787
H     -1.246207    0.364964    1.058654
H     -2.879001   -0.236492    0.124883
6

C     -1.277346   -0.004379    0.338182
H     -1.961113   -0.063529    1.232787
H     -2.153427    0.760255    0.038032
C     -0.632891    1.301463    0.378130
H     -1.412553    2.032111    0.767487
H     -0.093120    1.641307   -0.704305
6

C     -0.985435    1.478345    0.255790
H     -0.766178    2.393666    0.735522
H      0.231844    1.532319   -0.025716
C     -1.937354    0.386617   -0.029563
H     -1.392571    0.225783    1.076300
H     -2.680757   -0.349503    0.037977
6

C     -0.877697    1.494813    0.046748
H     -1.085297    2.360491    0.908620
H     -1.308264    2.563671   -0.907326
C     -1.737856    0.469166   -0.110370
H      0.158207    1.285684   -0.078812
H     -2.595778   -0.173879    0.101386
6

C     -1.301633    0.033442    0.326624
H     -2.490417    0.710639   -0.174867
H      0.095226    1.545174   -0.551621
C     -0.904002    1.424689    0.214065
H     -1.561920   -0.355614    1.516904
H     -1.367704    2.308898    0.719207
6

C     -0.845997    1.311031    0.288284
H      0.237908    1.608885   -0.145592
H     -1.131436    2.255934    0.722302
C     -1.639102    0.127342   -0.126793
H     -2.759793    0.133084    0.129371
H     -0.054184   -1.720776   -0.814089
6

C     -0.955847    1.471304    0.102940
H      0.156442    1.291667   -0.151064
H     -1.260447    2.280324    0.890747
C     -1.577861    0.186965   -0.129684
H     -2.500707    0.206015    0.154634
H      0.492250   -0.811082   -0.660016
6

C     -1.007071    1.479523    0.093981
H      0.151153    1.355384   -0.102785
H     -1.169865    2.264286    0.852790
C     -1.536479    0.138969   -0.128828
H     -2.576159    0.198115    0.152414
H      0.450573   -0.802373   -0.590263
6

C     -0.824065    1.287010    0.371207
H      0.002405    1.467606   -0.275343
H     -1.304103    2.243681    0.766275
C     -1.523078   -0.033975   -0.061836
H     -2.489580    0.471954    0.067269
H     -1.123561   -2.043809   -0.297307
6

C     -1.544581    0.120249    0.166462
H     -1.242605    0.333461    1.339366
H     -1.206917   -1.042010    0.355491
C     -1.064868    1.504228    0.064241
H     -0.983133    2.129963    0.914084
H     -2.834810    0.098535   -0.243111
6

C     -0.713584    1.414362    0.117636
H      0.332134    1.644595   -0.023306
H     -1.099027    2.061517    0.671446
C     -1.991911    0.447392   -0.065440
H     -2.666032   -0.131591    0.167236
H     -0.780532    2.086913   -1.156290
6

C     -2.319085    0.470038    0.248541
H     -1.436324    0.282791    1.142803
H     -2.014681   -0.426882   -0.281652
C     -0.954187    1.753378    0.155717
H     -0.063968    1.180916   -0.234904
H     -0.742205    2.406987    1.019806
6

C     -1.740471    0.444747   -0.040642
H     -1.180723    2.255021   -1.292320
H     -2.588517   -0.238479    0.024345
C     -0.892125    1.640017    0.003109
H     -1.053824    2.404369    0.994854
H      0.136516    1.185622   -0.114092
6

C     -0.513626    1.132943    0.066071
H     -1.525414    0.177571    1.105820
H      0.231174    1.908576   -0.229247
C     -1.733567    0.045487    0.300034
H     -2.819240    0.187896   -0.005906
H     -1.806023   -0.936890   -0.124335
6

C     -0.627326    1.300191    0.514711
H     -0.055231    1.501967   -0.372057
H     -1.142718    2.217958    0.726954
C     -1.659060    0.340878    0.161578
H     -2.654085    0.075282   -0.163614
H     -0.170301    1.449821    1.276208
6

C     -0.686617    1.333826    0.302918
H     -1.349165    2.107256    0.779483
H     -0.267540    0.963388    1.351277
C     -1.685653    0.350681    0.086246
H     -2.727965    0.114048    0.024492
H      0.310980    1.530465   -0.325567
6

C     -1.736091    0.333266    0.037910
H      0.195378    0.830624    1.347561
H     -2.619144    0.005764   -0.126204
C     -0.541449    1.281436    0.577475
H     -1.123798    2.346467    0.727991
H     -0.117937    1.469342   -0.349599
6

C     -1.700432    0.327260    0.190527
H     -0.427792    1.359073    1.437511
H     -2.672865    0.057050   -0.166714
C     -0.678948    1.422634    0.551655
H     -1.338795    2.226504    0.842353
H      0.252620    1.402828   -0.550249
6

C     -1.882880    0.249071    0.097102
H     -0.990150    2.384898    0.827671
H     -2.712713   -0.124494   -0.105979
C     -0.756513    1.307631    0.291204
H      0.203837    1.619170   -0.242425
H     -0.204925    0.587216    0.822252
6

C     -1.138305   -0.008664    0.430895
H     -2.219805   -0.025311    1.174874
H     -2.263503    0.505291   -0.001234
C     -0.567672    1.290580    0.256571
H     -0.306508    1.785148   -0.661433
H     -1.034658    2.120184    0.850639
6

C     -2.060957    0.748032    0.006034
H     -2.124276   -0.528112    0.111365
H     -1.555626    0.297654    0.928677
C     -0.985956    1.551686    0.078607
H     -0.790442    2.452817    0.955129
H     -0.013193    1.145150   -0.029500
6

C     -1.540586    0.256762   -0.305340
H     -2.582310    0.102610    0.243456
H     -2.365058    1.599078   -1.503529
C     -0.823907    1.502093    0.166503
H      0.089249    1.211205   -0.104810
H     -1.280867    2.363606    0.867763
6

C     -0.523819    1.205244    0.043358
H      0.171582    1.861191   -0.350007
H     -1.948145   -1.332326    0.317052
C     -1.498356    0.158611    0.226273
H     -1.743706    0.005992    1.277321
H     -2.766372    0.221435    0.039826
6

C     -1.874015    0.444308   -0.073511
H     -2.852568   -0.267575    0.155275
H     -0.660459    2.678010   -1.011552
C     -0.820247    1.392131   -0.045627
H     -0.912630    2.190293    0.734280
H      0.321040    1.677119    0.097156
6

C     -1.657387    0.361831    0.037374
H     -2.602906    0.169359   -0.035073
H     -1.236142    2.110444    0.624943
C     -0.634180    1.278709    0.585154
H      0.209479    0.427724    1.411695
H     -0.007806    1.515933   -0.344826
6

C     -0.528608    1.283746    0.539365
H     -1.226232    2.317436    0.794844
H      0.161681    1.473019   -0.439344
C     -1.852834    0.516410    0.111788
H     -2.692427   -0.154335   -0.139080
H      0.060949    0.325030    0.703124
6

C     -0.733122    1.510482    0.314910
H     -0.299215    0.923906    0.873332
H     -1.210950    2.118117    0.817260
C     -1.671040    0.484253    0.185855
H     -2.543851    0.017970   -0.117917
H      0.020542    1.305454   -0.332535
6

C     -1.007824    1.433606    0.154623
H     -2.130641    2.263354   -0.556234
H      0.391230    1.522364   -0.248060
C     -1.805143    0.374376    0.172700
H     -2.799167   -0.280726   -0.142535
H     -0.917515    2.386657    0.930845
6

C     -0.672870    1.297851    0.279740
H      0.272759    1.420497   -0.284000
H      0.307369    0.571621    0.586816
C     -1.898843    0.402875   -0.065208
H     -2.652024   -0.200420    0.004396
H     -1.187442    2.515473    0.932645
6

C     -0.584663    1.190757    0.292354
H     -1.028650    2.239150    0.691835
H      0.053643    1.714971   -0.148366
C     -1.728891    0.334222    0.064711
H     -2.849859   -0.042823   -0.032962
H      0.194790    1.360155    1.265683
6

C     -1.876556    0.489088    0.092705
H     -0.916069    2.312255   -0.865812
H     -2.642416   -0.221642   -0.038684
C     -0.828923    1.546728    0.178976
H     -1.154129    2.255893    0.909524
H      0.363603    1.366209   -0.274948
6

C     -1.796734    0.397575    0.277007
H      0.180212    1.474747   -0.360416
H     -2.704792   -0.071153   -0.175555
C     -0.608646    1.413809    0.225857
H     -1.357117    2.201867   -0.201914
H     -1.208460    2.221298    0.900679
6

C     -0.933721    1.411988    0.095532
H     -1.265515    3.029321   -1.246725
H     -1.195965    2.414571    0.705516
C     -1.399763    0.229522    0.166475
H     -2.673452    0.320989    0.052620
H     -1.467096   -0.190635    1.220899
6

C     -0.999756    1.419883    0.120901
H     -1.243204    3.072362   -1.364914
H     -1.237226    2.210879    0.664744
C     -1.500226    0.238687    0.169112
H     -2.422648    0.419417    0.126505
H     -1.510141   -0.102431    1.159780
6

C     -1.400667    0.284107   -0.010945
H     -1.664431    0.042064    1.064080
H     -2.677098    0.095887    0.257724
C     -0.755747    1.445926    0.139242
H     -1.296894    2.404099    0.883261
H      0.264387    1.395145   -0.283050
6

C     -1.497741    0.067021    0.258976
H     -1.675115    0.479662    1.228527
H     -2.318730    0.154023   -0.377664
C     -0.368045    1.356757    0.483039
H     -0.897507    2.180663    0.977914
H     -0.773312    1.429101   -0.520480
6

C     -1.464946    0.072653    0.251761
H     -1.717703    0.484850    1.153996
H     -2.331347    0.143771   -0.311096
C     -0.329852    1.391581    0.515246
H     -0.909365    2.151033    0.946955
H     -0.777237    1.423341   -0.506550
6

C     -1.459646    0.059620    0.252497
H     -1.724991    0.477603    1.146517
H     -2.331871    0.152469   -0.304779
C     -0.323189    1.385999    0.519517
H     -0.898251    2.154344    0.934364
H     -0.792501    1.437193   -0.497804
6

C     -1.793051   -0.032420    0.033197
H     -1.156164    0.166422    0.948192
H     -2.845492    0.425288    0.360206
C     -0.590379    1.402788   -0.171717
H     -1.387798    1.997594    0.564538
H      0.242432    1.707556    0.315897
6

C     -1.595910    0.040643    0.026969
H     -1.179012    0.175045    1.702689
H     -2.729391    0.245086    0.066731
C     -0.691487    1.493995    0.138985
H     -1.328564    2.184652    0.864564
H      0.206933    1.471901   -0.229676
6

C     -0.856501    1.747355    0.032172
H     -1.133261    1.376705    1.666243
H      0.146552    1.302689   -0.017868
C     -1.638833    0.129081    0.134096
H     -1.158416    0.183128    1.134615
H     -2.853475    0.090220   -0.046244
6

C     -1.669787   -0.096652    0.134784
H     -1.421832    0.282399    1.063169
H     -2.591964    0.381588    0.123167
C     -0.891848    1.296506   -0.001274
H     -1.141746    2.080001    0.784514
H      0.186729    1.723386   -0.054048
6

C     -1.623668   -0.029008   -0.053257
H     -1.545336    0.081166    0.967513
H     -2.624937    0.090036    0.249465
C     -0.854203    1.618767    0.197294
H     -1.109624    2.481004    0.811697
H      0.227319    1.425262   -0.122401
6

C     -1.524988    0.204793   -0.164915
H     -2.765169    0.040429    0.112738
H      0.141772   -1.812177   -0.693618
C     -0.866478    1.412204    0.239174
H      0.187262    1.378015   -0.182127
H     -1.169047    2.400835    0.862703
6

C     -1.884346    0.410198    0.244697
H     -2.916898   -0.128636   -0.383470
H     -0.917261    0.296436    1.254317
C     -0.888851    1.417697    0.240203
H      0.129880    1.378045   -0.112446
H     -1.052974    2.293488    0.807010
6

C     -0.845177    1.333041    0.196973
H     -0.018169    1.358392   -0.382413
H     -1.303717    2.423817    0.912046
C     -1.414182    0.091648    0.085230
H     -1.471485    0.045466    1.296396
H     -2.477721    0.414865   -0.057921
6

C     -0.837541    1.321956    0.251559
H      0.067861    1.490920   -0.415169
H     -1.354867    2.124754    0.883018
C     -1.539307   -0.035652    0.134959
H     -1.458020    0.241219    1.250862
H     -2.408576    0.524031   -0.054918
6

C     -0.838631    1.313156    0.321446
H      0.229314    1.459181   -0.209386
H     -1.409518    1.986610    0.656420
C     -1.558399    0.356491   -0.123706
H     -2.561186    0.320837    0.222798
H     -2.092343    1.743789   -0.791977
6

C     -1.628101    0.145349   -0.106628
H     -0.024608   -1.514554   -1.054670
H     -2.598889    0.198500    0.120989
C     -0.872004    1.382038    0.238187
H     -1.186632    2.237849    0.772612
H      0.147205    1.472540   -0.157587
6

C     -1.553651    0.221559   -0.195017
H      0.267126   -1.572687   -1.165584
H     -2.709948    0.068242    0.159135
C     -0.897987    1.399218    0.208902
H     -1.148161    2.342044    0.814465
H      0.171326    1.405214   -0.119913
6

C     -1.517381    0.244852   -0.177770
H     -2.740205    0.192675    0.220692
H      0.810089   -0.895953   -0.729741
C     -0.785213    1.371926    0.207288
H      0.154776    1.488359   -0.089473
H     -1.250397    2.138464    0.706836
6

C     -1.653045    0.203573   -0.106530
H     -2.657436    0.118525    0.117451
H      0.594007   -1.114819   -0.706699
C     -0.827821    1.356618    0.225088
H      0.209519    1.471870   -0.177799
H     -1.209636    2.285690    0.809361
6

C     -1.953397    0.598118    0.354915
H     -2.195683   -0.146751   -0.330418
H     -1.155053    0.290806    0.957331
C     -0.973695    1.530148    0.450798
H     -1.129961    2.466734    0.953146
H     -0.122662    0.928173   -0.335461
6

C     -1.219352    1.705208    0.237293
H     -0.824234    2.346264    0.865575
H     -0.479981    0.954659   -0.097896
C     -1.634841    0.331049    0.260405
H     -2.287777    0.075915   -0.416204
H     -1.084265    0.254133    1.201138
6

C     -0.848866    1.387735    0.221728
H      0.218088    1.333158   -0.057768
H     -1.247012    2.323580    0.740146
C     -2.040225    0.449492    0.434007
H     -0.905228    0.183732    0.958793
H     -2.707207   -0.010470   -0.246595
6

C     -1.811777    0.636489    0.022162
H      0.805141    0.151754    1.363310
H     -2.564325   -0.122763   -0.035869
C     -0.677226    1.212100    0.423957
H      0.047212    1.459019   -0.265062
H     -1.132305    2.251431    0.722385
6

C     -0.728263    1.136463    0.019840
H     -0.859212   -1.373083   -0.673654
H      0.058952    1.791333   -0.283479
C     -1.517047    0.047237    0.326401
H     -1.544462    0.051525    1.254517
H     -2.629853    0.425914   -0.080507
6

C     -1.920879    0.606925   -0.087794
H     -0.164215    0.143545    1.168940
H     -2.617480   -0.203811    0.096540
C     -0.641184    1.301825    0.252741
H      0.345389    1.398259   -0.258109
H     -1.304266    2.333077    0.864194
6

C     -2.127829    0.277520    0.734530
H     -0.854189   -0.011725    0.324529
H     -2.708257    0.107485   -0.027170
C     -0.796578    1.484618    0.428798
H     -1.264237    2.425870    0.418327
H      0.220640    1.383460    0.171298
6

C     -2.027230    0.284878    0.762064
H     -2.724505    0.000732   -0.269326
H     -0.866920    0.134248    0.503997
C     -0.803975    1.514778    0.388926
H     -1.169158    2.467235    0.649803
H      0.061339    1.265357    0.014847
6

C     -0.976879    1.306717    0.182695
H      0.307490    1.432211   -0.304156
H     -1.319460    2.100340    0.897098
C     -1.729399    0.282125    0.222064
H     -2.723224    0.210608   -0.257312
H     -1.088978    0.335227    1.309923
6

C     -0.680143    1.261000    0.232886
H      0.027585    1.770957   -0.316028
H     -1.177605    2.131831    0.675108
C     -1.459332    0.033226    0.040369
H     -2.439563    0.449981    0.211332
H     -1.801391    0.020233    1.206644
6

C     -1.576523    0.097334   -0.221837
H     -2.708420    0.207488    0.246474
H     -0.046645   -1.061948   -1.363424
C     -0.821841    1.404584    0.124716
H      0.141658    1.524667   -0.010552
H     -1.173293    2.202202    0.728772
6

C     -1.531191    0.137258   -0.125185
H     -2.625132    0.298014    0.164565
H      0.401692   -1.483891   -0.446283
C     -0.872054    1.275309    0.205758
H      0.075996    1.538757   -0.094575
H     -1.186039    2.186938    0.717010
6

C     -1.452151    0.302095    0.194475
H     -3.327811   -0.039897   -0.637385
H     -1.634801    0.213117    1.193075
C     -0.691447    1.490336    0.177110
H     -1.362505    2.015010    0.914348
H      0.270790    1.472474   -0.464716
6

C     -1.060635    1.802222   -0.060711
H     -0.084158    0.854827   -0.080179
H     -1.124350    2.707526    0.962339
C     -1.566028    0.481242    0.241858
H     -1.165463   -0.142769    1.174274
H     -2.529816   -0.035819   -0.187269
6

C     -0.867959    1.203837    0.561807
H     -1.439717    0.225136    0.959450
H     -1.095073    2.541042    0.708545
C     -1.626075    0.173141   -0.188360
H     -2.641174    0.043280    0.199598
H     -1.320758   -0.151994   -1.115875
6

C     -1.549779    0.200314    0.270919
H     -1.297605    2.104993    0.704136
H     -2.836292    0.266402   -0.174397
C     -0.609221    1.173957    0.553345
H     -0.263534    1.712854    1.464279
H      0.154476    1.690610   -0.486430
6

C     -1.844415    0.384634    0.167363
H      0.082459    1.446939   -0.316339
H     -2.621381   -0.162841   -0.184914
C     -0.726239    1.384535    0.321923
H     -1.028844    2.383008    0.879539
H      0.235031    1.104586    1.073940
6

C     -0.751948    1.448155   -0.096473
H      0.263437    1.493346    0.153788
H     -1.388840    2.084842    0.711303
C     -1.708983    0.104545   -0.171927
H     -1.307975    0.217140    1.041344
H     -2.636141    0.319201    0.412276
6

C     -0.808358    1.493177    0.040175
H      0.323844    1.440977    0.062213
H     -1.267263    1.974335    0.782887
C     -1.773715    0.294482   -0.067539
H     -1.088680    0.450140    1.133429
H     -2.916278    0.014117    0.099145
6

C     -1.761393    0.315573    0.101493
H     -1.155422    0.384777    1.392063
H     -2.542277   -0.089780   -0.499003
C     -0.813196    1.425883    0.463856
H     -0.215741    1.138273   -0.451011
H     -1.042421    2.492502    1.042913
6

C     -0.510049    1.078367    0.405916
H     -1.227114    2.268360    0.693389
H      0.456883    0.457195    0.321005
C     -1.723734    0.299901   -0.016018
H     -2.787733    0.091354    0.030528
H      0.110209    1.698293   -0.246242
6

C     -0.991529    1.446646    0.023677
H      0.170481    1.468851    0.061662
H     -2.113228    2.825301   -0.520272
C     -1.682137    0.262702   -0.205576
H     -2.635368   -0.003001    0.215258
H     -0.999867    2.261079    0.772552
6

C     -1.515853    0.349919    0.203148
H     -1.518009   -0.198000    1.182741
H     -2.697198    0.033814   -0.010188
C     -0.970702    1.528063    0.187378
H     -0.968236    2.472638    0.677963
H     -0.499448    0.107830   -0.296641
6

C     -2.006310    0.793184   -0.024064
H     -1.976620   -0.562511    0.302611
H     -2.181157    0.057970    1.020873
C     -0.705328    1.522552    0.249435
H     -0.841971    2.425737    0.926522
H      0.180937    1.430296   -0.425066
6

C     -1.519450    0.433520    0.239517
H     -2.675242    0.361471   -0.069908
H     -1.461826   -0.191133    1.281385
C     -0.388992    1.476450    0.623710
H     -1.454745    2.086112    0.449830
H     -0.030195    1.500808   -0.474223
6

C     -1.867890    3.183271   -0.934676
H     -2.745539    3.570705   -0.344721
H     -0.792430    2.887667   -1.156468
C     -1.556894    0.191416   -0.001651
H     -2.637688    0.175876    0.077991
H     -1.434141    0.229739    1.166298
6

C      2.826631    3.633042   16.014029
H      2.425360    3.667139   17.010785
H      3.157234    3.379205   15.047232
C     -0.809067    1.422424    0.186169
H     -1.224541    2.213623    0.836628
H      0.131881    1.434150   -0.215123
6

C     -7.565679   12.335948   11.460210
H     -8.297983   12.935273   10.999344
H     -6.666303   11.901170   11.848712
C     -0.795059    1.442702    0.192142
H     -1.222309    2.197849    0.826285
H      0.115641    1.429646   -0.210753
6

C     12.479022   -4.908331   31.438819
H     11.855809   -5.674158   31.094700
H     13.212499   -4.195723   31.576374
C     -1.630624    0.192081    0.059336
H     -2.584703    0.175879    0.049665
H     -1.413395    0.229071    1.133638
6

C    -23.405162  -28.026377   10.196412
H    -24.125133  -28.625759   10.598199
H    -22.663319  -27.379319    9.993022
C     -0.918246    1.285408    0.152114
H     -1.190872    2.291700    0.868419
H      0.207391    1.493089   -0.212859
6

C      2.160089  -37.565647    1.658115
H      2.712523  -38.399915    1.550025
H      1.538783  -36.743068    1.614163
C     -0.896728    1.308360    0.156417
H     -1.210260    2.286589    0.873794
H      0.205261    1.475247   -0.222538
6

C     -1.628894    0.417396    0.195767
H     -0.174696    1.384247    1.550449
H     -2.728657   -0.099728   -0.216871
C     -0.756165    1.406646    0.448277
H      0.207880    1.307032   -0.520792
H     -1.232584    2.404930    0.961191
6

C     -1.764596    0.322794    0.189788
H     -1.269825    2.321373    1.028612
H     -2.580904   -0.011668   -0.098452
C     -0.933738    1.457883    0.141802
H     -0.151859    1.089817    0.916390
H      0.410643    1.345893   -0.394177
6

C     -1.576098   -0.188280    0.396694
H     -1.912363    0.244263    1.248804
H     -2.192151    0.638522   -0.056185
C     -0.514751    1.230168    0.133966
H     -0.121680    1.902367   -0.552950
H     -1.213407    1.840188    0.879983
6

C     -2.065556    0.590039    0.287984
H     -2.379900   -0.211580   -0.188051
H     -1.239582    0.153834    1.059164
C     -0.969339    1.500397    0.280839
H     -1.051429    2.380544    0.826015
H      0.175356    1.253993   -0.215639
6

C     -1.774379   -0.104256    0.055077
H     -1.411506    0.273036    1.275482
H     -2.735419    0.449346    0.156222
C     -0.646738    1.309550   -0.069462
H      0.330409    1.925305   -0.066311
H     -1.292816    1.814248    0.699303
6

C     -1.580670    0.137602    0.112186
H     -1.326978    0.373136    1.189261
H     -2.582192    0.011718   -0.283781
C     -0.902130    1.405742    0.381929
H     -0.162730    1.271438   -0.350064
H     -0.975751    2.467593    1.000780
6

C     -1.619765    0.230804   -0.102015
H     -2.660012    0.156500    0.156808
H      0.485341   -1.651760   -0.964398
C     -0.893278    1.361555    0.175559
H      0.194697    1.525339   -0.096052
H     -1.160061    2.162079    0.733274
6

C     -1.846785    0.108082   -0.253675
H     -1.180171   -0.323732    0.769069
H     -2.133350    0.641466    0.758057
C     -0.962974    1.575905   -0.139963
H      0.083465    1.212359    0.545676
H     -1.490635    2.453149    0.371146
6

C     -0.562251    1.115464    0.184999
H      0.123315    1.759808   -0.287718
H     -2.937312    0.122043   -0.158326
C     -1.611476    0.235690    0.164935
H     -1.550620   -0.669582   -0.206291
H     -1.372949    0.219469    1.332881
6

C     -1.560830    0.146089    0.161199
H     -2.765997   -0.001917   -0.166963
H     -1.032394   -0.914513    0.029317
C     -1.076342    1.549400    0.094227
H     -1.374977    0.279494    1.248981
H     -0.891851    2.213369    0.903598
6

C     -0.705655    1.354719    0.126613
H     -1.389663    2.123469    0.358884
H      0.346118    1.572366    0.373320
C     -1.913329    0.332930   -0.189944
H     -2.635924    0.221633    0.649003
H     -1.231998    0.062111    0.732436
6

C     -0.598020    1.351719    0.290790
H      0.220425    1.409928   -0.362747
H      0.013297    1.205382    1.260182
C     -1.695362    0.420987    0.095107
H     -2.691623    0.034490   -0.022842
H     -1.373840    2.219151    0.867265
6

C     -0.880616    1.466849    0.181964
H     -1.444615    2.189524    0.843594
H     -0.025602    1.326482   -0.533294
C     -1.214221    0.156635    0.346105
H     -2.425090    0.648927   -0.142845
H     -1.540307   -0.121188    1.354788
6

C     -0.916807    1.360658    0.290081
H     -0.926518    2.403999    0.834292
H      0.170036    1.474859   -0.209955
C     -1.880575    0.409612    0.036660
H     -2.584555   -0.212852   -0.083505
H     -0.764088    0.931531    1.828307
6

C     -0.672578    1.391979    0.394007
H     -0.979009    2.422021    0.785078
H      0.125681    1.477259   -0.213834
C     -1.850312    0.445631   -0.052329
H     -2.762202   -0.300615   -0.045349
H      0.074326    1.337611    0.947302
6

C     -0.669873    1.394003    0.402465
H     -0.972428    2.410215    0.780571
H      0.111101    1.473716   -0.221193
C     -1.859196    0.465342   -0.032840
H     -2.748024   -0.307000   -0.061430
H      0.113486    1.320743    0.970200
6

C     -1.544437    0.011627    0.107796
H     -2.516083    0.340259    0.017442
H     -1.410462    0.174482    1.154036
C     -1.061851    1.372121    0.102889
H     -1.137164    2.287945    0.858878
H     -1.604136   -0.974754    0.458134
6

C     -1.780201    0.320744    0.092611
H      0.346622    1.460276   -0.212664
H     -2.798509   -0.106541    0.010089
C     -0.654252    1.443748   -0.010001
H     -1.252079    2.318049    0.987538
H     -0.041673    0.645565    0.959414
6

C     -1.266479    0.076654    0.155872
H     -2.665387    0.422201    0.073819
H     -1.775719    0.033767    1.292757
C     -0.706679    1.315717    0.191529
H      0.048859    1.762843   -0.391215
H     -1.165046    2.056045    0.727549
6

C     -1.054987    1.583561    0.050582
H     -2.617293   -0.087023   -0.017312
H     -0.835693    2.180320    1.002110
C     -1.600976    0.088685    0.027812
H     -1.561048    0.420892    1.177850
H     -0.892204   -1.017399   -0.133426
6

C     -1.918827    0.382361    0.122053
H      0.358454    1.370650   -0.311384
H     -2.702562   -0.296232   -0.114001
C     -0.790944    1.612863    0.208529
H     -1.084541    2.366634    0.962375
H     -1.080327    2.257223   -0.724851
6

C     -0.766184    1.448508    0.083491
H      0.216093    1.552495   -0.219592
H     -1.161668    2.410706    0.773528
C     -1.438434    0.219844   -0.064389
H     -2.632697    0.143772    0.284502
H     -1.747560   -0.108097    1.192771
6

C     -1.459797    0.122404    0.164561
H     -1.060297    0.090192    1.733887
H     -2.509045    0.237450   -0.207115
C     -0.960961    1.365928    0.407977
H     -1.027729    2.356118    0.848216
H     -0.180888    1.354377   -0.346067
6

C     -1.391422    0.128777    0.007023
H     -1.986152   -0.236379    1.231168
H     -2.574511    0.270096    0.393731
C     -0.743305    1.348189   -0.124909
H     -1.023678    2.288533    0.682468
H      0.188618    1.868012   -0.139169
6

C     -1.600355    0.245811   -0.343487
H     -1.084365    0.126594    1.240903
H     -2.725538    0.046655    0.377228
C     -0.800192    1.581065   -0.079806
H     -1.234575    2.210837    0.814185
H      0.222240    1.351907    0.099453
6

C     -1.369590    0.007044    0.213006
H     -1.395872    0.020675    1.114809
H     -2.460751    0.523095   -0.051644
C     -1.082870    1.384363    0.326916
H     -1.256081    2.379656    0.785324
H      0.034715    1.352395   -0.338099
6

C     -1.720726    0.209922   -0.377567
H     -1.700717   -0.403236   -2.437920
H     -2.705324    0.010041    0.314841
C     -0.817318    1.405276    0.204984
H     -1.116567    2.306047    0.702974
H      0.221515    1.504990    0.022341
6

C     -1.779515    0.110314   -0.268013
H     -1.587593   -1.440217   -1.785594
H     -2.464445    0.325353    0.392954
C     -0.869479    1.442725   -0.020812
H     -1.367359    2.052261    0.741963
H      0.342378    1.505623    0.021481
6

C     -1.726145    0.149964    0.098475
H     -2.353968    1.960969    0.215321
H     -2.634777    0.054642   -0.100073
C     -0.848666    1.197452    0.195891
H     -1.060535    2.480843    0.928074
H      0.131702    1.553376   -0.254794
6

C     -0.903772    1.511298    0.104842
H     79.899517 -242.436710 -107.233692
H      0.165973    1.423728   -0.089076
C     -1.492755    0.111249   -0.117532
H     80.232635 -243.229969 -106.665860
H     -2.738089    0.175246    0.155798
6

C     -1.574959    0.151467   -0.095225
H     73.626676  285.736050  -11.905973
H     -2.625660    0.155440    0.118052
C     -0.962585    1.532213    0.185597
H     73.694656  285.758216  -12.529440
H      0.194561    1.382401   -0.154392
6

C     -1.530710    0.072754    0.112374
H     -1.368645   -1.296594    0.051594
H     -2.772841    0.274176   -0.164118
C     -0.675618    1.075559    0.416491
H     -0.045967    1.648788   -0.336100
H     -1.335536    0.381196    1.208125
6

C     -0.686717    1.316272    0.086220
H     -1.178864    2.074779   -0.959967
H      0.413519    1.523403   -0.086547
C     -1.906190    0.590255   -0.129683
H     -2.678666   -0.142388    0.227910
H     -1.280366    2.148734    0.769673
6

C     -0.613690    1.340685    0.299226
H     -1.258878    1.975785    0.749087
H     -2.470705    0.674070   -0.082929
C     -1.308364   -0.141572    0.345899
H     -1.849841   -0.008295    1.359146
H     -0.028972    1.826555   -0.620117
6

C     -0.900805    1.441268    0.073606
H     -1.081520    2.068848    0.690308
H      0.111889    1.680636   -0.175767
C     -1.421444    0.074205    0.060286
H     -2.456021    0.363950    0.280496
H     -1.782548    0.038322    1.121381
6

C     -1.203627    0.246319    0.159234
H     -2.578358    0.531085    0.192043
H     -1.247140   -0.321872    0.979183
C     -1.224654    1.551225    0.108304
H     -1.376826    2.565018    0.632578
H      0.100156    1.095453   -0.021030
6

C     -0.693254    1.327648    0.350795
H     -1.399568    2.228413    0.677516
H      0.232286    1.473276   -0.257896
C     -1.549834    0.319857   -0.111546
H     -1.491948    0.078851    1.145457
H     -2.628132    0.239183    0.245985
6

C     -0.551750    1.150355    0.651051
H     -1.368631    2.352675    0.792481
H      0.113110    0.971456    2.034912
C     -1.554408    0.496469    0.042907
H     -2.624513    0.095097   -0.110285
H     -0.039118    1.341680   -0.508582
6

C     -1.885274    0.655967   -0.093837
H     -1.784969    0.356019    1.201730
H     -2.128467   -0.362341   -0.052802
C     -0.791816    1.304295    0.639445
H     -0.839262    2.334687    0.878857
H     -0.100662    1.378601   -0.523082
6

C     -1.485729    0.371781    0.298163
H     -2.589855    0.396125   -0.015831
H     -1.647313   -0.115822    1.227266
C     -0.372784    1.306716    0.511305
H     -1.544278    2.128735    0.645719
H      0.109508    1.579692   -0.616310
6

C     -0.726680    1.189821    0.321853
H      0.149589    1.581894   -0.309917
H     -1.042169    2.459352    0.876124
C     -1.747447    0.309327    0.130843
H     -0.284909    0.622373    1.497655
H     -2.771714   -0.104118   -0.151329
6

C     -1.648808   -0.037055   -0.017504
H     -2.719975    0.247161    0.243228
H     -1.289086    0.271017    0.950629
C     -0.784930    1.568818    0.019461
H     -1.265226    2.189906    0.786502
H      0.177575    1.427380    0.067995
6

C     -1.644841    0.218303    0.173851
H     -2.605183    0.192069   -0.285106
H     -1.216706    0.164307    1.290091
C     -0.943867    1.241355    0.355481
H     -0.976695    2.363673    0.736802
H     -0.143158    1.487521   -0.220806
6

C     -2.109689    0.615552   -0.222447
H     -1.763079   -0.390686    0.163574
H     -1.841286    0.417043    1.141830
C     -0.825387    1.590796    0.253513
H     -0.049930    1.134567   -0.359247
H     -0.941078    2.299956    1.073089
6

C     -1.042919    1.575403    0.168127
H     -0.944468    2.480500    0.758928
H     -0.749543   -0.767436    0.539843
C     -1.588843    0.100184    0.220791
H     -1.329097   -0.083247    1.277256
H     -2.764670    0.113595   -0.184061
6

C     -0.804950    1.439098    0.299302
H     -0.888100    2.343570    0.848494
H     -1.628509    1.371272   -0.548331
C     -1.833989    0.165949    0.263800
H     -2.688471   -0.096467   -0.256619
H      0.077090    1.584127   -0.287405
6

C     -0.708058    1.112232    0.292722
H      0.068800    1.717616   -0.131006
H      0.000052    0.956829    1.097563
C     -1.626625    0.307550    0.008515
H     -2.717573    0.208864    0.079039
H     -1.154965    2.090015    0.618302
6

C     -1.700033    0.335914    0.165443
H     -2.656453   -0.022872   -0.123210
H     -1.350662    0.087018    1.191752
C     -1.014471    1.418692    0.258683
H     -0.948377    2.367682    0.748374
H     -0.657416    0.222896   -0.258909
6

C     -0.775504    1.294997   -0.074526
H     -1.313775    2.036244    0.722838
H      0.300068    1.597358    0.112667
C     -1.737677    0.227645   -0.121684
H     -2.667429    0.220984    0.354827
H     -1.336134    0.290000    1.056188
6

C     -1.700851    0.328020    0.074737
H     -1.119886    2.215520    0.692131
H     -2.749331    0.053717   -0.049170
C     -0.624288    1.192266    0.396684
H      0.191966    0.193539    0.685615
H      0.055935    1.646752   -0.246811
6

C     -1.756562    0.574900    0.110874
H      0.131464    1.273353   -0.196270
H     -2.553360   -0.114183   -0.011426
C     -0.747447    1.527016    0.054642
H     -0.321932    2.449522   -1.245157
H     -1.212514    2.175190    0.909752
6

C     -1.508154    0.264613   -0.037842
H     -1.263050    2.343342    0.859836
H     -2.701672    0.121775    0.019229
C     -0.755843    1.343239    0.320638
H      0.015709    1.594174    1.878139
H      0.090299    1.363307   -0.294288
6

C     -1.500185    0.026192    0.091157
H     -1.389770    0.614398    1.189553
H     -2.651816   -0.049568   -0.218388
C     -1.064614    1.626227    0.090326
H     -0.091170    1.301238   -0.217441
H     -0.832896    2.148741    1.115104
6

C     -1.265332    0.138569    0.086760
H     -1.739350   -0.075121    1.247130
H     -2.755007    0.193790    0.072975
C     -0.768255    1.493777    0.238410
H      0.156597    1.524905   -0.422351
H     -1.159103    2.391307    0.827388
6

C     -0.982477    1.493038    0.173187
H      0.367537    1.397447   -0.042105
H     -0.967359    2.395702    0.841838
C     -1.929217    0.438307   -0.058031
H     -1.438787    0.273190    0.939263
H     -2.580147   -0.330455    0.196159
6

C     -1.016441    1.373678    0.242180
H     -1.153759    2.438570    0.578309
H     -0.084220    1.562409   -0.249875
C     -1.401272   -0.074059    0.300966
H     -2.473431    0.690140   -0.116102
H     -1.401327   -0.323510    1.294835
6

C     -0.803574    1.423452    0.083749
H     -1.148784    2.263497    0.776030
H      0.155675    1.504739   -0.072463
C     -1.518273    0.202008   -0.090115
H     -2.738964    0.118503    0.206330
H     -1.476530    0.155029    1.146780
6

C     -0.943740    1.400424    0.023931
H     -1.433631    1.949229    0.797331
H      0.333230    1.484547   -0.173030
C     -1.491734    0.162912    0.025388
H     -2.602546    0.439164    0.193953
H     -1.195550    0.505906    1.740546
6

C     -0.632551    1.375904    0.259367
H      0.235996    1.303073   -0.396677
H     -0.126981    1.454133    1.103051
C     -1.725790    0.454363    0.083399
H     -2.661546   -0.075552   -0.060246
H     -1.354528    2.378487    0.981730
6

C     -1.305321    0.035022    0.178502
H     -1.807044   -1.927653   -0.537137
H     -1.738200    0.195557    1.102001
C     -0.837281    1.464776    0.155622
H     -1.061407    2.270526    0.953691
H      0.072095    1.527151   -0.375526
6

C     -0.863154    1.383872    0.245410
H      0.005542    1.226320   -0.151823
H     -1.215540    2.389990    0.752655
C     -2.006059    0.563511    0.494923
H     -0.971533    0.065197    1.061602
H     -2.479707    0.038339   -0.352456
6

C     -1.506017    0.255119    0.023296
H     -2.677995    0.063275   -0.024775
H     -1.390347    0.202629    1.175833
C     -0.882953    1.408598    0.198102
H      0.139304    1.285400   -0.290083
H     -1.212442    2.452206    0.967938
6

C     -1.720866    0.254203    0.190601
H     -1.200892    0.245165    1.329184
H     -2.712321    0.276786   -0.206375
C     -0.868326    1.184939    0.315322
H     -1.239301    2.071120    0.725950
H      0.211256    1.635016   -0.304371
6

C     -1.667154    0.185390    0.073135
H     -1.477381    0.228143    1.284117
H     -0.936103   -0.404203    0.013314
C     -1.126437    1.577619    0.099064
H     -2.546292   -0.007380   -0.084701
H     -0.852732    2.202663    0.869426
6

C     -0.747026    1.367926    0.118062
H     -0.910108    2.628856   -0.461431
H      0.323060    1.289218   -0.168481
C     -1.782420    0.495895   -0.218250
H     -1.294475    2.449548    0.949144
H     -2.637559   -0.166311    0.187097
6

C     -0.628715    0.979858    0.470269
H     -1.216811    2.236573    0.702876
H     -0.052580    1.711356   -0.353814
C     -1.623227    0.165832    0.166617
H     -0.614716    1.449760    1.834910
H     -2.617087    0.342657   -0.118374
6

C     -0.769929    1.329077    0.203881
H     -1.107704    2.364533    0.674329
H      0.274864    1.486255    0.002949
C     -1.774630    0.561856   -0.103687
H     -1.572947    0.115488    0.865092
H     -2.580103   -0.189981    0.407748
6

C     -0.771031    1.691198    0.320887
H     -0.680980    1.841446   -0.755386
H      0.002983    1.228528   -0.327187
C     -1.743998    0.361161    0.155291
H     -0.968244    2.420726    0.948350
H     -2.658130   -0.265337   -0.229769
6

C     -1.557226    0.032038    0.149594
H     -1.304035   -0.938869    0.119929
H     -2.608804    0.198779   -0.063109
C     -1.072831    1.452158    0.076589
H     -1.396884    0.305414    1.159079
H     -1.034253    2.198047    0.918889
6

C     -1.771492    0.181695    0.109973
H     -1.497442    0.469211    1.163773
H     -0.841595   -0.463619   -0.059785
C     -1.085866    1.609808    0.106216
H     -2.567231   -0.209972   -0.119491
H     -0.747966    2.135693    0.980570
6

C     -0.914954    1.360460    0.347708
H      0.106541    1.501090   -0.083927
H     -0.984894    2.361901    0.704217
C     -1.639076    0.219640   -0.236145
H     -2.706037   -0.006814    0.135719
H     -0.023013    0.178690   -1.921705
6

C     -0.925537    1.333461    0.338261
H      0.047373    1.528567   -0.089192
H     -0.922495    2.421095    0.730695
C     -1.695334    0.145332   -0.187052
H     -2.642428    0.007821    0.074860
H     -0.104822   -0.023629   -1.907601
6

C     -0.860457    1.573096    0.111306
H     -0.954801    2.137001    0.823529
H     -1.927702    2.280429   -0.606401
C     -1.792589    0.314462    0.239182
H     -2.684798   -0.103118   -0.134071
H      0.154225    1.514835   -0.172372
6

C     -0.564646    1.390430    0.422299
H     -1.284746    2.105472    0.728726
H     -0.015478    1.397921   -0.328822
C     -1.718130    0.464392    0.099049
H     -2.555420    0.078062   -0.053679
H      0.397369    0.731487    1.129481
6

C     -0.796059    1.271068    0.200938
H     -1.246643    2.182922    0.818785
H      0.549815    1.664660   -0.278806
C     -1.770059    0.361883    0.089207
H     -2.875474   -0.044256    0.037448
H     -0.012449    0.529638    1.244190
6

C     -0.783270    1.453743    0.082046
H      0.282908    1.421167   -0.025193
H     -1.154442    2.163667    0.760282
C     -1.814308    0.581116   -0.164998
H     -0.790503    1.508498   -0.920003
H     -2.669308   -0.183418    0.215436
6

C     -0.719313    1.281979    0.605384
H     -0.984659    2.197828    0.616823
H      0.019551    1.667663   -0.324920
C     -1.834848    0.253567    0.128699
H     -0.254596    1.600709    1.426445
H     -2.619152    0.035238   -0.158413
6

C     -0.874375    1.371911    0.266741
H      0.251590    1.295764   -0.219735
H     -1.444033    2.261432    0.824453
C     -1.510574    0.226804   -0.272617
H     -2.561028    0.280365    0.268730
H     -0.458492   -0.384684   -2.318554
6

C     -0.925844    1.260592    0.321578
H     -1.301399    2.248157    0.835463
H      0.214335    1.355972   -0.285899
C     -1.864344    0.402568    0.441304
H     -1.081493    0.271775    1.000568
H     -2.571705    0.128163   -0.262704
6

C     -0.678178    1.336523    0.427862
H     -0.898891    2.305629    0.726232
H     -0.029052    1.603065   -0.252265
C     -1.772108    0.331624    0.160177
H     -0.082407    0.474256    1.275279
H     -2.760190   -0.140566   -0.194433
6

C     -0.710671    1.591926   -0.089462
H     -1.064963    2.456350    0.990608
H     -0.890163    2.152846   -1.297268
C     -1.879845    0.361078   -0.124313
H      0.178338    1.309383   -0.016526
H     -2.661279   -0.282462    0.107265
6

C     -1.523645    0.217905   -0.253918
H     -2.627561    0.249557    0.284029
H     -0.422441   -1.172628   -1.993150
C     -0.846163    1.413531    0.181993
H      0.138782    1.417467   -0.056834
H     -1.279832    2.137816    0.712303
6

C     -1.658805    0.244503   -0.196946
H     -2.585365    0.106995    0.189897
H     -0.570810   -1.300067   -2.294818
C     -0.879519    1.373098    0.172723
H      0.226427    1.387970   -0.138942
H     -1.241158    2.323711    0.840840
6

C     -1.585106    0.106520   -0.045347
H     -0.602163   -1.803453    0.907017
H     -2.447572    0.390167    0.132164
C     -0.971231    1.294833    0.135424
H     -1.223304    2.152049    0.771096
H      0.088793    1.492707   -0.125765
6

C     -0.765501    1.272197    0.326798
H      0.144374    1.572316   -0.116164
H     -1.201646    2.227409    0.671691
C     -1.566362    0.170531   -0.217324
H     -2.749286    0.193823    0.202571
H     -2.148428    1.393082   -1.152944
6

C     -0.832630    1.128083    0.360979
H      0.143517    1.647153   -0.069984
H     -1.263794    2.100686    0.555343
C     -1.620784    0.196051   -0.286031
H     -2.564729    0.364303    0.307265
H     -2.177538    1.638775   -1.030838
6

C     -0.823200    1.452455    0.137008
H     -1.334646    2.204858    0.826570
H      0.243103    1.392801   -0.146148
C     -1.570658    0.172417   -0.163570
H     -0.353866   -1.740078   -1.207028
H     -2.653019    0.213745    0.213713
6

C     -0.868006    1.272713    0.092168
H     -1.282294    2.113365    0.715089
H      0.260704    1.594773   -0.040299
C     -1.583667    0.143094   -0.181820
H      0.509066   -0.322007   -0.826539
H     -2.665157    0.312331    0.282435
6

C     -0.947469    1.391035    0.192875
H      0.311740    1.457681   -0.127194
H     -1.215071    2.314505    0.812519
C     -1.679472    0.123850   -0.229836
H     -2.608148    0.149204    0.219208
H     -0.464016   -1.117473   -1.774911
6

C     -0.847490    1.320516    0.183634
H      0.259667    1.518786   -0.015975
H     -1.337604    2.112944    0.658764
C     -1.535006    0.179203   -0.355324
H     -2.677987    0.304827    0.396474
H     -0.985411   -0.673836   -2.397424
6

C     -0.901964    1.319896    0.163457
H     -1.295219    2.257759    0.785492
H      0.087117    1.361979   -0.083457
C     -1.474414    0.198583   -0.263646
H      0.141437   -0.241603   -2.084539
H     -2.553940    0.298058    0.265726
6

C     -0.882694    1.242093    0.096848
H     -1.432489    2.142930    0.788287
H      0.136539    1.439386   -0.117597
C     -1.516953    0.106750   -0.175061
H      0.245582   -1.438953   -0.990240
H     -2.442823    0.505118    0.275096
6

C     -0.904989    1.524903    0.050550
H     -1.361058   -0.963667    0.556549
H     -0.979026    2.008362    1.027042
C     -1.629839    0.128517    0.113600
H     -1.464405    0.586962    1.092662
H     -2.691738   -0.062309   -0.042813
6

C     -1.750212    0.417305    0.037908
H      0.164761    1.481764   -0.423242
H     -2.815620   -0.168750   -0.122844
C     -0.558682    1.262170    0.551569
H     -1.178667    2.443786    0.824182
H      0.319843    1.229876    1.186137
6

C     -1.707041    0.365520    0.153116
H      0.317528    1.537925   -0.336888
H     -2.872167   -0.071985   -0.072742
C     -0.655068    1.418251    0.301838
H     -1.221672    2.186565    0.822248
H     -0.091824    0.623803    1.034275
6

C     -1.607423    0.520007    0.170060
H     -0.776192    1.984110   -0.832422
H     -2.691116   -0.156102   -0.105761
C     -0.914206    1.653155    0.183091
H     -1.236788    2.248797    1.000594
H      0.311113    1.170418   -0.380412
6

C     -1.500671    0.446286   -0.046136
H     -1.810392   -0.336650    0.808605
H     -2.536168   -0.058597    0.455897
C     -0.799421    1.579599    0.548376
H     -1.135592    2.670591    0.522421
H      0.251793    1.366000   -0.238850
6

C     -1.529019    0.426094   -0.156630
H     -1.641170   -0.111426    0.999213
H     -2.676463   -0.083144    0.328951
C     -0.790616    1.480559    0.478470
H     -1.047644    2.507605    0.551152
H      0.154462    1.447540   -0.150845
6

C     -1.397265    0.272153    0.008239
H     -1.663085   -0.017189    1.043040
H     -2.760691   -0.127810    0.102387
C     -0.838872    1.451468    0.334908
H     -0.847683    2.625818    0.755615
H     -0.022854    1.462788   -0.193878
6

C     -1.584330    0.195991   -0.219132
H     -0.676629   -1.005845   -2.328171
H     -2.626988    0.171979    0.217808
C     -0.882200    1.362387    0.175643
H     -1.207816    2.269464    0.778173
H      0.162914    1.436455   -0.084919
6

C     -1.595291    0.064504   -0.174670
H     -1.311038   -1.989548   -0.916005
H     -2.556795    0.336661    0.227003
C     -0.908083    1.411560    0.183181
H     -1.263880    2.140238    0.734487
H      0.185629    1.483313   -0.102429
6

C     -1.701658    0.375006    0.090327
H      0.156017    1.366412   -0.337663
H     -2.689550   -0.066039   -0.083457
C     -0.733451    1.546142    0.384825
H      0.021715    1.393438    1.712162
H     -1.839310    2.759989    0.594081
6

C     -1.559010    0.164972   -0.130660
H     -1.179224    2.251263    0.746151
H     -2.620460    0.227596    0.130702
C     -0.918513    1.300730    0.286434
H      0.138787    1.491715   -0.165055
H     -0.258478    0.672777    2.113710
6

C     -0.565443    1.220386    0.004849
H     -2.757552    0.147344    0.033754
H      0.278598    1.860928   -0.310617
C     -1.649056    0.212397    0.166091
H     -1.667220    0.011419    1.342694
H     -1.682454   -0.799932   -0.294748
6

C     -0.793408    1.473347    0.004852
H     -0.962090    2.223257    0.891597
H      0.092410    1.569924   -0.149999
C     -1.687165    0.205915    0.279198
H     -2.788166   -0.036166   -0.158074
H     -2.029610    1.834225   -0.290225
6

C     -0.592869    1.267248    0.326302
H      0.242943    0.879837    1.400835
H      0.167683    1.705029   -0.187352
C     -1.716146    0.276643    0.034760
H     -2.730932    0.211092    0.089916
H     -1.266156    1.976264    0.603946
6

C     -1.618052    0.006581    0.099031
H     -1.350167    0.480331    1.109246
H     -2.785582   -0.072443   -0.150300
C     -1.047001    1.430872    0.160050
H     -0.869193    2.341093    1.023015
H     -0.771928   -0.606709    0.206580
6

C     -0.581834    1.040010    0.320130
H     -0.040311    1.748095   -0.279369
H     -1.474830    0.367723    1.247692
C     -1.539942   -0.006087   -0.056996
H     -1.400242   -1.080865   -0.061114
H     -2.723756    0.302732    0.005314
6

C     -1.680872    0.268027    0.098825
H     -2.733051    0.118219   -0.064641
H     -1.283776    2.215146    0.763677
C     -0.567886    1.287350    0.439941
H      0.127165    1.547534   -0.370231
H      0.121607    1.508149    1.428650
6

C     -1.917520    0.400249    0.113905
H     -2.875874   -0.282128   -0.045957
H      0.257319    1.659185   -0.112698
C     -0.635992    1.430393    0.127529
H     -0.966353    2.228576    0.784793
H     -0.694593    2.144953   -0.585806
6

C     -1.510230    0.341823   -0.199180
H     -2.734438    0.069075    0.137786
H     -1.177404    2.288084    0.715613
C     -0.820772    1.315723    0.399743
H      0.104425    1.421572   -0.186390
H     -1.742195    1.415088    1.698689
6

C     -0.826007    1.492537    0.187142
H      0.330522    1.612033   -0.409689
H     -0.785679    0.069911   -0.220320
C     -1.668932    0.196513    0.300175
H     -2.692773    0.146870   -0.138922
H     -1.503482    0.004520    1.298066
6

C     -2.199631    0.562832    0.326838
H     -2.436664   -0.372250   -0.235269
H     -1.221665    0.162415    1.057804
C     -1.014506    1.575277    0.185536
H      0.149406    1.359021   -0.074635
H     -0.807390    2.379934    0.790037
6

C     -1.958956    0.387911    0.500844
H     -2.575847    0.008211   -0.384854
H     -0.846025    0.306399    0.818828
C     -0.874443    1.433802    0.475964
H      0.070901    1.024568   -0.261236
H     -1.346080    2.506336    0.900765
6

C     -0.732346   -0.513138    0.604260
H      0.089214   -0.665595   -0.214392
H     -1.188220   -0.145198   -0.303058
C     -0.800995    1.418408    0.180280
H     -1.284934    2.251232    0.885181
H      0.184202    1.400557   -0.257788
6

C     -1.364952   -0.544455    0.733399
H     -0.487293   -1.092136    0.822102
H     -1.347034   -0.099276   -0.434106
C     -0.847507    1.353885    0.162116
H     -1.166733    2.231026    0.821888
H      0.112513    1.485286   -0.176331
6

C     -0.820523    1.404030    0.180208
H     -1.242108    2.236745    0.857991
H      0.160903    1.429422   -0.230525
C     -0.492930    1.866066   -1.755420
H     -1.225930    1.239772   -2.367257
H      0.065208    2.825298   -2.019890
6

C     -1.664681    0.432743   -0.173086
H     -1.996918    1.794712   -0.954424
H     -2.661438   -0.175728    0.054109
C     -0.830991    1.495376    0.363372
H      0.231197    1.190535   -0.307790
H     -1.212507    2.493350    0.930967
6

C     -1.538145   -1.531019   -0.949646
H     -1.299832   -1.830112    0.146137
H     -2.655719   -1.836720   -0.712509
C     -1.608974    0.191790    0.038358
H     -2.660194    0.173210    0.004242
H     -1.359555    0.232031    1.200038
6

C     -2.601972    0.271928   -0.310856
H     -2.930145    0.615532   -1.334327
H     -2.295756   -0.646169   -1.068180
C     -0.892018    1.346457    0.177014
H      0.201863    1.465451   -0.226886
H     -1.211572    2.258289    0.857545
6

C     -0.805249    1.291512    0.318797
H      0.053066    1.737857   -0.369783
H     -0.984672    2.405552    0.782801
C     -1.574101   -0.080026    0.033136
H     -2.720066    0.256800   -0.171552
H     -1.499428    0.055533    1.456913
6

C     -1.727879    0.485668    0.228344
H     -2.477516   -0.288839   -0.232069
H     -1.317144    0.056223    1.188057
C     -1.244984    1.879204    0.053351
H     -0.030968    1.071231   -0.087520
H     -0.731960    2.463740    0.900147
6

C     -0.555695    1.368509    0.531172
H     -1.221863    2.178169    0.714755
H     -0.116955    1.383021   -0.363456
C     -1.493762    0.448718    0.093099
H     -0.057303    1.230968    1.754650
H     -2.750145    0.057858   -0.107997
6

C     -1.699809    0.121445    0.266375
H     -2.840447    0.146856   -0.063203
H     -1.413197    0.195575    1.140767
C     -0.666394    1.228719    0.130831
H     -0.945330   -0.983866   -0.193441
H      0.259175    1.759878   -0.237998
6

C     -0.868419    1.408333    0.389576
H     -1.269661    2.296519    0.765233
H      0.176069    1.323535   -0.220803
C     -1.550803    0.289878   -0.248996
H     -2.625606    0.118011    0.182562
H     -2.189285    1.499435   -1.140003
6

C     -0.883262    1.365742    0.012572
H     -1.308018    2.182412    0.840074
H      0.387340    1.387465   -0.078325
C     -1.757279    0.514589   -0.169204
H     -2.577201   -0.013931    0.262455
H     -1.260473    2.113307   -1.204389
6

C     -0.656606    1.331857    0.472428
H     -1.221802    2.220300    0.754352
H      0.234093    1.386022    1.251966
C     -1.639204    0.386691    0.079206
H     -2.629517    0.074902   -0.081893
H      0.008709    1.422526   -0.356519
6

C     -1.545237   -0.055905    0.249714
H     -1.375926    0.206167    1.316402
H     -2.663915    0.482985   -0.208226
C     -0.705082    1.050025    0.185997
H     -0.070512    1.769201   -0.307115
H     -0.912419   -0.964143   -0.618579
6

C     -0.911940    1.368784    0.211394
H     -1.092776    2.248814    0.736271
H      0.138925    1.495665   -0.075112
C     -1.631284    0.214835   -0.161868
H      0.532956   -0.516274   -1.331434
H     -2.641345    0.108179    0.156887
6

C     -0.819148    1.363377    0.200998
H      0.072682    1.324862   -0.170437
H     -1.333777    2.236410    0.817015
C     -1.481283    0.253677   -0.157465
H     -2.576894    0.257950    0.177462
H      0.854820   -0.399600   -1.366451
6

C     -0.868822    1.363445    0.158615
H      0.305977    1.509770   -0.133558
H     -1.325371    2.087989    0.741172
C     -1.571209    0.220596   -0.127078
H     -2.678994    0.254476    0.228421
H      0.597595   -0.504538   -1.336979
6

C     -2.229897    0.325651    0.344281
H     -2.394147   -0.432350   -0.295551
H     -1.195059    0.367609    0.946246
C     -0.994707    1.688155    0.082643
H      0.013711    1.229614   -0.038259
H     -0.730352    2.488550    1.010951
6

C     -0.476073    1.558865    0.608991
H      0.126295    1.453283   -0.300297
H     -1.587163    1.881615    0.304655
C     -1.592357    0.511376    0.284602
H     -1.285685   -0.156051    1.090852
H     -2.715467    0.418141    0.061509
6

C     -1.547513    0.275958   -0.165415
H     -2.591558    0.247519    0.237612
H      0.593798   -1.630972   -1.460411
C     -0.828523    1.367467    0.117445
H      0.174900    1.392866   -0.110646
H     -1.345726    2.152466    0.788576
6

C     -1.620929    0.227407   -0.152943
H     -2.635106    0.119796    0.156553
H      0.347212   -1.344386   -1.562327
C     -0.844131    1.356085    0.172210
H      0.153400    1.438343   -0.117405
H     -1.191653    2.294645    0.809158
6

C     -0.904672    1.319134    0.185519
H     -1.250991    2.200552    0.716968
H      0.233282    1.476329   -0.050713
C     -1.669013    0.236411   -0.287447
H     -2.547026    0.203850    0.303245
H     -1.811927   -0.549490   -2.605982
6

C     -1.632336    0.303038   -0.279661
H     -1.885875   -0.421197   -2.695715
H     -2.532601    0.212181    0.333866
C     -0.890606    1.427289    0.134965
H      0.189792    1.418072   -0.006002
H     -1.272669    2.075696    0.684405
6

C     -0.737003    1.360264    0.335864
H     -1.093628    2.059641    0.833891
H     -0.013425    1.564843   -0.279737
C     -1.559781    0.068834    0.135788
H     -1.246148    0.452142    1.268246
H     -2.880466    0.161504   -0.243740
6

C     -0.957711    1.398450    0.378781
H     -1.223986    2.419185    0.579774
H     -1.411402   -0.661464   -0.825390
C     -1.474194    0.093224   -0.011925
H     -2.441002    0.409620    0.287890
H     -1.573105   -0.134044    1.006522
6

C     -1.710256    0.289113    0.063889
H     -2.822946    0.088784    0.000739
H     -1.270376    2.110740    0.681582
C     -0.535091    1.308368    0.425399
H      0.200250    1.639270   -0.304037
H      0.038697    0.879793    1.434401
6

C     -1.370964   -1.359394   -1.352570
H     -1.596274   -2.024403   -0.280495
H     -2.466524   -1.442354   -1.699351
C     -1.588719    0.192698    0.056707
H     -2.685858    0.172554   -0.003121
H     -1.354146    0.231779    1.189052
6

C     -0.796561    1.435673    0.188616
H     -1.282803    2.237066    0.875839
H      0.177637    1.397458   -0.256781
C      0.609411    1.023880    2.497217
H      1.087327    1.447531    1.659292
H      0.321463    0.186965    3.088453
6

C     -0.812515    1.388980    0.217609
H      0.282995    1.464598   -0.175318
H     -1.256349    2.286040    0.816013
C     -1.652863    0.186052   -0.156516
H     -2.699688    0.110605    0.165785
H      0.176324   -1.387072   -1.010333
6

C     -0.857645    1.263743    0.191253
H      0.145634    1.649426   -0.084123
H     -1.138340    2.170429    0.699370
C     -1.560169    0.082407   -0.082040
H     -2.727900    0.270271    0.143112
H     -0.227522   -1.808399    0.599468
6

C     -1.018171    1.575565    0.133534
H      0.103446    1.206225   -0.046551
H     -0.847739    2.192034    1.027208
C     -2.086987    0.506695   -0.027020
H     -1.463375    0.643142    0.856284
H     -2.217624   -0.456433    0.106856
6

C     -0.916643    1.409117    0.319238
H      0.106509    1.442705   -0.234301
H     -0.823765    2.490551    0.872380
C     -1.755815    0.412751    0.084671
H      0.201434    0.283288    0.483702
H     -2.748706   -0.318849   -0.174415
6

C     -0.671498    1.220701    0.394413
H      0.011649    1.705543    0.979931
H     -1.103191    2.251285    0.746465
C     -1.690975    0.271152    0.150484
H     -0.010120    1.592724   -0.296177
H     -2.662636    0.100414   -0.127612
6

C     -1.523536    0.020496    0.177759
H     -0.657101    0.016721   -0.487405
H     -2.601305    0.269752   -0.009500
C     -1.141604    1.579136    0.343191
H     -1.433023   -0.186102    1.117252
H     -0.970529    2.503153    0.612340
6

C     -1.599571    0.187372    0.061591
H     -1.702337   -1.062502    0.052712
H     -2.809102    0.142187   -0.033214
C     -0.528665    1.156590    0.207708
H     -1.508593    0.220657    1.297710
H      0.085259    1.745666   -0.297024
6

C     -1.520215   -0.001148    0.107094
H     -2.566139    0.092171    0.028271
H     -1.561578    0.217792    1.073910
C     -1.133541    1.532366    0.126753
H     -1.001049   -0.987844   -0.531679
H     -0.888524    2.345254    0.905013
6

C     -1.392417    0.181968    0.078135
H     -1.453578    0.063743    1.318647
H     -0.498888   -0.743274   -0.185033
C     -1.172597    1.523434    0.114297
H     -2.663593    0.225155   -0.029168
H     -0.987812    2.192135    0.759131
6

C     -0.853490    1.245346    0.392751
H      0.123799    1.364255   -0.331407
H     -0.428897    0.804362    2.131131
C     -1.585616    0.258245   -0.082229
H     -1.312548    2.345714    0.835261
H     -2.510564    0.222715    0.053197
6

C     -1.673316    0.252880    0.089869
H     -1.161650    0.566173    1.048972
H     -2.703587   -0.132050   -0.178315
C     -0.908013    1.487134    0.149303
H     -0.055247    1.183149   -0.112782
H     -1.028637    2.309941    1.053265
6

C     -1.846965   -0.118724    0.215063
H     -2.002146   -1.082816    0.058313
H     -2.636788    0.354292   -0.067490
C     -0.631268    1.051533    0.127254
H      0.129203    1.879345   -0.193976
H     -1.374854    0.286026    1.155921
6

C     -0.786611    1.380566    0.325703
H      0.118387    1.414974   -0.396765
H     -0.197165    1.633992    1.133596
C     -1.658817    0.312000    0.225019
H     -2.732041   -0.087848   -0.231186
H     -1.079339    2.416584    0.944802
6

C     -0.642674    1.143845    0.283812
H     -1.171327    2.045323    0.559807
H      0.097406    1.810171   -0.068062
C     -1.708504    0.152520   -0.066753
H     -2.713321    0.284417    0.158768
H      0.680726    1.269192    1.775840
6

C     -0.871526    1.423524    0.211603
H     -1.111966    2.384288    0.806941
H      0.162680    1.415340   -0.083374
C     -1.570064    0.183955   -0.251920
H     -0.486243   -1.435768   -1.757728
H     -2.747544    0.029170    0.184322
6

C     -0.929257    1.381927    0.194411
H     -1.169802    2.282710    0.784921
H      0.117336    1.405094   -0.097407
C     -1.642344    0.190097   -0.196137
H     -0.583430   -1.549867   -1.772082
H     -2.514354    0.176448    0.181785
6

C     -0.811857    1.326439    0.167891
H      0.269168    1.545787   -0.138162
H     -1.401760    2.028176    0.709610
C     -1.531817    0.146440   -0.126804
H     -2.662153    0.389433    0.255038
H      0.377025   -1.259752   -0.996729
6

C     -1.537627    0.149526   -0.182410
H      0.365902   -0.677302   -1.145693
H     -2.638938    0.300286    0.238696
C     -0.856661    1.372553    0.191773
H     -1.259039    2.112968    0.699302
H      0.153845    1.500943   -0.079789
6

C     -1.715378    0.422289    0.217467
H     -2.751544   -0.069274   -0.103063
H     -1.204613    2.238294    0.921682
C     -0.801867    1.364865    0.160130
H      0.334983    1.480101   -0.328644
H     -0.633436    2.453819   -0.911806
6

C     -0.734579    1.315531    0.080930
H      0.181985    1.666778   -0.282138
H     -0.613096   -1.781840    0.419320
C     -1.652445    0.194367    0.257803
H     -1.500038    0.069051    1.242746
H     -2.655595    0.206746   -0.062570
6

C     -0.813084    1.448653    0.130031
H      0.155696    1.571793   -0.406192
H     -1.267426    2.212142    0.810634
C     -1.394837    0.062765    0.020022
H     -2.470620    0.430994    0.125786
H     -1.740178   -0.059119    1.370030
6

C     -0.595864    1.397517    0.389116
H      0.121763    1.357285   -0.312272
H     -1.197238    2.280366    0.809035
C     -1.665727    0.613605    0.029814
H     -2.801355   -0.212498   -0.048122
H      0.175040    0.946614    1.070355
6

C     -0.568352    1.380974    0.251222
H     -0.249414    0.888205    1.294205
H     -1.145267    2.043418    0.684685
C     -1.793377    0.419660    0.126635
H     -2.915707   -0.101566   -0.002799
H      0.284283    1.693791   -0.192169
6

C     -1.580150    0.425318    0.466894
H     -2.547064    0.329835   -0.137154
H     -1.685828   -0.236335    1.272693
C     -0.398412    1.220769    0.399915
H     -1.331459    2.199278    0.609493
H      0.012464    1.728363   -0.561529
6

C     -0.534551    1.294936    0.454328
H      0.099693    1.601459   -0.296748
H     -1.400704    2.054457    0.643426
C     -1.618888    0.121883   -0.023605
H     -1.412734    1.268589   -1.004887
H     -2.683970    0.363542    0.090172
6

C     -0.652693    1.421421    0.424472
H     -1.354550    2.377430    0.540893
H      0.355398    1.579419   -0.326793
C     -1.538051    0.346165   -0.082271
H     -2.463821    0.207542    0.502492
H     -1.876733   -0.264750    0.991517
6

C     -1.003260    1.373915    0.178155
H     -1.106935    2.030702    0.961730
H     -0.089983    1.336901   -0.227039
C     -1.598726    0.155679    0.202572
H     -2.641378    0.220013   -0.347816
H     -1.090168    0.550017    1.282709
6

C     -0.825690    1.322941    0.456965
H     -1.140144    2.308629    0.390344
H      0.226768    1.513147    0.153502
C     -1.818009    0.446258   -0.222168
H     -2.628763   -0.008115    0.471849
H     -1.344612    0.084368    0.799819
6

C     -0.643153    1.259762    0.069037
H     -0.101799    1.083119    1.069860
H      0.214767    1.495607   -0.188650
C     -1.672088    0.343059    0.019073
H     -2.716035    0.082547    0.083198
H     -1.321910    2.255302    0.884914
6

C     -1.794375    0.533657    0.050978
H     -0.420570    2.796979   -0.853629
H     -2.594351   -0.246361   -0.015479
C     -0.811730    1.638774    0.052908
H     -1.078063    2.266883    0.926862
H      0.140099    1.243322   -0.147698
6

C     -1.586470    0.199708   -0.192001
H     -2.671906    0.180988    0.250489
H      0.071968    0.066139   -2.067830
C     -0.893529    1.366062    0.063013
H      0.166109    1.525815    0.017322
H     -1.152625    2.163704    0.728748
6

C     -1.281267    0.267847    0.227303
H     -2.548164    0.063363    0.241706
H     -1.980071   -0.062280    1.001424
C     -0.869810    1.587280    0.049636
H     -1.029371    2.293556    0.864497
H      0.178231    1.517463   -0.334254
6

C     -1.349620    0.092087    0.078254
H     -2.649618    0.461380   -0.025590
H     -1.519604    0.035827    1.439226
C     -0.888178    1.413344    0.143016
H     -1.262175    2.092347    0.776778
H      0.138745    1.572242   -0.361372
6

C     -2.312419    0.393980    0.360497
H     -2.099082   -0.408941   -0.212068
H     -1.442942    0.267180    0.981628
C     -0.976926    1.710063    0.051928
H     -0.638099    2.375825    0.940101
H     -0.060983    1.329121   -0.071775
6

C     -1.890239    0.415616   -0.329219
H     -2.487055   -0.120485    0.253224
H     -2.127943    1.897082   -0.944829
C     -0.849408    1.486883    0.246215
H      0.222953    1.343186   -0.055260
H     -1.134671    2.311075    0.752612
6

C     -0.810787    1.375795    0.161665
H     -1.330560    2.104034    0.690546
H      0.174837    1.447141   -0.033420
C     -1.587645    0.236086   -0.289285
H     -0.449226   -0.022418   -2.251927
H     -2.584265    0.273221    0.338067
6

C     -0.606543    1.341905    0.590458
H     -0.031652    1.573456   -0.244598
H     -0.870228    2.403643    0.667855
C     -1.858454    0.393196   -0.015774
H      0.639667    1.254128    0.842738
H     -2.771543   -0.275923   -0.130369
6

C     -0.620736    1.177811    0.376825
H      0.309910    1.836917   -0.222678
H     -1.304177    1.920752    0.554668
C     -1.749333    0.228367    0.049914
H      0.196801    0.277628    1.319537
H     -2.774083    0.272429    0.108844
6

C     -0.852639    1.474932    0.253007
H     -0.166243    1.537836    1.289694
H      0.151602    1.546027   -0.205191
C     -1.924165    0.246657    0.133598
H     -0.789138    2.474755    0.880569
H     -2.724080   -0.306095   -0.194410
6

C     -1.666720    0.335475    0.128112
H     -1.863563   -1.163337   -0.323207
H     -1.145505    0.263717    1.180021
C     -0.685923    1.115082   -0.196298
H     -3.048021    0.056568    0.003763
H      0.185496    1.681631    0.121172
6

C     -2.132371    0.307618    0.604657
H     -0.944113    0.175600    0.851952
H     -2.445236   -0.159370   -0.465739
C     -1.018547    1.580946    0.268006
H     -0.896944    2.611845    0.865060
H     -0.093239    1.150589   -0.073625
6

C     -1.579895    0.153692   -0.184604
H     -0.557343   -1.451435   -1.862402
H     -2.649811    0.149350    0.160386
C     -0.916181    1.377539    0.226487
H     -1.174089    2.321518    0.803558
H      0.181558    1.434177   -0.138255
6

C     -1.776253    0.452993    0.166307
H      0.182870    1.105892    1.159625
H     -2.542601   -0.031643   -0.144084
C     -0.700659    1.386279    0.382745
H      0.080845    1.373534   -0.382976
H     -1.199752    2.255113    0.845581
6

C     -1.950107    0.454106   -0.099322
H     -1.029635    2.153745    0.728582
H     -2.612886   -0.208454    0.130249
C     -0.792535    1.559701    0.143185
H      0.246743    1.477178   -0.035121
H     -1.080107    2.271181   -0.747763
6

C     -1.106094    1.412233    0.456350
H     -1.043442    2.456629    0.595121
H     -1.870622   -0.894636   -0.639698
C     -1.506769    0.102031    0.030915
H     -1.249160   -0.040945    1.228933
H     -2.764531    0.256487   -0.070278
6

C     -1.068062    1.558696    0.082698
H     -0.938564    2.169549    0.858401
H     -2.667277    0.062256    0.017255
C     -1.454569    0.182231    0.040053
H     -1.213439   -0.903705   -0.021619
H     -1.541524    0.213702    1.242635
6

C     -1.780181    0.144809    0.077589
H     -1.286986    0.398414    1.088949
H     -3.281631   -0.108612   -0.162605
C     -0.859028    1.296587    0.186815
H     -1.240949    2.081372    0.825586
H      0.297029    1.571851   -0.164647
6

C     -1.671809    0.231462    0.085677
H     -1.216101    0.247697    1.329937
H     -2.772789    0.215163   -0.140750
C     -0.793973    1.245060    0.232731
H     -1.258652    2.173617    0.797917
H      0.182874    1.554228   -0.255200
6

C     -1.290327    0.076875    0.144880
H     -1.631068   -0.098924    1.252802
H     -2.543154    0.351622    0.001149
C     -1.156512    1.374300    0.194748
H     -0.054036    1.620182   -0.207378
H     -0.855353    2.343173    0.664110
6

C     -1.672147    0.475760    0.064285
H      0.328243    1.403874   -0.505166
H     -2.887167   -0.177493   -0.110902
C     -0.589120    1.283569    0.500380
H     -1.318228    2.450565    0.918976
H      0.252525    1.189728    1.374005
6

C     -1.549616    0.182310    0.269758
H     -2.498055    0.368761   -0.193623
H     -1.389068    0.027846    1.356724
C     -0.939070    1.400136    0.118965
H      0.015137    1.473419   -0.315053
H     -0.325988    2.009932    1.987063
6

C     -1.605065    0.051439   -0.039782
H     -1.233245   -1.068599   -0.352755
H     -2.589166    0.026844   -0.053421
C     -1.140045    1.473439    0.088831
H     -0.883539    2.185898    0.987986
H     -1.452181    0.448815    1.257427
6

C     -0.866054    1.282382    0.254564
H      0.128633    1.769383   -0.278774
H     -0.963067    2.096604    0.742246
C     -1.762171    0.140163    0.387684
H     -2.675762    0.147744   -0.238148
H     -1.652852    1.583209   -0.274626
6

C     -1.610459    0.075518    0.060453
H     -1.278291   -0.805475    0.522993
H     -2.615987    0.060111   -0.019930
C     -0.991588    1.501052    0.082658
H     -0.987674    2.173290    0.949638
H     -1.464289    0.376463    1.168221
6

C     -1.491656   -0.006028   -0.026415
H     -2.428209    0.597193    0.216035
H     -1.452600   -0.227259    1.173615
C     -0.957695    1.360453    0.286467
H     -1.339836    2.462077    0.591339
H     -1.747675   -0.853513   -0.807740
6

C     -0.915057    1.435735    0.152994
H     -1.203962    2.285408    0.844132
H      0.125622    1.350488   -0.135535
C     -1.615588    0.200482   -0.135311
H      0.078087   -1.470768   -1.275631
H     -2.529435    0.164164    0.141293
6

C     -0.823037    1.350633    0.186200
H      0.201865    1.591941   -0.086796
H     -1.278981    2.098487    0.690389
C     -1.580645    0.027443   -0.162107
H     -2.657622    0.367771    0.239886
H     -0.212492   -1.445433   -0.932247
6

C     -0.834815    1.407504    0.133338
H     -1.352054    2.187599    0.824262
H      0.199058    1.380604   -0.153032
C     -1.536431    0.203670   -0.141812
H      0.024538   -1.897371   -0.777081
H     -2.614179    0.256899    0.204816
6

C     -0.873816    1.440188    0.198442
H     -1.275749    2.158370    0.782869
H      0.157742    1.360749   -0.159577
C     -1.557705    0.291513   -0.117168
H      0.279572   -2.052384   -0.878166
H     -2.588893    0.185457    0.163006
6

C     -1.745154    0.576588    0.272694
H     -2.425866   -0.211961   -0.271482
H     -1.159384    0.129971    1.135854
C     -1.156127    1.806133    0.038085
H     -0.868521    2.419232    0.906812
H     -0.175398    0.947264   -0.031652
6

C     -0.849011    1.318493    0.156970
H     -1.215468    2.310137    0.877830
H      0.179333    1.474362   -0.230053
C     -1.580090    0.176522   -0.000907
H     -3.117282    0.219843   -0.198588
H     -1.404879    0.213520    1.210451
6

C     -0.687967    1.281807    0.195976
H     -1.256358    2.348399    0.735969
H      0.222479    1.648088   -0.255791
C     -1.508175    0.145653   -0.082794
H     -2.643855    0.259290    0.250127
H     -1.656573   -0.016009    1.206824
6

C     -1.860447    0.371594    0.428991
H     -1.263117   -0.052273    1.145162
H     -2.624791   -0.050787   -0.279423
C     -0.975217    1.402521    0.170350
H     -0.946425    2.515379    0.775961
H     -2.460701    2.659777    0.500249
6

C     -1.633080    0.348208    0.258315
H     -2.745055    0.062381   -0.174776
H     -1.364108    0.071862    1.286241
C     -0.864954    1.513390    0.204636
H      0.246524    1.456631   -0.337644
H      0.873261    1.661822    1.465413
6

C     -0.974886    1.313142    0.028651
H      0.155319    1.448360    0.023259
H     -1.262218    2.105093    0.727614
C     -1.464367    0.260276   -0.237960
H     -2.592267    0.309405    0.326009
H     -1.534821    0.731761    1.547359
6

C     -1.816492    0.398002    0.179422
H     -2.714912   -0.039362   -0.097809
H     -1.364968    2.230351    0.894559
C     -0.720654    1.376912    0.387632
H      0.478605    1.470373   -0.496232
H     -0.413927    1.004518    1.503046
6

C     -1.909269    0.581002   -0.130207
H     -2.616494   -0.187918    0.230674
H     -1.300570    2.480169   -1.289959
C     -0.872689    1.516742    0.031603
H      0.499055    1.402269   -0.082495
H     -1.239023    2.124182    0.817997
6

C     -1.730771    0.370294    0.294750
H     -2.631439    0.064620   -0.165029
H      0.184971    1.515676   -0.363869
C     -0.767909    1.363145    0.271613
H     -1.193271    2.122540    0.830106
H     -1.403606    2.183140   -0.547195
6

C     -1.839291    0.244417    0.302406
H     -2.683813    0.012996   -0.163631
H      0.320885    1.665135   -0.296546
C     -0.900936    1.412014    0.240107
H     -1.035264    2.101714    0.785238
H     -1.936184    1.872320   -0.148836
6

C     -0.921038    1.292071    0.201410
H      0.193432    1.372650   -0.113474
H     -1.215784    2.340470    0.809606
C     -1.657706    0.356773   -0.247732
H     -1.839496    1.960174   -1.220028
H     -2.537323    0.074312    0.217762
6

C     -1.689846    0.209578    0.224097
H     -1.518041    0.046441    1.285042
H     -1.709325   -0.581713   -0.527463
C     -0.721079    1.245846   -0.012265
H     -2.550699    0.259163   -0.030005
H      0.118994    1.691444   -0.230098
6

C     -0.773501    1.541536    0.075367
H      0.317833    1.266611   -0.158334
H     -1.295229    2.159507    0.870333
C     -1.783589    0.629560   -0.068699
H     -0.517102    2.686610   -1.354582
H     -2.603933   -0.160938    0.148906
6

C     -0.724665    1.391497    0.537879
H      0.037132    1.150031    1.348475
H     -1.320486    2.235837    0.798326
C     -1.643736    0.444100    0.046067
H      0.114060    1.301958   -0.448452
H     -2.563593    0.062884   -0.066248
6

C     -0.722707    1.286859   -0.005462
H     -1.867583   -0.630292    0.562250
H      0.071393    1.706322   -0.316058
C     -1.450220    0.143786    0.112896
H     -2.558550    0.358930    0.044168
H     -1.700588   -0.043425    1.401228
6

C     -0.867064    1.425035    0.153474
H     -2.700660    2.321504   -0.957802
H     -1.074463    2.417495    0.717715
C     -1.721872    0.415471    0.419971
H     -1.271864   -0.108581    1.170092
H     -2.734735    0.037014   -0.220211
6

C     -0.724276    1.314282    0.171361
H      0.012248    1.812910   -0.334568
H     -1.104792    2.185880    0.675482
C     -1.464870   -0.036424    0.031976
H     -2.488030    0.480784    0.085961
H     -1.760730   -0.090204    1.420098
6

C     -1.417392    0.294859    0.352965
H     -2.646060    0.203525   -0.213980
H     -2.376062    0.137566   -1.424860
C     -0.835516    1.433459    0.138358
H     -1.240551    2.184994    0.968215
H      0.001099    1.319439   -0.377986
6

C     -1.365861   -0.055179    0.124564
H     -1.501355    0.071186    1.357680
H     -2.669241    0.516355   -0.005082
C     -0.870774    1.263932   -0.022148
H     -1.198169    2.189179    0.827988
H      0.074950    1.681755   -0.232691
6

C     -1.572718    0.192854    0.053132
H     -2.657791    0.174280    0.037394
H     -1.398213    0.229898    1.152112
C     -2.856141   -1.563923   -0.137117
H     -3.807355   -1.254678   -0.098959
H     -2.128693   -2.436096   -0.056405
6

C      0.022515    0.547059    2.207303
H      0.972787    0.765852    1.812911
H     -0.515954    1.282315    3.010317
C     -0.792988    1.430593    0.184047
H      0.136929    1.419142   -0.226232
H     -1.245668    2.220461    0.849859
6

C     -1.550477    0.230214   -0.118617
H     -2.625065    0.283558    0.221084
H      0.382963    0.236089   -2.107949
C     -0.857156    1.364035    0.131049
H      0.289619    1.431335   -0.170586
H     -1.395341    2.127133    0.804642
6

C     -1.566928    0.244467   -0.139083
H     -2.613674    0.267050    0.230235
H      0.351810    0.337068   -2.160768
C     -0.859511    1.364033    0.145618
H      0.268728    1.437854   -0.149532
H     -1.367035    2.122872    0.780334
6

C     -1.674886    0.107898    0.312172
H     -2.605355    0.016257   -0.293477
H     -0.333084    0.351289    0.946095
C     -0.920111    1.530991    0.224682
H     -0.046164    1.441131   -0.292825
H     -0.891904    2.339998    0.917021
6

C     -0.579067    1.254289    0.141333
H      0.273590    1.718007   -0.254966
H     -2.994089   -0.018231   -0.013233
C     -1.582768    0.319589    0.171385
H     -0.840437   -0.658455    0.323632
H     -1.478337    0.178818    1.192252
6

C     -0.979303    1.513054    0.067358
H      0.286362    1.365491   -0.081092
H     -1.169392    2.321876    0.878244
C     -1.655845    0.171007   -0.198720
H     -2.620242    0.064847    0.201783
H     -0.405855   -1.386714   -1.608440
6

C     -2.029383    0.488250    0.006560
H     -2.820933   -0.289153    0.040989
H      0.544335    1.645644   -0.254475
C     -0.658893    1.315709    0.272888
H     -0.064014    1.104235    1.690276
H     -1.173546    2.275826    0.801611
6

C     -1.860233    0.395879    0.217222
H     -2.649936   -0.147093   -0.130921
H     -1.116802    0.440050    0.937229
C     -0.894071    1.398547    0.143355
H     -1.168610    2.362585    0.997984
H      0.159201    1.217260   -0.114557
6

C     -0.607413    1.229598    0.147578
H      0.029964    1.885387   -0.337829
H     -1.150817    2.120858    0.621528
C     -1.380017    0.128248    0.019283
H     -1.972974   -0.148589    1.324720
H     -2.449193    0.451726    0.275030
6

C     -0.675087    1.197425    0.091187
H      0.237354    1.975416   -0.319310
H     -1.249603    1.865665    0.602837
C     -1.461885    0.144643    0.010035
H     -1.897216   -0.023148    1.356945
H     -2.484013    0.507226    0.308618
6

C     -0.810405    1.332152    0.064659
H      0.142699    1.484626   -0.160282
H     -1.394732    1.983604    0.848239
C     -1.530812    0.070136    0.093615
H     -1.346924    0.359938    1.093726
H     -2.590277    0.436772    0.110355
6

C     -0.758972    1.223239    0.162336
H      0.207309    1.496255   -0.111626
H     -1.363458    2.044816    0.750209
C     -1.724220    0.378346    0.106115
H     -1.156273    0.323917    1.140957
H     -2.734837    0.200655    0.002321
6

C     -0.622765    1.330831    0.065081
H      0.361198    1.864242   -0.254563
H     -1.246866    2.009625    0.629817
C     -1.481282    0.283067    0.027766
H     -1.962542   -0.075057    1.130768
H     -2.578193    0.254520    0.451442
6

C     -0.568762    1.335868    0.204206
H      0.344175    1.877756   -0.362008
H     -1.179785    2.242449    0.634797
C     -1.411086    0.227522    0.044820
H     -2.014381   -0.197983    1.154272
H     -2.700612    0.181616    0.374224
6

C     -1.602965    0.188878   -0.173035
H     -2.663945    0.210806    0.228088
H      0.004330   -1.153227   -1.652672
C     -0.827009    1.382877    0.157664
H      0.185103    1.512317   -0.065139
H     -1.229603    2.141398    0.719994
6

C     -0.555605    1.325459    0.615193
H     -1.063672    2.216434    0.632981
H      0.022083    1.614978   -0.334019
C     -1.845126    0.327757    0.079184
H      0.317046    1.488972    1.624848
H     -2.696100   -0.048352   -0.125767
6

C     -1.794987    0.279639    0.057583
H     -1.533042    0.221464    1.147336
H     -1.193400   -0.493421   -0.366241
C     -0.661218    1.190183    0.125373
H     -2.681784    0.026586    0.115673
H      0.310359    1.734600   -0.209193
6

C     -0.764822    1.450028    0.188273
H     -1.334058    2.342604    0.564377
H      0.366436    1.431501    0.141121
C     -1.838965    0.316443   -0.250298
H     -2.613522    0.081093    0.518530
H     -1.345518    0.045560    0.888308
6

C     -0.862075    1.362869    0.315273
H     -0.798402    2.468847    0.888667
H      0.071756    1.545619   -0.293575
C     -1.837315    0.318051    0.255788
H     -2.712384   -0.259110   -0.298581
H     -0.621942    0.932196    1.780303
6

C     -0.738728    1.485848    0.314430
H     -1.092619    2.316223    0.929623
H      0.091094    1.373497   -0.404701
C     -1.741093    0.377183    0.288673
H     -2.657073   -0.116476   -0.260453
H     -0.250841    0.601358    1.358886
6

C     -0.538656    1.384647    0.448688
H      0.086413    1.455806   -0.430315
H      0.217817    1.887429    0.995283
C     -1.617102    0.367234    0.198498
H     -2.610120    0.281298   -0.060077
H     -1.458955    1.947291    0.710779
6

C     -0.619416    1.316801    0.402925
H     -0.150614    1.383348    1.418556
H     -1.075850    2.192485    0.704076
C     -1.587880    0.372042    0.121277
H     -2.876490   -0.026153   -0.100340
H      0.021216    1.581100   -0.260365
6

C     -1.537383    0.167535   -0.023500
H      0.155096    0.300006    1.133542
H     -2.702689    0.081074    0.027985
C     -0.943731    1.398495    0.124379
H     -1.051391    2.351264    0.870384
H      0.096775    1.437908   -0.131675
6

C     -1.168960    0.094966    0.328389
H     -1.896354   -0.116387    1.202801
H     -2.448779    0.422739    0.045909
C     -0.925172    1.467259    0.062011
H     -0.974305    2.161885    0.755808
H     -0.116880    1.636766   -0.344607
6

C     -2.271569    0.435289    0.129413
H     -1.728408    0.607958    1.162471
H     -1.778602   -0.506393   -0.234414
C     -0.856203    1.791363    0.166649
H     -0.265934    1.177706   -0.360617
H     -0.629734    2.161304    1.186809
6

C     -1.521993   -0.141553    0.045571
H     -2.685297    0.263102    0.140625
H     -1.652657   -0.179836    1.209730
C     -0.875591    1.588046    0.160316
H     -1.042524    2.485500    0.721183
H      0.247612    1.651968   -0.227113
6

C     -1.634889    0.374446    0.021609
H     -2.695228   -0.131415   -0.077701
H     -0.743158    1.163196    1.748926
C     -0.913550    1.352376    0.265035
H     -0.902325    2.400448    0.820351
H      0.007573    1.440420   -0.161722
6

C     -1.463773   -0.014888   -0.087528
H     -2.131150    0.726908    0.561045
H     -1.479561   -0.329016    0.835850
C     -1.107546    1.471234    0.115997
H     -1.349998    2.521491    0.483433
H      0.001576    1.291499    0.141514
6

C     -0.810011    1.339985    0.564719
H     -1.022782    2.393072    0.685078
H     -0.042855    1.314415   -0.363628
C     -1.990534    0.748553    0.145014
H     -2.244017   -0.190349   -0.165374
H     -1.420251    0.061552    1.184503
6

C     -0.681848    1.371024    0.348456
H      0.080816    1.601036   -0.419873
H     -1.060891    2.267052    0.867358
C     -1.742741    0.156865    0.390069
H     -2.733756    0.040300   -0.318436
H     -1.953238    1.446636    0.322438
6

C     -1.061188    1.701809    0.107858
H     -0.638945    2.393612    1.044924
H     -0.026742    1.237329   -0.138512
C     -2.285710    0.404962    0.284317
H     -2.042355   -0.474729   -0.194034
H     -1.475510    0.404245    0.945758
6

C     -0.750548    1.376807    0.310780
H     -0.181766    1.470673   -0.456407
H     -1.151688    2.353789    0.739892
C     -1.116033    0.250783    0.245944
H     -1.843360   -0.164697    1.158665
H     -2.487054    0.379873    0.051436
6

C     -0.723280    1.390211    0.146549
H      0.092204    1.787549   -0.554969
H     -1.323398    2.185666    0.718970
C     -1.447403   -0.166106    0.340756
H     -1.681521   -0.294834    1.549891
H     -2.447053    0.764743   -0.150886
6

C     -0.880299    1.399812    0.346570
H      0.115416    1.334231   -0.372198
H     -1.184165    2.365151    0.903978
C     -1.326906    0.270583    0.089428
H     -1.468929    0.218695    1.115507
H     -2.785566    0.078756   -0.032973
6

C     -0.850607    1.390921    0.206461
H      0.116996    1.469172   -0.276778
H     -1.072769    2.371079    0.930204
C     -1.685659    0.128483    0.070362
H     -1.169002    0.265197    1.434046
H     -2.869409    0.042376   -0.313983
6

C     -0.463541    1.269001    0.207237
H     -1.100917    2.009391    0.773574
H     -0.267289    1.953937   -0.601863
C     -1.561757   -0.214633    0.340188
H     -2.127661    0.674905   -0.108849
H     -2.009285   -0.025373    1.440025
6

C     -0.666576    1.347006    0.255243
H     -1.145873    2.262721    0.660408
H      0.036256    1.930526   -0.573168
C     -1.655864   -0.213774    0.335391
H     -2.125067    0.674411   -0.001385
H     -1.973328   -0.333662    1.373822
6

C     -0.664527    1.271515    0.170104
H     -1.217297    2.421092    0.987556
H      0.321663    1.514016   -0.347119
C     -1.802124    0.348125    0.171663
H      0.029906    0.961243    1.091369
H     -2.776134   -0.118472   -0.114632
6

C     -0.738635    1.454792    0.478258
H     -0.946367    2.549284    0.924319
H     -2.617285   -0.521457   -0.319988
C     -2.119597    0.601653    0.348054
H      0.145125    1.283659   -0.328932
H     -1.253691    0.299297    0.948601
6

C     -1.717089    0.127194    0.203212
H     -1.505223   -1.003096    0.456912
H     -0.957508    2.302070    0.757146
C     -1.049847    1.560461    0.227617
H     -2.592974    0.102646   -0.128593
H     -1.352579    0.094063    1.181660
6

C     -1.911151    0.502463    0.193536
H     -1.387317    0.490591    1.220801
H     -2.135851   -0.330122   -0.314039
C     -1.365089    1.853574    0.144682
H     -0.439237    1.961429    0.866636
H     -0.291805    1.189293   -0.061305
6

C     -1.393944    0.134439    0.102579
H     -2.396548    0.564179    0.128054
H     -1.671990    0.102460    1.275507
C     -0.779167    1.286674    0.178223
H     -1.292404    1.926117    0.695872
H      0.003604    1.653359   -0.329923
6

C     -1.566833    0.192049    0.024067
H     -1.430655    0.229216    1.147565
H     -2.631234    0.175767    0.071007
C     -0.207771   -0.717924   -1.370978
H     -0.516396   -1.617368   -1.339534
H      0.525197   -1.238927   -0.798532
6

C     -0.754869    1.515559    0.218001
H      0.151131    1.367366   -0.263164
H     -1.297990    2.187272    0.852836
C     -1.014518   -1.361736    0.865791
H     -0.311754   -1.531636    1.556658
H     -1.730111   -1.526002    0.140874
6

C     -1.367163    0.240035    0.175132
H     -2.956944   -0.516747   -1.029108
H     -1.695454   -0.081659    1.219031
C     -0.742162    1.512612    0.196941
H     -1.194360    2.351352    0.829295
H      0.129025    1.470693   -0.406108
6

C     -1.551182    0.286824   -0.171997
H      0.175254    1.511850    0.173595
H     -2.394696    0.267784    0.640310
C     -0.847377    1.473093   -0.143881
H     -1.217273    2.211704    0.606955
H     -1.695176   -0.084026    0.945329
6

C     -1.585601    0.029874   -0.036327
H     -1.232029    2.043738    0.668169
H     -2.658844    0.403528    0.161101
C     -0.841907    1.274425    0.181385
H      0.179962    1.684711   -0.106756
H     -1.601909   -0.097466    1.840938
6

C     -1.875891    0.362119    0.294826
H     -0.993732    0.369905    1.015407
H     -2.688415    0.000441   -0.240340
C     -0.881061    1.353570    0.234952
H      0.138156    1.274214   -0.145727
H     -1.229507    2.306979    0.891194
6

C     -1.679484    0.262643   -0.317309
H     -2.512749    0.093626    0.248058
H     -1.657523   -0.150746   -2.568422
C     -0.926249    1.383350    0.256847
H      0.171055    1.355848   -0.095013
H     -1.190993    2.340809    0.774989
6

C     -1.650686    0.360077    0.337270
H     -2.594532    0.042860   -0.196312
H     -0.011612   -0.388221   -1.063831
C     -0.891191    1.468629    0.106518
H     -1.096891    2.152655    0.910684
H      0.094880    1.412056   -0.290588
6

C     -0.841364    1.411051    0.159877
H      0.149996    1.524936   -0.362488
H     -2.341067    1.400237   -1.859780
C     -1.607486    0.301974    0.319483
H     -1.486918    0.022676    1.260682
H     -2.574901    0.191836   -0.140782
6

C     -1.797785    0.351680    0.190992
H     -2.852578    0.095620   -0.096108
H     -0.037459   -0.539200    1.957499
C     -0.763732    0.950119    0.010112
H      0.164545    1.692885   -0.001794
H     -1.111122    0.362169    1.133569
6

C     -1.841553    0.358512    0.215646
H     -1.047226    2.292718   -0.657999
H     -2.762421   -0.157023   -0.118569
C     -0.805895    1.443264    0.152139
H      0.299802    1.576734   -0.233568
H     -1.028352    2.214789    0.851924
6

C     -1.683861    0.334908    0.272441
H      0.376654    1.636200   -0.353246
H     -1.566776   -0.221195    1.215630
C     -0.739083    1.485417    0.252475
H     -0.730957    0.847149    1.121589
H     -1.257049    2.257704    0.626990
6

C     -1.938922    0.487289   -0.173216
H     -1.382623    2.360679   -1.078013
H     -2.733648   -0.322704    0.173357
C     -0.751717    1.385385   -0.002771
H      0.206716    1.564302    0.100326
H     -0.920849    2.322003    0.769876
6

C     -1.696563    0.374765    0.135416
H     -1.241541    2.357134    0.854659
H     -2.812803   -0.036735   -0.119726
C     -0.544992    1.200109    0.383324
H      0.157479    1.541003   -0.386101
H      0.330482    1.454041    1.131415
6

C     -0.933621    1.359584    0.063783
H      0.172923    1.493061   -0.022572
H     -1.232628    2.137880    0.747399
C     -1.628605    0.143033   -0.179715
H     -2.516490    0.302718    0.258677
H      0.269120   -0.759283   -1.164063
6

C     -0.843389    1.372050    0.074346
H      0.308288    1.475343   -0.111262
H     -1.400851    2.081906    0.778961
C     -1.607201    0.191959   -0.148291
H     -2.595267    0.315018    0.273819
H     -0.164140   -1.949894   -0.766215
6

C     -0.950611    1.355848    0.273801
H      0.073649    1.487335   -0.144109
H     -1.086756    2.284336    0.757436
C     -1.569238    0.099687   -0.103772
H     -1.027619   -2.206064   -0.285993
H     -2.605463    0.209070    0.084217
6

C     -0.857114    1.442082    0.090496
H      0.187910    1.435653   -0.102177
H     -1.149703    2.311627    0.860432
C     -1.614019    0.175390   -0.106923
H     -1.124370   -2.389994   -0.091697
H     -2.705494    0.071524    0.125744
6

C     -1.286844    0.069730    0.187547
H     -1.444291    0.199004    1.246750
H     -2.529539    0.533104   -0.027737
C     -1.006578    1.390291    0.048882
H     -1.274973    2.046291    0.869669
H      0.011775    1.428808   -0.274799
6

C     -2.086906    0.612120    0.378767
H     -2.551697   -0.129761   -0.241635
H     -1.263905   -0.054415    1.184420
C     -0.943114    1.331711    0.419296
H      0.259322    1.630757   -0.227689
H     -0.944150    2.276816    0.537151
6

C      0.256375    0.652530    1.887764
H      0.017094    0.444745    2.965823
H      0.930259    1.799485    2.279056
C     -0.799397    1.376934    0.154940
H     -1.205626    2.238930    0.843460
H      0.103296    1.454333   -0.190727
6

C     -1.729270    0.110551   -0.153227
H     -1.241121    0.475926    0.976872
H     -2.791820    0.118531    0.259172
C     -0.721475    1.133180   -0.019465
H      0.123013    1.614285    0.173420
H     -0.742378    1.940840   -1.664368
6

C     -1.669045    0.221000   -0.248629
H     -0.717774   -0.643520   -2.276727
H     -2.737759    0.052525    0.227073
C     -0.840342    1.412281    0.271660
H     -1.170772    2.242299    0.715523
H      0.279498    1.508171   -0.098054
6

C     -1.721852    0.235013   -0.215773
H     -0.786692   -0.718070   -2.516294
H     -2.646485    0.000373    0.182936
C     -0.836580    1.401092    0.150042
H     -1.134471    2.363154    0.824685
H      0.200968    1.436645   -0.074317
6

C     -1.566115    0.123386   -0.274421
H     -2.597767    0.206573    0.262036
H     -0.039648   -0.356561   -1.850051
C     -0.888827    1.343385    0.063962
H      0.113110    1.416108   -0.013251
H     -1.198821    2.346824    0.829247
6

C     -1.684907    0.386214    0.070568
H     -2.727962   -0.061926   -0.122076
H     -0.049334    1.589537   -0.246320
C     -0.746805    1.294642    0.539267
H     -0.929412    2.227808    0.626134
H      0.099212    1.471091    1.317718
6

C     -1.687238    0.423984    0.148759
H     -2.620392   -0.080022   -0.173473
H      0.000319    0.647089    1.192494
C     -0.703730    1.356339    0.348866
H      0.068926    1.308632   -0.411038
H     -1.195986    2.427343    0.954458
6

C     -1.085535    1.493128    0.479049
H     -0.957785    2.644921    0.574455
H     -1.327837   -0.195526    1.145218
C     -1.495166    0.070568    0.100726
H     -2.803674    0.173344   -0.058408
H     -0.391764   -0.182019   -0.658014
6

C     -1.202618    1.601250    0.155254
H     -0.785342    2.376935    0.788682
H     -2.686739   -0.009559   -0.214195
C     -1.640614    0.187023    0.041154
H     -0.828488   -0.092132   -0.718363
H     -1.354683    0.030786    1.470145
6

C     -1.778722    0.409109   -0.007115
H     -2.745963   -0.269589   -0.092546
H     -0.921325    2.428713    0.801559
C     -0.754793    1.421123    0.381038
H      0.063667    0.937018    1.406673
H      0.062384    1.446921   -0.215363
6

C     -1.698505    0.307771   -0.162093
H     -2.724772    0.003335    0.234753
H      0.291212    1.528361    0.023733
C     -0.876118    1.379007   -0.026491
H     -0.684722    2.666552   -0.950172
H     -1.130237    2.217802    0.797671
6

C     -1.876667    0.358965   -0.024833
H     -2.711767   -0.210721   -0.092805
H      0.123513    1.155706    1.232585
C     -0.721966    1.226869    0.501699
H      0.099624    1.598708   -0.254209
H     -0.927644    2.462455    0.737721
6

C     -1.872253    0.412861    0.100679
H     -2.676208   -0.289597   -0.076524
H      0.188162    1.461862   -0.101874
C     -0.928574    1.597727    0.118444
H     -0.731145    2.560573   -0.689191
H     -0.849548    2.253422    0.826846
6

C     -2.068960    0.497302    0.445069
H     -1.110680    0.375665    0.897652
H     -2.473532   -0.400281   -0.419637
C     -0.921268    1.593473    0.361419
H     -0.081267    1.095714   -0.208521
H     -0.874743    2.505355    0.974329
6

C     -1.958522    0.560449    0.229715
H     -0.963881    0.123171    1.261340
H     -2.470804    0.010620   -0.359533
C     -0.837998    1.469418    0.362650
H     -0.050323    1.100431   -0.236066
H     -1.248922    2.403139    0.792205
6

C     -0.700861    1.531612    0.066729
H      0.348753    1.467045   -0.016884
H     -1.525168    1.844724    0.643781
C     -1.556675    0.257423   -0.163804
H     -1.501207    0.219413    0.991347
H     -2.595293    0.347010    0.529143
6

C     -1.040030    1.340033    0.182363
H     -0.024143    1.444660   -0.102130
H     -0.844314    2.411017    0.896094
C     -1.717237    0.180265    0.176720
H     -1.185899    0.341563    1.159751
H     -2.718826   -0.050309   -0.262487
6

C     -1.568196    0.127156   -0.138089
H     -2.515347    0.386880    0.221171
H     -0.208796   -1.700730   -0.820995
C     -0.862116    1.367783    0.171486
H      0.083284    1.491330   -0.079571
H     -1.276045    2.063128    0.692575
6

C     -1.787783    0.406427   -0.043979
H     -1.871534    2.248057   -0.695334
H     -2.653598   -0.077645    0.068408
C     -0.883444    1.308356    0.208638
H      0.207674    1.561442   -0.103354
H     -1.021268    2.237695    0.737860
6

C     -1.566502   -0.042347   -0.014320
H     -2.624800   -0.066878    0.052088
H     -1.493510    0.140172    1.053580
C     -1.107535    1.703872    0.086761
H     -0.684995    2.546609    0.850637
H     -0.053107    1.385800    0.021566
6

C     -1.106865    1.604233    0.240663
H     -0.905038    2.436667    0.756207
H     -1.494642   -1.490625   -0.030071
C     -1.781420    0.005375    0.219590
H     -2.577280    0.129968   -0.199961
H     -1.299394    0.010192    1.224543
6

C     -1.157260    1.590507    0.291774
H     -0.794609    2.518480    0.786869
H     -2.806972    0.009875   -0.100671
C     -1.491385    0.006535    0.060585
H     -1.419772    0.061038    1.202484
H     -0.826157   -0.275489   -0.855429
6

C     -1.526261    0.382835   -0.013237
H     -2.578426    0.196436    0.061580
H     -0.751282    0.332285    1.720872
C     -0.820960    1.373796    0.333378
H     -1.396752    2.179993    0.830043
H      0.183978    1.303217   -0.344191
6

C     -1.942307    0.494771    0.228330
H     -2.001267   -0.433013   -0.282839
H     -1.541167    0.438134    1.120591
C     -1.034110    1.964287    0.061014
H     -0.524064    2.198559    1.049452
H     -0.487534    1.004490   -0.126236
6

C     -0.713929    1.386735    0.427747
H      0.215771    1.414487   -0.322146
H     -1.050713    2.432335    0.844021
C     -1.834140    0.530322    0.014569
H      0.349397    0.976264    1.627884
H     -2.755409   -0.327604   -0.096619
6

C     -1.675173    0.306656    0.210866
H     -0.604044   -0.478501    0.026719
H     -1.446072    0.050882    1.142066
C     -1.091712    1.555688    0.266653
H     -2.632060   -0.085473   -0.109648
H     -0.824980    2.358682    0.731104
6

C     -1.674603   -0.012713    0.193848
H     -1.087688   -0.709510    0.357115
H     -1.439838    0.232967    1.185912
C     -0.604622    1.165679    0.160904
H     -2.722487    0.288485   -0.061013
H      0.080877    1.778055   -0.242879
6

C     -0.666735    1.411438    0.468309
H     -1.224716    2.256516    0.830511
H     -0.374288    0.984819    1.773568
C     -1.726943    0.400722    0.163409
H      0.047704    1.358147   -0.431157
H     -2.567730    0.009454   -0.163499
6

C     -0.909984    1.418901    0.164414
H      0.177871    1.382202   -0.116788
H     -1.248690    2.266250    0.814209
C     -1.606789    0.157229   -0.203848
H     -2.550829    0.211693    0.209586
H      0.053376   -1.005590   -1.421226
6

C     -0.946627    1.514466    0.144889
H     -0.847883    2.318425    0.848626
H      0.028872    1.326060    0.009930
C     -1.859524    0.458184   -0.031559
H     -2.698963   -0.312935   -0.102783
H     -1.206326    0.363028    1.181208
6

C     -0.646488    1.306998    0.278725
H     -1.384831    2.134016    0.754670
H      0.013469    1.764571   -0.730701
C     -1.520314   -0.085606    0.314737
H     -1.981988   -0.256576    1.446154
H     -2.010298    0.803824   -0.013274
6

C     -0.787204    1.315545    0.517105
H     -1.063092    2.373423    0.757952
H     -0.058743    1.413982   -0.310434
C     -1.498700    0.300245   -0.010068
H      0.039001    1.899909    1.873359
H     -2.730681    0.033080   -0.086982
6

C     -0.797323    1.271174    0.555841
H     -1.105327    2.268242    0.684431
H     -0.018173    1.493985   -0.312478
C     -1.572126    0.268451   -0.006962
H      0.284913    2.010152    1.764368
H     -2.645473    0.134424   -0.053259
6

C     -0.871054    1.385235    0.288159
H      0.125507    1.320221   -0.238305
H     -1.266806    2.373259    0.863953
C     -1.483867    0.173635   -0.160658
H     -2.642200    0.183926    0.114424
H      0.084925   -1.560653   -1.105402
6

C     -0.922290    1.380129    0.221014
H      0.091863    1.493836   -0.083306
H     -1.078863    2.228383    0.728978
C     -1.626666    0.187008   -0.128197
H     -2.602464    0.146921    0.129084
H      0.075367   -1.607099   -1.179991
6

C     -0.762468    1.460639    0.341108
H     -0.949482    2.491027    0.814386
H     -0.018583    1.263881   -0.203203
C     -2.113424    0.667921    0.047678
H     -2.164632   -0.354644    0.017901
H     -1.521861    0.138405    1.032442
6

C     -0.597261    1.304795    0.392593
H      0.104270    1.478248   -0.358642
H     -0.273867    1.040253    1.672456
C     -1.680554    0.329197    0.096818
H     -2.662017    0.114010   -0.053982
H     -1.302859    2.210026    0.790786
6

C     -0.517337    1.265512    0.457128
H      0.146060    1.715252   -0.296788
H      0.140675    1.306220    1.101620
C     -1.806870    0.222807    0.096027
H     -2.829259    0.008601   -0.078810
H     -1.131014    2.224103    0.690016
6

C     -0.597315    1.290471    0.428131
H     -0.036023    1.441475   -0.309016
H      0.272624    1.241346    1.197773
C     -1.737086    0.310821    0.019762
H     -2.624819   -0.011056   -0.087352
H     -1.143176    2.404565    0.816047
6

C     -0.681571    1.544587   -0.031668
H      0.432609    1.556218   -0.008198
H     -1.262915    1.990144    0.742180
C     -1.854215    0.409201   -0.091057
H     -2.772328   -0.063874    0.256316
H     -1.089199    1.881216   -1.228250
6

C     -0.811026    1.325609    0.166497
H     -1.629951    1.972443   -1.238956
H      0.225841    1.435187   -0.068946
C     -1.586392    0.403116   -0.241450
H     -2.575821    0.245356    0.334111
H     -1.391021    2.027007    0.677361
6

C     -0.888947    1.479617    0.075029
H      0.170333    1.245241   -0.017865
H     -1.274186    2.306633    0.838860
C     -1.587728    0.321794   -0.359789
H     -2.257662    1.655275   -1.534963
H     -2.557891    0.082991    0.331337
6

C     -1.717088    0.287576   -0.068145
H     -2.708162   -0.205847   -0.043263
H     -1.390158    0.184612    1.216861
C     -1.022925    1.498042    0.256536
H     -0.777542    2.444333    0.780396
H      0.085426    1.458512   -0.092074
6

C     -1.544919    0.216699   -0.035660
H     -2.696547   -0.065900   -0.128789
H     -1.304176    0.456681    1.251343
C     -1.062597    1.561293    0.139211
H     -0.941082    2.222470    0.987370
H      0.018871    1.275984   -0.163162
6

C     -1.541352    0.111567    0.040592
H     -2.618696    0.373502    0.069918
H     -1.402810    0.258293    1.253108
C     -0.901913    1.409011    0.126700
H     -1.341546    1.994840    0.820582
H      0.275867    1.520016   -0.260589
6

C     -1.240938    0.089007    0.207981
H     -2.373065    0.624842   -0.025831
H     -1.429888   -0.004732    1.240477
C     -1.026978    1.480608    0.032902
H     -1.290546    2.215595    0.826555
H     -0.169035    1.261908   -0.231772
6

C     -1.398979    0.021060    0.293124
H     -2.315611    0.744321   -0.030833
H     -1.451312   -0.223291    1.311349
C     -1.125842    1.439188    0.079135
H     -1.286953    2.208065    0.671097
H      0.048246    1.477885   -0.273561
6

C     -1.810185    0.281263    0.131921
H     -2.728710    0.085827   -0.177007
H     -1.068647    0.394214    1.225359
C     -0.884334    1.360161    0.112638
H      0.135663    1.427225   -0.094051
H     -1.174237    2.118537    0.851452
6

C     -2.029379    0.519473    0.402976
H     -0.964519    0.103762    1.113179
H     -2.649864   -0.032893   -0.316750
C     -0.887399    1.374541    0.262888
H     -1.125641    2.323696    0.686905
H      0.126352    1.378650   -0.098887
6

C     -1.336402    0.047053    0.369398
H     -1.653217    0.062094    1.298614
H     -2.391704    0.720320   -0.041691
C     -0.799619    1.186462    0.051579
H     -1.354599    1.943950    0.803555
H      0.005091    1.707350   -0.431144
6

C     -1.944341    0.541322   -0.319588
H     -1.015310    2.227783    0.609902
H     -2.567991   -0.132479    0.311159
C     -0.773833    1.162337    0.137243
H      0.163055    1.637313    0.128856
H     -1.265481    0.752900    1.150878
6

C     -1.662922    0.242811    0.054448
H      0.311932    1.547001   -0.327846
H     -2.687808    0.273071    0.085512
C     -0.613584    1.271963    0.252518
H      0.281234    1.477489    1.357765
H     -1.486037    2.101431    0.802941
6

C     -0.986184    1.536272    0.232932
H     -0.969253    2.248552    0.832928
H     -0.167855    1.345519   -0.176478
C     -1.471223    0.074293    0.057836
H     -1.383402    0.261646    1.202894
H     -2.552534    0.200946   -0.099801
6

C     -0.901557    1.442051    0.187500
H     -1.030446    2.501848    0.830551
H      0.185950    1.401349   -0.140284
C     -1.621816    0.324130   -0.087835
H     -1.498871    0.098945    1.120570
H     -2.663711   -0.101094    0.139809
6

C     -1.554697    0.295367    0.015971
H     -0.787678    0.871426    2.488677
H     -2.626528    0.191407   -0.087130
C     -0.683280    1.218219    0.689153
H     -1.141158    2.217399    0.612495
H     -0.132757    1.513884   -0.362917
6

C     -1.129602    1.552947    0.088987
H     -2.574040    0.034156   -0.098951
H     -0.881267    2.195629    0.888227
C     -1.633803    0.146693    0.128162
H     -1.451285    0.257009    1.234617
H     -1.031853   -0.620168   -0.133892
6

C     -0.801287    1.234012    0.156591
H      0.117945    1.809977   -0.268055
H     -1.167073    1.985230    0.694336
C     -1.517201    0.035902    0.076539
H     -1.445731    0.152641    1.453042
H     -2.717104    0.449466   -0.062141
6

C     -0.899568    1.202412    0.308911
H     -1.221561    2.365181    0.763943
H     -0.118138    1.479551   -0.348492
C     -1.453502    0.083244    0.197519
H     -2.542065    0.513476   -0.234529
H     -1.295616    0.023363    1.362958
6

C     -0.750721    1.496147    0.183024
H      0.306980    1.456941   -0.148115
H     -1.223258    2.312834    0.811718
C     -1.558287    0.207828   -0.112867
H     -1.440212    0.182208    1.117988
H     -2.864953    0.011270    0.198564
6

C     -1.610644    0.210822   -0.128933
H     -0.339563   -2.250746   -1.114769
H     -2.587267    0.202144    0.164741
C     -0.830122    1.334320    0.148565
H     -1.302806    2.278400    0.849706
H      0.192418    1.410590   -0.166507
6

C     -1.679912    0.208324   -0.171924
H     -2.735144   -0.015523    0.158748
H     -0.001057   -1.285175    0.833262
C     -0.899009    1.465370    0.162653
H      0.204508    1.507068   -0.036495
H     -1.028863    2.271036    0.754589
6

C     -1.836967    0.105420   -0.172032
H     -2.804719   -0.027870    0.526383
H     -1.231798    0.215499    0.671598
C     -0.859595    1.557246   -0.004434
H      0.310823    1.460922    0.414042
H     -1.108195    2.356011    0.614756
6

C     -0.718223    1.286922    0.299266
H      0.003784    2.148268    1.355353
H     -0.012115    1.452695   -0.296230
C     -1.456793    0.226162    0.098835
H     -2.621500    0.349745   -0.008140
H     -1.329789    2.120753    0.773842
6

C     -0.827646    1.308087    0.143634
H      0.205120    1.531625   -0.061809
H     -1.230999    2.230707    0.753027
C     -1.606719    0.160353   -0.209140
H     -2.678175    0.205503    0.241860
H     -0.685402   -1.431414   -2.085225
6

C     -0.917275    1.331428    0.168880
H      0.177122    1.481496   -0.065458
H     -1.223188    2.165816    0.722615
C     -1.623381    0.221972   -0.200219
H     -2.551699    0.235563    0.241755
H     -0.396807   -0.210432   -2.450210
6

C     -0.777198    1.368218    0.256353
H     -1.223899    2.226703    0.754830
H      0.123858    1.484437   -0.156684
C     -1.590992    0.160053   -0.123734
H     -0.191481   -1.745682   -1.044825
H     -2.670189    0.196865    0.136807
6

C     -0.602609    1.285942    0.402202
H      0.191491    1.479734   -0.334864
H      0.073811    1.078651    1.232636
C     -1.893571    0.571893    0.081180
H     -2.657626   -0.197803   -0.080957
H     -1.176106    2.296510    0.800012
6

C     -0.544502    1.155905    0.448132
H     -1.263350    2.287492    0.755791
H      0.082523    1.614305   -0.348095
C     -1.711457    0.223032    0.066519
H     -2.701633    0.155542   -0.054775
H     -0.200744    0.982414    1.533026
6

C     -0.939733    1.454224    0.149839
H     -0.525693    1.971688   -0.795501
H      0.087528    1.562930   -0.144379
C     -1.769804    0.204248    0.174045
H     -2.781622   -0.233749   -0.200812
H     -0.734789    2.448623    0.888878
6

C     -1.594155   -0.192402    0.355282
H     -1.889844    0.217946    1.563226
H     -2.264536    0.661156   -0.208761
C     -0.448662    1.296781    0.109385
H     -1.214587    1.714042    0.885534
H     -0.118666    1.969705   -0.654353
6

C     -1.948513    0.714035    0.128877
H     -2.514256   -0.288115    0.078670
H     -1.445493    0.047448    1.066728
C     -0.877465    1.389440    0.120990
H      0.221168    1.468503   -0.051825
H     -0.965890    2.335917    0.706872
6

C     -1.329914    0.125984    0.039192
H     -2.142306   -1.344315    0.126289
H     -2.288749    0.523838   -0.045614
C     -1.095042    1.274076    0.380231
H     -1.194105    2.240025    0.795220
H     -0.230610    1.272353   -0.301456
6

C     -0.828109    1.379545   -0.038978
H     -1.389900    1.829879    0.624970
H      0.308457    1.545995    0.134208
C     -1.660132    0.306616   -0.168740
H     -2.578741    0.310618    0.481692
H     -1.382026    0.294574    1.017159
6

C     -1.667021   -0.005156    0.131351
H     -1.288136    0.360613    1.192945
H     -2.784126    0.258660   -0.052349
C     -0.854350    1.197851    0.029140
H      0.127154    1.749579   -0.061992
H     -1.063972    2.105683    0.811216
6

C     -2.179735    0.579418    0.348903
H     -1.174629    0.095931    1.112116
H     -2.430976   -0.369933   -0.342983
C     -0.971922    1.587304    0.280854
H      0.172499    1.201645   -0.243175
H     -0.945688    2.572863    0.894596
6

C     -1.528782    0.111144    0.067716
H     -2.417565    0.459557   -0.243842
H     -1.353357    0.164076    1.489249
C     -0.888706    1.313970    0.362420
H     -1.234489    2.196322    0.823069
H     -0.107551    1.422159   -0.448301
6

C     -2.185590    0.574294    0.292125
H     -1.223623    0.231049    1.084157
H     -2.327720   -0.393696   -0.283862
C     -1.095535    1.620083    0.224888
H      0.172639    1.190062   -0.197853
H     -0.870621    2.445436    0.930856
6

C     -1.728556    0.234076    0.047153
H     -2.775253    0.147309   -0.001924
H     -1.213266    0.344435    1.197953
C     -0.837460    1.408394    0.170084
H     -1.221225    1.995887    0.744820
H      0.245310    1.537126   -0.107774
6

C     -1.847188    0.519424    0.048667
H     -2.652549   -0.173576   -0.066752
H      0.384489    0.731508    1.452998
C     -0.688050    1.284208    0.384586
H     -1.132114    2.333943    0.808133
H      0.181481    1.472277   -0.307061
6

C     -1.603392    0.261455    0.021784
H     -2.824549   -0.086322   -0.104230
H     -1.029620    2.456876    0.839238
C     -0.715194    1.332452    0.388819
H      0.034335    1.471815   -0.278038
H      0.136067    1.549187    1.830396
6

C     -1.650425    0.342459    0.185422
H     -2.675144    0.130661   -0.134272
H     -1.214580    2.215566    0.762055
C     -0.645947    1.181250    0.428720
H      0.047675    1.566341   -0.374352
H     -0.199376    1.457764    1.714332
6

C     -1.971567    0.359580    0.415156
H     -2.645262    0.008058   -0.302160
H     -0.871900    0.362711    0.964470
C     -1.061910    1.334282    0.115292
H     -1.040484    2.261882    0.804982
H      0.060672    1.340715    0.052572
6

C     -1.666792    0.033211    0.076173
H     -2.754938    0.232916    0.051056
H     -1.290221    0.298031    1.096276
C     -0.798797    1.275653    0.060553
H     -1.192985    2.298714    1.174721
H      0.150075    1.612661   -0.047287
6

C     -1.747382    2.291505    0.151938
H     -2.798867    2.563799    0.002581
H     -1.661015    2.493465    1.082282
C     -1.570472    0.191033   -0.006692
H     -1.395631    0.231601    1.205555
H     -2.662620    0.174398    0.043775
6

C     -0.847417    1.494650    0.219565
H      0.127451    1.444951   -0.375797
H     -1.313711    1.578736   -1.676149
C     -1.508945    0.311635    0.145926
H     -1.634989    0.038875    1.222710
H     -2.496772    0.162362    0.024367
6

C     -1.570563    0.306557    0.153657
H     -1.283623   -0.000320    1.106523
H     -3.258817    0.807836    1.259390
C     -0.945977    1.555458    0.097329
H      0.149270    1.305088   -0.088049
H     -1.219223    2.326250    0.744830
6

C     -1.772836    0.131282    0.343542
H     -2.807576    0.058094   -0.148863
H     -1.658784    0.091708   -1.585758
C     -0.791799    1.429507    0.044155
H     -1.010901    2.077138    0.811606
H      0.244692    1.740255   -0.182867
6

C     -1.543850    0.457283    0.109110
H     -1.230183    0.085083    1.170849
H     -3.082374    0.300810    1.541718
C     -0.872665    1.563756    0.058113
H      0.131975    1.204916   -0.105006
H     -1.355392    2.181996    0.781223
6

C     -0.870222    1.555905    0.088340
H     -1.918717    1.132468   -0.292030
H     -1.129141    2.425071    0.735211
C     -1.537653    0.149268    0.201465
H     -2.665867    0.227867    0.000066
H     -1.467115   -0.171675    1.215959
6

C     -0.633925    1.022783    0.222730
H      0.003031    1.804289   -0.365901
H     -1.478097    0.188615    1.297210
C     -1.626152    0.079736    0.250600
H     -1.138490   -1.132085   -0.066626
H     -2.625529    0.357051   -0.167868
6

C     -0.989202    1.587238    0.273820
H      0.023198    1.350979   -0.081209
H     -1.038534    2.542641    0.594492
C     -1.507853    0.230205    0.110392
H     -1.357724   -0.218029    1.116796
H     -2.763272    1.297394   -0.689465
6

C     -0.744303    1.228211    0.213402
H     -1.195019    2.156735    0.895675
H      0.073257    1.588428   -0.421730
C     -1.791189    0.245242    0.476138
H     -2.481166    0.217660   -0.295913
H     -0.172549   -0.740606    0.981618
6

C     -0.871142    1.272823    0.149720
H      0.211942    1.516571   -0.033203
H     -1.260026    2.230019    0.730653
C     -1.607643    0.163776   -0.290517
H     -2.611551    0.253087    0.310919
H     -0.584002    0.296514   -2.276035
6

C     -1.389507    0.029908    0.148799
H     -1.575156   -0.150959    1.225597
H     -2.251979    0.606036    0.003747
C     -0.941471    1.395245    0.370786
H     -0.193251    1.436409   -0.341724
H     -1.179086    2.350588    0.643106
6

C     -1.709559    0.219110    0.117016
H     -1.299525    0.227644    1.281363
H     -2.547336    0.170451   -0.173123
C     -0.969075    1.344178    0.309558
H      0.157931    1.433196   -0.339499
H     -1.162887    2.272650    0.854996
6

C     -0.729595    1.427389    0.146745
H      0.263514    1.406946   -0.143230
H     -1.472369    2.116748    0.782490
C     -1.559662    0.167589   -0.216891
H     -2.640307    0.317604    0.298458
H      0.066670   -0.559430   -1.505763
6

C     -0.891372    1.359996    0.140395
H      0.217864    1.480610   -0.071243
H     -1.257617    2.164959    0.745103
C     -1.656874    0.190734   -0.198479
H     -2.550421    0.239978    0.251796
H      0.063293   -0.621072   -1.714092
6

C     -4.565918   16.919991  -59.433544
H     -4.585724   17.284506  -60.421602
H     -4.585497   16.350285  -58.567613
C     -1.565312    0.192013    0.022084
H     -1.498148    0.226248    1.088222
H     -2.565263    0.178771    0.132332
6

C      7.851205    2.182233   64.627517
H      7.723178    1.683241   63.662868
H      8.029547    2.489227   65.667308
C     -1.525837    0.191667   -0.010221
H     -1.499502    0.227033    1.114230
H     -2.603383    0.178331    0.138629
6

C     56.478190   36.449908    4.670323
H     57.454808   36.928483    4.722510
H     55.449531   36.188420    4.645412
C     -1.554243    0.190967   -0.017531
H     -2.668769    0.174632    0.054620
H     -1.405711    0.231432    1.205549
6

C     -0.820582    1.344591    0.048819
H      0.301434    1.496906    0.098931
H     -1.045625    2.272063    0.790523
C     -1.890975    0.484385    0.029584
H     -2.807521   -0.267065    0.156078
H     -1.267182    0.336348    0.926377
6

C     -0.841700    1.219384    0.300249
H      0.106529    1.576866   -0.161549
H     -1.051713    2.348073    0.756325
C     -1.632116    0.231175   -0.066927
H     -2.175581    1.634026   -0.885887
H     -2.719420    0.060777    0.039475
6

C     -0.792476    1.222853    0.299750
H      0.186491    1.612210   -0.240612
H     -1.081170    2.262143    0.768773
C     -1.728409    0.346194    0.090977
H     -1.965929    1.831108   -0.716287
H     -2.722856   -0.007124   -0.051317
6

C     -1.522936    0.066577   -0.035588
H     -1.493869   -0.052296    1.567405
H     -2.917238    0.141386    0.053225
C     -0.726140    1.399182    0.306078
H     -1.237019    2.275887    0.806693
H      0.264912    1.553245   -0.262836
6

C     -1.326444   -0.092578    0.353574
H     -1.890237   -0.178680    1.372317
H     -2.394472    0.655112   -0.055684
C     -0.685917    1.303593    0.207158
H     -1.130848    2.122158    0.691108
H     -0.102531    1.857623   -0.518162
6

C     -1.370933    0.008263    0.194799
H     -2.353496   -0.489998    1.275567
H     -2.793253    0.294773   -0.147332
C     -0.821996    1.354543    0.291560
H     -1.183995    2.294637    0.885293
H      0.031757    1.484060   -0.356747
6

C     -1.702808    0.123848   -0.114808
H     -0.398134   -1.852019   -0.643653
H     -2.686522    0.248902    0.226465
C     -0.851609    1.381829    0.184612
H     -1.319021    2.073281    0.722267
H      0.421541    1.608416   -0.150963
6

C     -1.604832    0.117089   -0.088825
H      0.339317   -0.997322   -0.380995
H     -2.693579    0.148164    0.101722
C     -0.791287    1.419886    0.179078
H     -1.237875    2.316981    0.864858
H      0.189153    1.434156   -0.189261
6

C     -0.519217    1.276918    0.335635
H     -1.188838    2.046674    0.804540
H     -0.226620    1.836475   -0.681896
C     -1.299189   -0.196878    0.449192
H     -1.938237    0.018361    1.300074
H     -2.358348    0.685678   -0.157234
6

C     -0.713877    1.401401    0.366865
H     -1.202404    2.316878    0.878031
H      0.078831    1.349805   -0.375248
C     -1.663134    0.384182    0.123366
H     -0.016537    1.499705    1.301733
H     -2.637836   -0.015991   -0.125442
6

C     -1.541443    0.127412   -0.252349
H     -2.673515    0.186165    0.215443
H     -0.196929   -0.878938   -1.842693
C     -0.902162    1.361685    0.240744
H      0.190498    1.435066   -0.122566
H     -1.211798    2.325947    0.786301
6

C     -0.776443    1.500259    0.183653
H      0.241478    1.303191   -0.371724
H     -1.257168    2.278630    0.980565
C     -1.724459    0.416710    0.194411
H     -0.023101    1.287816    1.415196
H     -2.621828   -0.062514   -0.119332
6

C     -1.086021    1.444899    0.149651
H     -1.227185    2.438613    0.710647
H     -0.079623    1.345851   -0.273718
C     -1.289992    0.086071    0.178043
H     -1.388447   -0.259928    1.384084
H     -2.459182    0.611722   -0.098395
6

C     -0.711696    1.442988    0.303817
H     -1.138066    2.359608    0.791584
H     -0.058466    1.608057   -0.553354
C     -1.192930    0.005786    0.370995
H     -2.510333    0.428306   -0.000860
H     -1.918959   -0.177517    1.138130
6

C     -0.499231    1.322698    0.373919
H      0.166081    1.655858   -0.280104
H     -1.325722    1.956076    0.636069
C     -1.672944    0.330245    0.121568
H      0.244443    1.520343    1.127688
H     -2.806603    0.171399    0.016121
6

C     -1.515152    0.129150    0.219064
H     -1.484073   -0.148342    1.182555
H     -2.689404    0.069984   -0.084216
C     -1.142976    1.646320    0.221936
H     -1.254219   -1.224840   -0.199640
H     -0.838392    2.489322    0.701703
6

C     -1.145161    1.513949    0.228415
H     -1.662417    1.340069   -0.856879
H     -0.793896    2.315430    0.929627
C     -1.678216    0.296019    0.405219
H      0.029050    1.402284   -0.328768
H     -2.550197   -0.091406   -0.366919
6

C     -0.674979    1.282554    0.662160
H     -0.063335    1.437249   -0.367508
H     -1.062343    2.337896    0.689495
C     -1.693887    0.460418    0.011203
H     -2.643876   -0.081841   -0.127777
H      0.478585    1.360204    1.478238
6

C     -1.757731    0.094252    0.164263
H     -2.912342    0.143883   -0.089419
H     -1.558255   -0.971461   -0.171442
C     -0.550810    1.107785    0.119525
H      0.333295    1.946184   -0.312273
H     -1.473084    0.160368    1.354676
6

C     -0.771181    1.409558    0.186366
H      0.311761    1.580654   -0.116645
H     -1.036525    2.212509    0.754625
C     -1.764180    0.445882   -0.013513
H     -2.878295   -0.212328    0.056740
H     -0.062929    1.102002    1.275838
6

C     -0.879793    1.584422    0.162019
H     -0.867750    2.444858    0.972208
H      0.085400    1.399176   -0.245487
C     -1.858919    0.229602    0.214823
H     -2.617357   -0.221782   -0.235991
H     -1.744052    1.573986   -0.417377
6

C     -0.521882    1.162303    0.316923
H     -0.044214    1.400894    1.255615
H      0.188321    1.707209   -0.262066
C     -1.797625    0.204432    0.056435
H     -2.660826    0.247273    0.053747
H     -1.346409    2.115059    0.702535
6

C     -0.851669    1.487142    0.156890
H     -1.124509    2.283281    0.955799
H      0.144451    1.372733   -0.318817
C     -1.788250    0.300757    0.241808
H     -2.518444   -0.007638   -0.168108
H     -1.598335    2.099653   -0.396850
6

C     -0.687084    1.380559    0.022121
H      0.481667    1.810425   -0.256973
H     -2.864676    0.062553   -0.004546
C     -1.795051    0.142409    0.194435
H     -1.495528    0.056526    1.281734
H     -0.533209   -0.763675    0.207036
6

C     -1.559019    0.240440   -0.063542
H     -2.501035    0.088446    0.043906
H      0.129623    1.295321   -0.161231
C     -1.182696    1.520021    0.203789
H     -1.025293    2.292048    0.844651
H     -1.085242    2.265653   -1.512891
6

C     -1.068820    1.672415    0.160455
H     -0.858646    2.383370    0.740498
H     -2.668398    0.019581   -0.026061
C     -1.531005    0.182869    0.083963
H     -1.543128   -0.071800    1.282187
H     -0.403217   -0.855332    0.007219
6

C     -1.645094    0.433918   -0.232432
H     -2.668633   -0.187748    0.215007
H      0.162072    1.242254    0.052800
C     -0.945487    1.618846   -0.055367
H     -1.041277    2.329007    0.887565
H     -1.845955    3.050282   -0.403115
6

C     -2.407740    1.119410   -1.267126
H     -1.915782    1.904212   -1.484209
H     -3.078244    1.507873   -0.676971
C     -0.838623    1.360551    0.162222
H     -1.193027    2.241339    0.839426
H      0.129923    1.468307   -0.193975
6

C     -1.746197    0.398615    0.177465
H     -2.832293   -0.065966   -0.100070
H     -1.063400    0.522757    0.980518
C     -0.818758    1.413188    0.177421
H     -1.297947    2.137327    0.941640
H      0.228145    1.261307   -0.126663
6

C     -0.907569    1.393171    0.264518
H      0.286560    1.469794   -0.169896
H     -1.191821    2.346240    0.808524
C     -1.657169    0.103368   -0.205102
H     -2.668421    0.123702    0.169528
H     -0.054151   -0.586933   -1.469868
6

C     -0.957717    1.322266    0.245530
H      0.148749    1.511583   -0.089260
H     -1.110019    2.313743    0.746037
C     -1.591083    0.090546   -0.216244
H     -2.628350    0.198139    0.181510
H      0.120143   -0.585048   -1.445430
6

C     -0.778838    1.414650    0.253016
H      0.055409    1.338197   -0.189555
H     -1.370676    2.107027    0.751217
C     -1.513884    0.266357   -0.120404
H     -2.530431    0.310044    0.173299
H      0.600228   -1.159138   -1.065314
6

C     -0.889695    1.422325    0.161533
H      0.212334    1.387490   -0.152108
H     -1.241780    2.293760    0.848114
C     -1.607818    0.177094   -0.153939
H     -2.611461    0.155607    0.163973
H      0.449992   -0.751578   -0.661152
6

C     -1.307952   -0.131863    0.559612
H     -2.008928    0.547282   -0.123061
H     -2.207771    0.347984    1.067475
C     -0.498210    1.163272    0.206823
H     -0.484997    1.789666   -0.708964
H     -1.022592    1.950887    1.048426
6

C     -1.740974    0.321319    0.321504
H     -1.220567    1.711219   -1.090918
H     -2.709018   -0.143088   -0.259761
C     -0.862106    1.499345    0.182775
H      0.239848    1.399327   -0.387808
H     -1.066170    2.359372    1.010862
6

C     -0.829934    1.356752    0.208033
H      0.150729    1.547210   -0.444159
H     -1.368496    2.179323    0.837656
C     -1.427584   -0.017044    0.111043
H     -2.542246    0.543400   -0.039279
H     -1.512920    0.057587    1.377016
6

C     -1.011061    1.561724    0.075555
H     -2.914392   -0.057538   -0.168853
H     -0.897717    2.183779    0.937713
C     -1.469404    0.159698    0.155872
H     -1.377423    0.338772    1.240754
H     -1.253444   -0.979959   -0.022891
6

C     -1.603869    0.449850    0.104923
H     -0.091803    1.183120    1.276811
H     -2.607413    0.198551    0.013089
C     -0.625681    1.335630    0.330278
H     -1.401384    2.030217    0.746554
H      0.099928    1.422027   -0.327272
6

C     -1.745636    0.283701    0.129012
H      0.453155    1.697229   -0.284527
H     -2.836264    0.082949    0.023530
C     -0.698468    1.186310    0.163645
H     -0.093025    0.294629    0.746935
H     -1.311207    2.186086    0.835912
6

C     -1.772335    0.086117    0.017069
H     -1.160844    0.359908    0.865273
H     -2.937020    0.253415    0.356256
C     -0.645967    1.335507   -0.079171
H      0.270802    1.734369    0.316705
H     -1.285085    1.897912    0.574179
6

C     -1.551442    0.295522    0.054692
H     -1.299425    0.233187    1.263041
H     -2.678921   -0.016519   -0.195202
C     -1.008463    1.453359    0.301525
H     -0.015108    1.303052   -0.250825
H     -0.977091    2.398627    0.877080
6

C     -0.683040    1.403424    0.432042
H      0.331566    1.429513    0.266870
H     -1.472312    2.165474    0.296329
C     -1.896879    0.398243   -0.140882
H     -2.669899    0.189193    0.590003
H     -1.139886    0.081382    0.605949
6

C     -0.845662    1.507557    0.154398
H     -1.038483    2.366887    0.821427
H      0.145288    1.633563   -0.425650
C     -1.228187    0.068251    0.231963
H     -1.906544   -0.143445    1.171170
H     -2.656862    0.234415    0.097003
6

C     -1.729059    0.198124   -0.149765
H     -1.386503   -1.987510   -1.658854
H     -2.665657    0.120635    0.181702
C     -0.814953    1.374860    0.236512
H     -1.231899    2.204724    0.747075
H      0.303149    1.537933   -0.147951
6

C     -1.581881    0.256972   -0.213872
H     -2.916585   -1.119060   -2.064471
H     -2.551896    0.318432    0.300098
C     -0.816997    1.347458    0.156976
H     -1.406176    2.081724    0.729757
H      0.218530    1.431690   -0.105387
6

C     -0.759533    1.104056    0.121152
H      0.086060    1.772656   -0.161660
H     -1.153611    2.201730    0.733059
C     -1.515947    0.075996    0.089808
H     -1.434184    0.158484    1.240583
H     -2.753235    0.354307    0.027370
6

C     -1.634447    0.192676   -0.192148
H     -2.627101    0.048954    0.182598
H      0.312539   -0.852511   -1.118320
C     -0.928475    1.513609    0.072004
H      0.135506    1.383582   -0.019479
H     -1.083902    2.297454    0.824598
6

C     -1.509209    0.290807   -0.200296
H      0.444072   -0.627401   -1.804793
H     -2.586225    0.232500    0.214176
C     -0.846993    1.401834    0.272093
H     -1.377223    2.197771    0.787244
H      0.181229    1.313363   -0.205643
6

C     -1.643551    0.197151   -0.209947
H     -0.273516    0.244144   -1.967490
H     -2.530053    0.361688    0.309616
C     -0.829127    1.301882    0.171864
H     -1.359059    2.036509    0.666429
H      0.223369    1.539046   -0.070390
6

C     -0.867047    1.411725    0.120954
H      0.134795    1.451625   -0.103017
H     -1.167750    2.236429    0.810237
C     -1.555980    0.179585   -0.089841
H     -2.682438    0.156911    0.129240
H      0.280743   -1.650958    0.047756
6

C     -0.906757    1.388550    0.215425
H      0.173931    1.446423   -0.148765
H     -1.121633    2.270189    0.795116
C     -1.626102    0.273712   -0.086558
H     -2.657859    0.057403    0.092355
H      0.622264   -1.871602    0.308292
6

C     -0.445297    1.183314    0.306317
H      0.112634    1.956915   -0.418265
H     -1.105068    2.111314    0.528153
C     -1.538968    0.471574    0.327308
H     -2.749588    0.149986   -0.004524
H     -1.804162   -0.205876    1.311323
6

C     -1.430225    0.021608    0.319154
H     -1.483931   -0.202618    1.435667
H     -2.271507    0.823621   -0.146627
C     -0.873367    1.374251    0.231762
H     -1.403198    2.131480    0.669762
H     -0.068223    1.518887   -0.459406
6

C     -1.636269    0.207521   -0.058289
H     -1.634401   -0.065966    1.217350
H     -2.685745   -0.030824    0.162560
C     -0.932028    1.316825    0.094349
H     -0.874007    2.538249    0.739007
H      0.232000    1.701424   -0.104665
6

C     -1.823179    0.277082    0.106040
H     -1.341889    0.260764    1.097408
H     -2.799525   -0.024027    0.049313
C     -0.722179    1.316956    0.097899
H     -2.124649    1.474823   -0.169098
H      0.326100    1.621698   -0.113888
6

C     -1.024032    1.317212   -0.031008
H      0.122649    1.816261    0.081353
H     -1.501590    0.183839    1.091636
C     -1.563269   -0.077814    0.047946
H     -0.996945    1.984689    0.614641
H     -2.567264    0.443041    0.245742
6

C     -0.843850    1.298009    0.073161
H      0.153297    1.485648   -0.212072
H     -1.261773    0.475935    1.123152
C     -1.613656    0.035987    0.166361
H     -1.245377    2.137873    0.996516
H     -2.719091    0.233777   -0.096806
6

C     -0.641340    1.278014    0.189251
H     -1.426066    2.131565    0.700968
H      0.359649    1.701882   -0.279597
C     -1.587605    0.136164   -0.089448
H     -2.554673    0.375846    0.357338
H     -1.680416    0.043757    1.171798
6

C     -0.947444    1.356125    0.277141
H     -1.187077    2.456807    0.963538
H      0.134330    1.236158   -0.291490
C     -1.786088    0.360820    0.251729
H     -2.635742   -0.015634   -0.294448
H     -1.108429    0.272952    1.143842
6

C     -0.925733    1.388945    0.068099
H      0.099786    1.519853   -0.287483
H     -1.124240    2.212643    0.938297
C     -1.544113    0.048564    0.328100
H     -2.644120    0.266271   -0.179441
H     -2.204434    0.085551   -1.358021
6

C     -0.942449    1.374481    0.085892
H      0.051358    1.522614   -0.298842
H     -1.152173    2.124825    0.899880
C     -1.527814    0.056857    0.368520
H     -2.567343    0.357499   -0.187878
H     -2.088497    0.100858   -1.229600
6

C     -0.469894    1.382545    0.459590
H     -1.577797    2.089341    0.474964
H      0.360633    1.562358   -0.362419
C     -1.759645    0.557031    0.316738
H     -1.250660   -0.169743    1.208930
H     -2.833086    0.245695   -0.047492
6

C     -1.163960    0.238801    0.536744
H     -2.395126    0.327444    0.015436
H     -2.102306   -0.251222    1.088180
C     -0.858824    1.453811    0.251718
H      0.180223    1.564707   -0.729961
H     -1.190457    2.333686    0.888194
6

C     -0.812987    1.370221    0.287365
H      0.153547    1.510471   -0.171044
H     -1.216722    2.204044    0.734509
C     -1.606145    0.130077   -0.115684
H     -2.656114    0.221463    0.132426
H     -0.564902   -1.971326   -0.792457
6

C     -1.231773    1.819803    0.053350
H     -0.067895    1.006363   -0.150351
H     -0.842967    2.503723    1.004417
C     -1.535853    0.367895    0.192381
H     -1.313526    0.135576    1.176493
H     -2.538436   -0.166132   -0.225979
6

C     -0.911755    1.389005    0.075962
H      0.094130    1.689175   -0.105176
H     -0.964835    2.305984    0.776638
C     -1.639436   -0.091936    0.026210
H     -2.576897    0.251250    0.084438
H     -1.531657    0.123750    1.192240
6

C     -0.964722    1.551222    0.116397
H     -0.866864    2.341779    0.919277
H      0.074765    1.235178    0.034154
C     -2.002442    0.507535    0.075292
H     -1.196640    0.440246    0.981724
H     -2.574548   -0.408731   -0.076533
6

C     -0.834482    1.314930    0.248482
H      0.162050    1.471841   -0.149448
H     -1.332114    2.083338    0.697314
C     -1.529511    0.257554   -0.144508
H     -2.604363    0.308613    0.215733
H      0.507336   -0.075776   -2.002146
6

C     -0.828118    1.302775    0.231951
H      0.202435    1.391080   -0.210726
H     -1.346986    2.267590    0.824619
C     -1.568277    0.259954   -0.151810
H     -2.597475    0.214877    0.173540
H      0.491064    0.036000   -2.143618
6

C     -0.529504    1.083119    0.097471
H     -2.726903    0.304313   -0.014133
H      0.229634    1.997069   -0.377707
C     -1.656447   -0.007227    0.173608
H     -1.805229   -1.354298    0.423131
H     -1.677452    0.075199    1.357532
6

C     -1.749553    0.602371    0.067537
H     -1.175272    2.088091    0.742923
H     -2.762204   -0.106824    0.060328
C     -0.666800    1.293281    0.123927
H      0.140085    0.945179    0.987570
H      0.215409    1.559358   -0.127143
6

C     -1.857125    0.312421    0.188449
H     -1.140890    2.267946    0.881608
H     -2.662890   -0.065202   -0.116294
C     -0.814860    1.387899    0.249654
H     -0.680871    1.334857    1.391045
H      0.337346    1.533212   -0.335844
6

C     -1.850610    0.311838    0.266782
H     -1.060720    2.366021    0.937376
H     -2.667767   -0.143819   -0.238397
C     -0.816843    1.423191    0.303442
H     -0.899246    1.446468    1.467609
H      0.257520    1.479046   -0.401631
6

C     -1.750076    0.267413    0.272912
H     -1.160475    2.235539    0.799121
H     -2.586612    0.152674   -0.197290
C     -0.724713    1.161614    0.383566
H     -0.411601    0.081726    0.804944
H      0.083456    1.619035   -0.390736
6

C     -1.771893    0.333945    0.142989
H      0.217959    1.640394   -0.246368
H     -2.854597   -0.057036   -0.057715
C     -0.580260    1.354036    0.269234
H     -1.149629    2.164937    0.759432
H     -0.298647    1.432593    1.242443
6

C     -0.492445    1.257322    0.012836
H     -2.888602    0.012711   -0.090147
H      0.243749    1.781582   -0.218323
C     -1.794047    0.296070    0.216727
H     -1.635954   -0.882686   -0.108606
H     -1.429327    0.104788    1.315678
6

C     -0.724301    1.321019    0.015604
H     -1.063514   -0.041037   -0.759189
H      0.348186    1.671766   -0.188768
C     -1.705271    0.339728    0.092704
H     -1.566905    0.103282    1.181408
H     -2.712381    0.016677    0.135823
6

C     -1.655421    0.311506    0.031508
H      0.002317    1.647443   -0.228953
H     -2.641187    0.270266    0.050261
C     -0.587422    1.229041    0.456902
H     -1.256707    1.978020    0.557854
H      0.251937    0.879057    0.948810
6

C     -0.839944    1.341427    0.110213
H      0.107294    1.480474    0.049880
H     -1.244702    2.081599    0.652477
C     -1.465149    0.287472   -0.296854
H     -1.865350    1.760531   -1.500801
H     -2.695919    0.245305    0.351855
6

C     -0.901404    1.390690    0.068882
H      0.294470    1.447283   -0.037563
H     -1.251867    2.210590    0.788921
C     -1.640406    0.255740   -0.241174
H     -1.669001    1.835473   -1.754596
H     -2.639214    0.131973    0.288507
6

C     -0.716405    1.550751    0.010150
H     -1.305230    2.187681    0.882627
H     -1.163962    2.225647   -0.886096
C     -1.767754    0.472517   -0.108190
H      0.123103    1.232942   -0.091964
H     -2.472134   -0.007616    0.174949
6

C     -0.860641    1.443401    0.286568
H      0.098382    1.383941   -0.269286
H     -1.207580    2.291312    0.849690
C     -1.552628    0.114949   -0.008041
H     -2.615953    0.202673    0.008642
H     -0.230678   -1.723367    0.267500
6

C     -0.347676    1.182686    0.419833
H     -1.220139    2.077205    0.537636
H     -0.232740    1.824126   -0.489616
C     -1.527622    0.281481    0.349571
H     -1.754878   -0.155472    1.325669
H     -2.447394    0.457201   -0.092782
6

C     -1.951608    0.577375    0.232384
H     -0.916002    0.371883    1.157258
H     -2.615105   -0.171608   -0.321357
C     -1.024332    1.530835    0.175883
H     -1.085009    2.233801    0.874399
H      0.061605    1.124942   -0.068256
6

C     -2.016999    0.470628    0.193908
H     -2.429082   -0.323876   -0.277795
H     -1.138676    0.333492    1.009080
C     -0.929928    1.551266    0.323385
H     -0.880099    2.529933    0.918937
H     -0.135666    1.105785   -0.117204
6

C     -1.883900    0.653480   -0.002154
H     -2.640527   -0.147398    0.132627
H     -0.408030    0.137441    0.966302
C     -0.684450    1.316868    0.054732
H     -1.266218    2.128384    0.808851
H      0.336675    1.484942   -0.126483
6

C     -0.780319    1.455259   -0.012707
H      0.211466    1.340977    0.199310
H     -1.257518    2.044347    0.812874
C     -1.797165    0.337025   -0.102775
H     -1.149546    0.529135    0.874787
H     -2.757369   -0.039514    0.278822
6

C     -0.801241    1.459052   -0.003196
H      0.224525    1.305764    0.185428
H     -1.265781    2.068171    0.840518
C     -1.785091    0.345570   -0.067307
H     -1.122276    0.547965    0.843902
H     -2.780587   -0.059292    0.250967
6

C     -0.713488    1.519789    0.102038
H      0.335243    1.455113    0.235728
H     -1.333848    2.115134    0.504028
C     -1.885344    0.400998   -0.251136
H     -1.180028    0.113657    1.034526
H     -2.752985    0.062537    0.425129
6

C     -0.620163    1.517131    0.213080
H     -1.260737    2.194353    0.852538
H      0.366881    1.380888   -0.260159
C     -1.919964    0.618386    0.028582
H     -0.317957    1.185982    1.183967
H     -2.704437   -0.274481    0.033531
6

C     -0.909265    1.530797    0.076104
H      0.227450    1.555319   -0.019354
H     -0.949648    2.490577    0.766599
C     -1.615706    0.067859   -0.132094
H     -2.708057   -0.005590    0.263232
H     -1.575224    0.028266    1.095824
6

C     -1.031018    1.661738    0.161304
H     -0.197222    1.059680   -0.064553
H     -0.751694    2.386797    0.856128
C     -2.125571    0.806063    0.020461
H     -1.985770   -0.440574   -0.073742
H     -1.439175    0.193524    1.150712
6

C     -0.761008    1.229075    0.321175
H     -1.280676    2.242011    0.771991
H      0.189803    1.526315   -0.258997
C     -1.670477    0.249696   -0.041438
H     -2.616061    0.189179    0.074842
H     -2.100820    2.024842   -0.552340
6

C     -1.607695    0.422026    0.178944
H     -2.632654   -0.280103   -0.249964
H     -1.220277    0.038805    1.184224
C     -1.024955    1.933384   -0.016815
H     -0.809203    2.624100    0.963504
H     -0.235666    0.929015   -0.009582
6

C     -1.456738    0.284470    0.243845
H     -2.520672   -0.216491   -0.345177
H     -1.454135    0.070036    1.234971
C     -1.210971    1.920187    0.198143
H     -0.523416    2.503835    0.892044
H     -0.364517    1.105190   -0.173514
6

C     -1.694381    0.339546    0.161627
H     -0.761152   -0.740052    0.395089
H     -2.694934   -0.116966   -0.155797
C     -1.019422    1.510624    0.176338
H     -0.891041    2.113555    0.848161
H     -1.370219    0.339676    1.210713
6

C     -0.402824    1.369864    0.350343
H      0.262191    0.546314    1.030797
H     -1.293023    2.074968    0.720086
C     -1.903774    0.602918    0.116287
H     -2.785149   -0.169504   -0.020124
H      0.246350    1.558030   -0.299019
6

C     -0.602516    1.130893    0.442390
H      0.085570    1.685450   -0.316765
H     -0.113603    1.367663    1.877242
C     -1.428706    0.220874    0.094733
H     -2.897366    0.298193   -0.010821
H     -1.295401    2.100867    0.658036
6

C     -1.482644    0.003999   -0.003284
H     -2.349225    0.629698    0.277597
H     -1.370484   -0.307232    1.205262
C     -1.140569    1.584981   -0.165939
H     -1.169605    2.355421    0.562299
H     -0.017922    1.400360    0.174377
6

C     -0.848072    1.467102    0.198831
H      0.135724    1.283013   -0.136823
H     -1.371639    2.190066    0.792293
C     -1.563205    0.225671   -0.250120
H     -2.491227    0.270424    0.263391
H     -0.117451   -0.695837   -1.815174
6

C     -0.800878    1.383977    0.171621
H      0.261247    1.392689   -0.137398
H     -1.411105    2.173184    0.783862
C     -1.576627    0.231830   -0.240072
H     -2.611058    0.254596    0.289559
H     -0.018596   -0.728419   -1.948958
6

C     -1.598817    0.141952   -0.351016
H     -0.589579   -0.874824   -2.087693
H     -2.704601    0.170322    0.369155
C     -0.909316    1.405153    0.068010
H     -1.190770    2.207338    0.720999
H      0.265085    1.511511    0.060424
6

C     -1.723041    0.275966   -0.305484
H     -2.815897   -0.981283   -1.748644
H     -2.552971    0.092049    0.300696
C     -0.834124    1.480791    0.166834
H     -1.327729    2.252580    0.808993
H      0.299445    1.334890   -0.103467
6

C     -1.034776    1.517091    0.133961
H     -1.073144    2.274707    0.826435
H     -0.020666    1.291871   -0.166938
C     -1.504424    0.278467   -0.118322
H     -2.394010    0.170543    0.099475
H     -1.503430    0.134551    1.275699
6

C     -1.624261    0.088732   -0.144439
H     -0.170524   -1.538374   -0.856836
H     -2.595764    0.307341    0.202279
C     -0.915390    1.359076    0.228823
H     -1.238541    2.129510    0.706652
H      0.235536    1.551617   -0.125743
6

C     -1.149357    1.505047    0.229011
H     -2.744955    0.088259   -0.039129
H     -0.877120    2.510133    0.777846
C     -1.435227    0.085784    0.065401
H     -0.616166   -0.308318   -0.169927
H     -1.463338   -0.002789    1.207912
6

C     -0.756009    1.059538    0.141516
H     -1.063465   -0.980838   -0.754024
H      0.041266    1.797406   -0.357343
C     -1.652162    0.038373    0.238810
H     -1.326487    0.117577    1.519102
H     -2.667280    0.439578   -0.305314
6

C     -0.568681    1.380413    0.070274
H     -1.209191    1.862662    0.855607
H      0.155434    1.908950   -0.432611
C     -1.656369   -0.192880    0.118282
H     -1.698467    0.245010    1.480447
H     -2.553176    0.463072   -0.041688
6

C     -0.720906    1.268102    0.432603
H      0.770253    1.051451    1.183518
H     -1.174412    2.185872    0.767630
C     -1.779501    0.444479    0.209242
H      0.167750    1.539516   -0.391018
H     -2.631351   -0.001693   -0.150885
6

C     -0.856474    1.270816    0.066709
H      0.486496    1.538778   -0.218232
H     -1.245596    2.282567    0.911109
C     -1.808183    0.408547    0.033436
H     -0.572195    1.979307   -1.008507
H     -2.714663   -0.064431    0.074551
6

C     -0.586925    1.345020    0.469107
H     -1.019965    2.272294    0.709558
H      0.268080    1.717267   -0.301785
C     -1.876362    0.298055    0.107644
H      0.157821    1.324954    1.734348
H     -2.923248   -0.196361   -0.116952
6

C     -1.557883    0.117529   -0.228047
H     -0.304141   -1.317014   -1.556516
H     -2.568424    0.234287    0.173859
C     -0.873406    1.346029    0.287323
H     -1.259281    2.365721    0.820074
H      0.120574    1.372710   -0.185637
6

C     -1.049409    1.385960    0.529037
H     -1.088865    2.479396    0.529764
H     -0.867735   -0.054601   -0.961727
C     -1.476047    0.157177    0.099582
H     -1.367702   -0.102083    1.015872
H     -2.687973    0.265984    0.066787
6

C      0.772037    0.832967    1.983286
H      0.267861    1.849750    2.718053
H      0.180451    1.434140   -0.236203
C     -0.838955    1.387136    0.178166
H     -1.558962    0.521773   -0.336984
H     -1.243223    2.248921    0.865710
6

C     -0.647279    1.378045    0.184192
H      0.330107    1.603625    0.082177
H     -1.448932    1.981325    0.528894
C     -1.754506    0.178015   -0.104031
H     -2.695799    0.324615    0.440681
H     -1.314041    0.201603    0.918398
6

C     -1.546283    0.095168    0.061082
H     -1.536636    0.094850    1.220918
H     -2.612076    0.072855    0.004663
C     -1.070919    1.624304    0.143233
H     -0.904084    2.299257    0.811146
H     -1.312655   -0.916350   -0.212557
6

C     -0.808527    1.394294    0.235780
H     -1.016248    2.274381    0.867134
H     -0.004249    1.447456   -0.282246
C     -1.717083    0.346710    0.252965
H     -2.592312   -0.026565   -0.206061
H     -0.748026    1.424411    1.433174
6

C     -0.710571    1.230256    0.307934
H     -1.175263    2.187622    0.815375
H      0.248066    1.657270   -0.374574
C     -1.756505    0.307403    0.290600
H     -2.744147    0.053725   -0.171763
H     -0.377212    0.184608    0.811629
6

C     -0.920555    1.543483    0.238016
H     -0.923565    2.489649    0.831952
H      0.024441    1.171637   -0.180800
C     -2.050692    0.792742    0.282598
H     -1.224291    0.070716    1.165051
H     -2.435788   -0.401000   -0.286505
6

C     -0.757901    1.631595    0.213633
H     -0.132380    1.269656   -0.611032
H     -1.336521    2.171552    0.992938
C     -1.215852    0.043670    0.362555
H     -2.168271    0.498122    0.043147
H     -1.919525    0.052633    1.049070
6

C     -0.738638    1.308645    0.303951
H     -1.442130    2.349554    0.883960
H      0.012147    1.378201   -0.535603
C     -1.248533    0.141433    0.282743
H     -1.731631   -0.019080    1.033330
H     -2.381665    0.508476    0.081931
6

C     -0.805015    1.610406   -0.026417
H      0.215040    1.497001    0.107699
H     -1.175178    2.375002    0.677532
C     -1.753628    0.003556   -0.176619
H     -2.680265    0.213729    0.267483
H     -1.331403   -0.032466    1.200633
6

C     -0.815204    1.433095    0.228018
H     -0.017181    1.579076   -0.364002
H     -1.098399    2.366594    0.847045
C     -1.544159   -0.159118    0.065903
H     -2.548939    0.392501   -0.130262
H     -1.506568    0.055080    1.403609
6

C     -1.782926    0.268960   -0.026563
H     -2.871652    0.023927   -0.008118
H     -1.147931    0.336472    1.252530
C     -0.826879    1.359574    0.029327
H      0.272918    1.530249   -0.014183
H     -1.173980    2.148046    0.817318
6

C     -1.355553    0.172064    0.041551
H     -2.471093    0.245271    0.138006
H     -1.630905    0.075316    1.060971
C     -0.858355    1.535891    0.310061
H     -0.024840    1.301979   -0.311458
H     -1.189704    2.336707    0.811179
6

C     -0.704467    1.573741    0.211011
H     -1.291702    2.126676    0.882781
H     -0.077155    1.279162    1.354664
C     -1.774259    0.427648    0.166833
H     -2.765593   -0.102925   -0.048391
H      0.397600    1.411136   -0.344661
6

C     -0.764914    1.355415    0.484229
H      0.120670    0.339634    0.719409
H      0.013401    1.523921   -0.365105
C     -1.762827    0.272512    0.198460
H     -2.688626   -0.107598   -0.258448
H     -0.935453    2.392026    0.808436
6

C     -0.865013    1.348523    0.166525
H     -1.165130    2.232849    0.822276
H      0.128416    1.488825   -0.181128
C      0.715048    0.757579    1.518514
H     -0.033033    0.281384    2.087801
H     -1.591337    1.249171   -0.461915
6

C     -1.617334    0.347998    0.141901
H     -2.654644    0.130900   -0.010913
H     -1.422587   -0.583229   -0.447642
C     -0.656079    1.124647    0.153731
H      0.068410    1.652341   -0.254627
H     -1.501025    0.196586    1.206679
6

C     -0.690156    1.215991    0.247289
H     -0.029455    1.055129    1.231694
H      0.170415    1.600030   -0.251794
C     -1.721840    0.382787    0.132922
H     -2.659710    0.115936   -0.014335
H     -1.237129    2.121533    0.753491
6

C     -1.569557    0.043902    0.117665
H     -2.584720    0.328046    0.020963
H     -1.443684   -0.884578    0.016802
C     -0.568178    1.055030    0.234595
H     -0.063461    1.756877   -0.286146
H     -1.574756    0.268618    1.149694
6

C     -1.809726    0.342517    0.156789
H     -2.589780   -0.078176   -0.265284
H     -1.111237    0.399480    1.148239
C     -0.985235    1.458002    0.256393
H      0.018644    1.215786   -0.189249
H     -1.053115    2.329618    0.943423
6

C     -1.348998    0.028160    0.117126
H     -1.631376    0.018844    1.413593
H     -2.605416    0.525953    0.021311
C     -0.776676    1.287672    0.066391
H     -1.339204    2.145198    0.851283
H      0.171220    1.661401   -0.419391
6

C     -1.687792    0.279404    0.312449
H      0.021684    1.363071   -0.306598
H     -2.642379   -0.121220   -0.288588
C     -0.888595    1.505518    0.145767
H     -0.941338    2.409502    1.004542
H     -1.945622    1.486002   -0.400731
6

C     -1.577206    0.250502    0.161182
H      0.243853    1.829772    1.070634
H     -2.707559    0.299787   -0.061461
C     -0.443050    1.289397    0.440804
H     -1.375811    2.037464    0.687866
H     -0.034794    1.559125   -0.360819
6

C     -1.803572    0.413438    0.135915
H     -1.144941    2.176488    0.723791
H     -2.686747   -0.080251   -0.132485
C     -0.569863    1.442675    0.495018
H      0.066703    1.483927   -0.354667
H      0.737728    1.166122    1.469411
6

C     -1.552931    0.443474    0.024887
H      0.015482    0.567658    1.116882
H     -2.521151    0.254644    0.081357
C     -0.721034    1.314678    0.256084
H     -1.350448    2.034747    0.727745
H      0.007144    1.388733   -0.222501
6

C     -0.611764    1.504234    0.044733
H     -0.317516    0.886521    0.943556
H     -1.139733    2.124595    0.830751
C     -1.839344    0.408491    0.144160
H     -2.865866   -0.178191   -0.003956
H      0.318287    1.577146   -0.148115
6

C     -1.977750    0.475401    0.492606
H     -0.925847    0.145491    1.094519
H     -2.540798   -0.044890   -0.501274
C     -1.013898    1.451441    0.424655
H      0.082309    1.138391   -0.311619
H     -1.154466    2.501394    0.851424
6

C     -1.685920    0.210945   -0.352233
H     -2.320525    1.492136   -1.302373
H     -2.741178   -0.002962    0.287228
C     -0.771933    1.480961    0.230921
H      0.259787    1.424791   -0.057983
H     -1.199176    2.322542    0.759640
6

C     -1.491118    0.304322   -0.172130
H     -2.211294    1.700242   -1.141543
H     -2.737316    0.163530    0.217670
C     -0.766063    1.445743    0.202924
H      0.239269    1.352100   -0.181725
H     -1.383193    2.170581    0.800834
6

C     -1.385105   -0.023771    0.237153
H     -2.607716    0.526934   -0.163274
H     -1.466032   -0.103222    1.381921
C     -0.932419    1.321396    0.233181
H     -0.023007    1.635648   -0.342106
H     -1.116171    2.310243    0.703436
6

C     -1.367585    0.067663    0.367766
H     -2.261178    0.841730   -0.153852
H     -1.596386   -0.294149    1.498191
C     -0.817940    1.361861    0.195151
H     -0.000038    1.524814   -0.588116
H     -1.487323    2.165308    0.731171
6

C     -0.917728    1.405933   -0.069328
H      0.080954    1.471151    0.061383
H     -1.195258    2.008241    0.786460
C     -1.460468    0.163033   -0.091592
H     -2.645219    0.286926    0.260493
H     -1.392731    0.331943    1.102896
6

C     -0.908578    1.596742   -0.128246
H      0.255984    1.303947    0.005834
H     -1.387532    2.217787    0.798679
C     -1.504224    0.199453   -0.173883
H     -2.353141    0.326485    0.548202
H     -1.632959    0.022815    0.999725
6

C     -0.904633    1.186725    0.464457
H      0.043333    1.669265   -0.308005
H     -0.906095    2.350742    0.747753
C     -1.730244    0.152495    0.115419
H     -2.681165    0.060804   -0.228627
H     -1.351645    0.247197    1.259313
6

C     -0.875637    1.474346    0.110255
H      0.214877    1.194340   -0.076890
H     -1.127863    2.293418    0.919622
C     -1.943449    0.693128    0.143331
H     -2.509330   -0.330475    0.035735
H     -1.289049    0.342470    0.918259
6

C     -0.877041    1.546577    0.393504
H     -0.197158    1.115309   -0.180080
H     -0.828859    2.597696    0.909984
C     -2.114811    0.508514    0.430985
H     -2.346360   -0.374482   -0.385613
H     -1.166222    0.273614    0.881531
6

C     -0.941049    1.447774    0.438081
H      0.088634    1.156716   -0.329289
H     -1.242321    2.391179    0.840999
C     -1.943155    0.440615    0.289378
H     -2.537356    0.028188   -0.416079
H     -0.955203    0.202756    1.227221
6

C     -1.616324    0.114140   -0.238767
H     -0.054900   -0.562634   -1.472418
H     -2.631280    0.140649    0.162979
C     -0.803202    1.420419    0.312393
H     -1.121052    2.320905    0.732332
H      0.033438    1.440162   -0.101365
6

C     -1.513436   -0.134431    0.203051
H     -2.382211    0.660708    0.022841
H     -1.523739   -0.221689    1.260730
C     -1.048430    1.409550    0.251177
H      0.056065    1.677751   -0.243224
H     -1.118699    2.275339    0.555737
6

C     -1.702269    0.615986   -0.080324
H      0.137720    1.285661   -0.339667
H     -2.612712   -0.144598    0.009666
C     -0.742524    1.385580    0.508415
H      0.304186    1.339808    0.899077
H     -1.218634    2.293646    0.769483
6

C     -1.815810    0.386693    0.028510
H     -0.014001    0.934953    1.178359
H     -2.637903   -0.057247    0.015168
C     -0.805670    1.311598    0.207676
H     -1.143706    2.280449    0.830931
H      0.264669    1.514784   -0.214712
6

C     -1.541096    0.276259    0.083541
H     -1.452490    1.923361    0.677391
H     -2.770242    0.311173    0.076460
C     -0.500066    1.376625    0.307934
H      0.125474    1.548858   -0.277753
H      0.224569    1.435993    1.402688
6

C     -1.130669    1.485967   -0.057909
H      0.059250    1.327136    0.023015
H     -1.399151    2.339029    0.622259
C     -1.431359   -0.009491    0.078304
H     -1.292414   -0.251368    1.163579
H     -2.336107    0.775955    0.221064
6

C     -1.111011    1.422964   -0.041572
H     -0.011842    1.439004   -0.055631
H     -1.290695    2.235502    0.668013
C     -1.463550   -0.049453    0.103798
H     -1.417360   -0.139823    1.207437
H     -2.235992    0.759034    0.168266
6

C     -1.021710    1.587110    0.055874
H     -0.795099    2.044204    1.015645
H     -0.727043   -1.044340    0.129291
C     -1.710453    0.240726    0.142726
H     -2.613225   -0.228208   -0.087822
H     -1.529510    0.542603    1.114618
6

C     -1.785567    0.457738    0.065181
H     -2.904290   -0.073202    0.079489
H      0.175992    0.747893    1.056048
C     -0.624817    1.348112    0.221299
H     -1.311771    2.066076    0.753011
H      0.488025    1.637553   -0.251407
6

C     -1.592563    0.427602    0.086140
H     -2.825137    0.105693   -0.044581
H      0.166803    1.627043   -0.388586
C     -0.578465    1.056589    0.498557
H      0.227445    1.055893    1.195443
H     -1.309059    2.219349    0.716041
6

C     -0.735681    1.418247   -0.028538
H      0.272661    1.609002    0.119923
H     -1.220653    2.123095    0.734047
C     -1.742119    0.061825   -0.072069
H     -2.806555    0.164028    0.276129
H     -1.298103    0.291031    1.020819
6

C     -0.824113    1.549612    0.339153
H     -1.280305    2.381287    0.853505
H      0.123766    1.232831   -0.214559
C     -1.614913    0.128908   -0.058441
H     -1.446432    0.237479    0.932926
H     -2.488454    0.137111    0.197728
6

C     -0.720346    1.419764    0.167485
H     -1.388775    1.975285    0.794030
H      0.312518    1.533285   -0.246709
C     -1.532405    0.213493   -0.028480
H     -1.235705    0.290930    1.391984
H     -2.965737    0.234471   -0.027999
6

C     -1.531298    0.129754   -0.092540
H     -1.645991    0.123573    1.126476
H     -2.664331    0.172818    0.344054
C     -0.761991    1.396401   -0.089713
H      0.242938    1.629926   -0.051505
H     -1.128060    2.683336    0.681608
6

C     -1.578525    0.016034    0.179484
H     -1.310654    0.181879    1.295921
H     -2.405310    0.476114   -0.241430
C     -0.887884    1.185509    0.345336
H     -0.094141    1.428769   -0.415690
H     -1.253936    2.378923    0.886689
6

C     -1.579133   -0.049580    0.193836
H     -1.331958    0.192826    1.275424
H     -2.459718    0.434212   -0.243652
C     -0.987254    1.244729    0.366146
H     -0.155466    1.565207   -0.300563
H     -1.016921    2.279834    0.759120
6

C     -1.495459    0.077525    0.129525
H     -2.613078    0.359248   -0.001853
H     -1.358947   -0.124074    1.169647
C     -1.092385    1.409160    0.299009
H     -1.911163   -1.053583   -0.562284
H     -1.110127    2.464574    0.644713
6

C     -0.715034    1.466277    0.226037
H     -1.443400    2.228864    0.583916
H      0.320176    1.252902    0.117450
C     -1.916960    0.599966   -0.209655
H     -1.167055    0.138713    0.938787
H     -2.608176   -0.019495    0.393776
6

C     -0.842391    1.379429    0.206588
H     -1.290599    2.220806    0.783323
H      0.132434    1.432503   -0.147556
C     -1.551497    0.097032   -0.163395
H      0.049385   -1.200631   -1.097648
H     -2.586368    0.306507    0.188613
6

C     -0.899330    1.467336    0.073077
H     -0.944479    2.147807    0.748899
H      0.097020    1.529324   -0.026434
C     -1.671644    0.346111    0.040616
H     -2.719988   -0.054302    0.031416
H     -0.965702    0.477115    1.399125
6

C     -0.949499    1.531234    0.324698
H     -0.996910    2.390666    0.743742
H     -0.003385    1.212464   -0.174470
C     -2.059377    0.627755    0.355729
H     -2.482279   -0.184198   -0.393598
H     -1.039000    0.089307    1.194209
6

C     -1.419762   -0.030859    0.240206
H     -1.602075   -0.300479    1.450589
H     -2.447460    0.607163   -0.080509
C     -1.065181    1.272648    0.095997
H     -0.062756    1.819779   -0.222420
H     -0.933217    2.298975    0.566448
6

C     -1.189459    1.692682   -0.016325
H     -0.913249    2.564288    0.966053
H     -0.132923    1.028714   -0.122800
C     -1.518311    0.422494    0.231229
H     -2.492101   -0.050167   -0.233339
H     -1.284407    0.009217    1.225493
6

C     -0.303023    1.403111    0.404824
H     -0.004345    1.842023   -0.507811
H     -1.193962    1.955747    0.532896
C     -1.431446    0.396099    0.368832
H     -1.904982   -0.146794    1.219935
H     -2.692691    0.217042    0.031636
6

C     -0.681349    1.342685   -0.010778
H      0.237340    1.586291    0.026302
H     -1.375220    2.013340    0.713205
C     -1.670110    0.167224   -0.116458
H     -1.412926    0.248872    1.078310
H     -2.628185    0.308817    0.359731
6

C     -0.714257    1.164000    0.058611
H      0.342771    1.866987   -0.103404
H     -1.400590    1.733793    0.662130
C     -1.680740    0.040145    0.079476
H     -1.379781    0.356360    1.151150
H     -2.697854    0.505942    0.202348
6

C     -1.035390    1.593237    0.258144
H     -0.922385    2.462209    0.919948
H     -0.036282    1.081450   -0.153622
C     -2.088297    0.560816    0.334662
H     -2.370001   -0.297258   -0.368217
H     -1.078094    0.266774    1.059395
6

C     -1.115622    1.468214    0.131395
H     -0.936840    2.571599    0.917886
H     -0.201953    0.989378   -0.026741
C     -2.019410    0.627518    0.456949
H     -2.292097   -0.186453   -0.398514
H     -0.964528    0.196973    0.969337
6

C     -1.969643    0.440665    0.406842
H     -0.893066    0.171337    1.120919
H     -2.606739   -0.053047   -0.467293
C     -0.961980    1.421190    0.368382
H     -0.058426    1.215751   -0.155737
H     -1.040596    2.471330    0.777199
6

C     -1.924648    0.285163    0.389452
H     -0.767431    0.260183    1.253482
H     -2.534631    0.244030   -0.500230
C     -1.130177    1.328197    0.219002
H      0.020288    1.233474   -0.156246
H     -1.193852    2.316182    0.844852
6

C     -1.637367    0.000111   -0.078344
H      0.021305   -1.121732   -0.351551
H     -2.663231    0.208999    0.074425
C     -0.827963    1.428451    0.266551
H     -1.116635    2.260898    0.759555
H      0.106776    1.537817   -0.154615
6

C     -1.641236    0.183357   -0.190549
H     -2.663366    0.079817    0.175982
H     -0.744320   -1.350101   -1.892193
C     -0.878291    1.470825    0.192628
H      0.225133    1.410137   -0.121205
H     -1.180659    2.292140    0.810716
6

C     -1.576620    0.210267   -0.212055
H     -2.613765    0.130419    0.172278
H     -0.686865   -1.325568   -2.124757
C     -0.864056    1.392848    0.226646
H      0.105093    1.374886   -0.123038
H     -1.189072    2.327856    0.803743
6

C     -0.653666    1.227115    0.611548
H     -0.219639    1.508586    1.460659
H     -1.151902    2.150769    0.646736
C     -1.754647    0.360860    0.159503
H     -2.720265    0.047366   -0.140283
H      0.142060    1.650166   -0.409931
6

C     -1.533589    0.124312    0.005143
H     -1.473913   -0.768612   -0.813844
H     -2.741577    0.227679   -0.031293
C     -0.886941    1.452752    0.127580
H     -0.245228    2.280346    1.248345
H     -1.338112    0.166936    1.326072
6

C     -0.618396    1.381729    0.325201
H     -1.133673    2.098404    0.793581
H      0.080385    1.604523   -0.384378
C     -1.582276    0.297455    0.393010
H     -2.884459    0.054165   -0.259842
H     -0.351050    0.333277    1.195392
6

C     -0.834286    1.381468    0.359592
H     -1.401056    2.230095    0.876812
H      0.212178    0.156051    1.190805
C     -1.462793    0.271995    0.045869
H      0.157722    1.293852   -0.408773
H     -2.598007    0.258867   -0.005927
6

C     -1.630096    0.081449   -0.109228
H     -2.512147    0.309783    0.165121
H     -0.068891   -1.421413   -0.718442
C     -0.905997    1.371202    0.137335
H      0.148152    1.471031   -0.119889
H     -1.238331    2.202812    0.794234
6

C     -1.659289    0.162200   -0.346093
H     -2.629532    0.230585    0.374059
H     -0.630407   -0.395193   -2.066727
C     -0.763312    1.416456    0.152790
H      0.300848    1.446533   -0.057421
H     -1.387134    2.180501    0.744237
6

C     -1.978760    0.351487    0.159425
H     -2.704139   -0.262918   -0.079808
H      0.412600    1.468204   -0.234101
C     -0.810805    1.648982    0.113430
H     -0.992137    2.380634   -0.701645
H     -1.057316    2.230521    0.908626
6

C     -1.685417    0.473065    0.207652
H     -2.596291   -0.188380   -0.179092
H     -1.461194    2.799057   -1.116200
C     -0.982476    1.520329    0.121881
H     -0.959084    2.338551    0.958351
H      0.084848    1.292711   -0.241219
6

C     -0.806203    1.233065    0.277347
H     -1.047738    2.139064    0.707596
H     -2.898419   -0.082292   -0.045425
C     -1.840257    0.323895    0.161872
H     -0.335839    1.205758    1.413935
H      0.454197    1.822543   -0.233818
6

C     -1.278165    0.082046    0.406783
H     -2.125345    0.623514   -0.038627
H     -1.925965   -0.189569    1.291838
C     -0.825982    1.436931    0.107883
H     -0.054898    1.466936   -0.641557
H     -1.320094    2.247371    0.923991
6

C     -1.134037    1.549109    0.187892
H     -0.740272    2.493514    0.793115
H      0.066073    1.390240   -0.058386
C     -1.564085    0.310424   -0.123093
H     -1.503555    0.117896    1.180600
H     -2.654575   -0.193954    0.070183
6

C     -0.912685    1.421899    0.058465
H     -1.155189    2.348846    0.802802
H      0.306074    1.495057   -0.085066
C     -1.652302    0.220527   -0.090581
H     -1.582912    0.097194    1.040678
H     -2.533436    0.083705    0.324014
6

C     -1.762394    0.304211   -0.204038
H     -1.197145    0.260808    0.966690
H     -2.802598    0.198469    0.492817
C     -0.762104    1.376428   -0.085628
H      0.371302    1.561725    0.304817
H     -1.377511    1.965586    0.575654
6

C     -1.723611    0.278083   -0.096290
H     -1.282745    0.397326    0.840724
H     -2.937843   -0.033920    0.390694
C     -0.745607    1.335234   -0.009980
H      0.338088    1.610201    0.233741
H     -1.178732    2.080304    0.691424
6

C     -1.587513    0.182130   -0.194546
H     -2.901528    0.120404    0.218083
H     -2.248528    1.397891   -1.194543
C     -0.816200    1.272903    0.306492
H      0.386059    1.659169   -0.144676
H     -1.219239    2.201670    0.682220
6

C     -1.510485    0.072536   -0.026728
H     -0.686846   -1.731295    0.954618
H     -2.717408    0.169904    0.022471
C     -0.890349    1.357479    0.189640
H     -1.106600    2.364546    0.861186
H      0.086422    1.471811   -0.178995
6

C     -1.604724    0.357314   -0.107508
H     -2.578281    0.172717    0.112660
H      0.600534    1.264333    1.144994
C     -0.827286    1.282517    0.398456
H      0.094287    1.464419   -0.211072
H     -1.222416    2.159309    0.675037
6

C     -0.804011    1.367182    0.232315
H     -1.111267    2.381533    0.803546
H      0.161620    1.481643   -0.117600
C     -1.585045    0.184024   -0.182864
H     -0.472594   -1.349463   -2.061794
H     -2.799717    0.021894    0.132175
6

C     -0.535949    1.117743    0.121664
H      0.217150    1.646801   -0.113751
H      0.489890    0.354080    1.051647
C     -1.638211    0.372395   -0.078307
H     -2.566411    0.491341    0.328901
H     -1.614998    1.807995    0.609066
6

C     -0.789916    1.464102    0.206565
H      0.155891    1.252432   -0.170583
H     -1.242086    2.275016    0.842237
C     -1.592291    0.524918   -0.147340
H     -2.670018   -0.080192    0.136693
H     -1.472319    2.071696   -1.194872
6

C     -1.933864    0.485230   -0.061178
H     -1.273241    0.532006    0.934375
H     -2.660583   -0.630950   -0.054122
C     -0.999341    1.675599    0.244592
H     -0.751095    2.483656    1.011743
H      0.087674    1.121687   -0.025098
6

C     -1.897037    0.421502   -0.162601
H     -1.302769    0.459441    0.926060
H     -2.544435   -0.493160    0.048911
C     -0.976446    1.688544    0.297943
H     -0.774722    2.486481    0.909241
H     -0.035042    1.104420    0.030757
6

C     -1.258526    1.786245    0.129971
H     -0.296063    1.069451   -0.130306
H     -0.632288    2.550703    0.888437
C     -1.625915    0.413438    0.132289
H     -2.374018   -0.178084   -0.322358
H     -1.343640    0.025475    1.352278
6

C     -0.893877    1.283230    0.212950
H     -1.157014    2.325847    0.787562
H      0.213333    1.537803   -0.127102
C     -1.626925    0.130091   -0.159884
H     -0.003002   -1.371864   -1.648291
H     -2.673937    0.159305    0.154047
6

C     -0.818516    1.389933    0.236634
H     -1.411330    2.197258    0.809551
H      0.277986    1.361600   -0.218005
C     -1.588669    0.269221   -0.180430
H     -0.922958    0.335086   -2.611823
H     -2.597891    0.218264    0.219822
6

C     -0.835547    1.350440    0.245133
H     -1.163644    2.205326    0.707811
H      0.074131    1.476679   -0.086253
C     -1.592789    0.227668   -0.176853
H     -0.952697    0.537162   -2.572282
H     -2.620571    0.176163    0.177735
6

C     -0.850893    1.483937   -0.121967
H     -1.337465    2.089315    0.610060
H      0.250244    1.479059    0.271055
C     -1.725884    0.147086   -0.244507
H     -2.521228    0.337725    0.547503
H     -1.345223    0.130106    0.988167
6

C     -0.754894    1.326894    0.006994
H      0.140612    1.804066   -0.298590
H     -1.205974    1.921912    0.804827
C     -1.303820   -0.049305    0.196646
H     -1.722804    0.177176    1.223930
H     -2.683570    0.486484    0.116505
6

C     -0.692776    1.455676    0.052248
H      0.360536    1.602675   -0.260090
H     -1.424675    2.048296    0.807573
C     -1.444307    0.069670    0.018289
H     -1.755809    0.119969    1.029723
H     -2.573420    0.370941    0.402568
6

C     -0.822793    1.306007    0.205512
H     -1.239410    2.204267    0.756813
H      0.268410    1.569116   -0.148456
C     -1.660644    0.168258   -0.110654
H      0.427140   -1.206555    0.265220
H     -2.683984    0.188628    0.164359
6

C     -0.946125    1.526426    0.161347
H     -1.043138    2.693905   -0.721528
H     -0.826449    2.391142    0.812052
C     -1.660331    0.426120   -0.103351
H      0.028836    1.365263   -0.024952
H     -2.734351   -0.272675    0.022477
6

C     -0.987703    1.300021    0.301691
H     -1.333168    2.167645    0.715173
H      0.391593    0.320528    1.019555
C     -1.605226    0.312759   -0.262956
H      0.411324    1.464498   -0.175392
H     -2.623647    0.191353    0.289056
6

C     -0.884972    1.676209   -0.055977
H     -0.845364    2.262093    0.818799
H      0.118623    1.393371    0.099536
C     -1.786212    0.422080   -0.098082
H     -1.415887    2.545707   -1.389332
H     -2.740496   -0.317477    0.103295
6

C     -0.810189    1.297276    0.353110
H      0.126354    1.499670   -0.107973
H     -0.988517    2.228528    0.657557
C     -1.830858    0.640929   -0.108998
H     -0.932322    0.892297    1.865193
H     -2.635210   -0.230127    0.073876
6

C     -1.620535    0.076896    0.196560
H     -2.726756    0.227770   -0.029978
H     -1.921165   -1.323905    0.934088
C     -0.494911    1.180431    0.170858
H     -1.591406    0.159605    1.221639
H      0.072935    1.807771   -0.322308
6

C     -1.516305   -0.054922   -0.031276
H     -1.252163   -0.903391   -0.499627
H     -1.396682    0.090748    1.309461
C     -1.131510    1.537336    0.202657
H     -2.680955    0.195508   -0.051725
H     -0.944545    2.417764    0.811925
6

C     -0.741802    1.180378    0.403155
H     -1.164716    2.262279    0.815255
H     -0.473313    0.335637    1.532952
C     -1.781001    0.332429    0.251317
H      0.163151    1.594218   -0.411886
H     -2.614052    0.066972   -0.190268
6

C     -1.808980    0.102426    0.219736
H     -1.322613    0.207245    1.023975
H     -2.789359    0.189115    0.127464
C     -0.660040    1.165786   -0.254810
H     -1.243495   -0.992808   -0.155490
H      0.220319    1.787900    0.120407
6

C     -0.883327    1.404688    0.253023
H      0.227687    0.956522    0.836366
H      0.153184    1.507774   -0.298130
C     -1.904337    0.248598    0.220315
H     -0.888016    2.471043    0.937018
H     -2.615923   -0.195826   -0.244653
6

C     -1.585330    0.147457   -0.080541
H     -2.626020    0.274811    0.146453
H      0.363700   -1.348001   -0.334625
C     -0.881319    1.338836    0.216785
H      0.173800    1.537184   -0.141231
H     -1.219551    2.137988    0.726106
6

C     -1.634105    0.180261   -0.202012
H     -2.592716    0.278541    0.262716
H      0.226967   -0.440136   -1.454749
C     -0.813684    1.312527    0.170016
H      0.185067    1.531350   -0.067418
H     -1.282982    2.133597    0.704271
6

C     -1.913172    0.393296    0.365051
H     -0.790937    0.284543    1.245868
H     -2.863257   -0.013718   -0.476533
C     -0.940828    1.370956    0.193505
H      0.072926    1.347067   -0.082020
H     -1.095181    2.285084    0.804440
6

C     -1.843359    0.454340   -0.147453
H      0.225149    1.290709   -0.031854
H     -2.716194   -0.325827    0.130656
C     -0.735131    1.666268    0.003670
H     -1.000696    2.793739   -0.703341
H     -1.068884    2.350786    0.912554
6

C     -1.196300    0.131212    0.226777
H     -2.464509    0.405409    0.062389
H     -1.747680    0.072382    1.198292
C     -0.970649    1.442704   -0.005630
H      0.041056    1.448068   -0.374306
H     -1.192368    2.167453    0.942788
6

C     -1.158934    0.121908    0.319848
H     -2.501289    0.470397   -0.068336
H     -1.869462   -0.234124    1.388346
C     -0.817977    1.378684    0.115807
H      0.013348    1.583399   -0.576716
H     -1.196136    2.346964    0.871362
6

C     -1.791405    0.230343    0.099301
H     -1.052493    0.454822    1.272720
H     -2.885602   -0.045827   -0.239422
C     -0.926228    1.457653    0.130033
H     -1.133314    2.171630    0.946613
H      0.258593    1.398608   -0.158935
6

C     -1.650458    0.129184    0.095791
H     -2.669260    0.155468   -0.042503
H     -1.185154   -1.667953    1.387990
C     -0.835702    1.362814    0.238385
H      0.114881    1.561953   -0.218263
H     -1.097881    2.226857    0.794162
6

C     -1.717090    0.218318    0.417810
H     -2.540740    0.078525   -0.333505
H     -1.444071    1.532306    1.812227
C     -0.829740    1.451955    0.275845
H      0.013061    1.437629   -0.418982
H     -1.063912    2.249849    0.926403
6

C     -2.014637    0.578009    0.373335
H     -2.450488   -0.264697   -0.194176
H     -1.306611    0.167182    0.973441
C     -0.984850    1.468016    0.309085
H      0.286028    1.280242   -0.302226
H     -1.059893    2.438475    0.890852
6

C     -0.987224    1.557374    0.140486
H      0.020797    1.256068   -0.032496
H     -0.624480    2.223271    1.495700
C     -1.563083    0.137340   -0.051325
H     -2.590749    0.210644    0.075214
H     -1.240413    0.291046    1.104893
6

C     -0.660943    1.382595    0.057008
H     -2.879281   -0.066828    0.164234
H      0.385431    1.659272   -0.137895
C     -1.694220    0.289666    0.088549
H     -0.476101   -0.641099   -0.107835
H     -1.511659    0.187768    1.064875
6

C     -1.726771    0.299691    0.106578
H     -0.455787    0.651818    1.464022
H     -2.760633   -0.026195   -0.138898
C     -0.609379    1.193071    0.454909
H      0.139608    1.547988   -0.401329
H     -1.181245    2.421721    0.846314
6

C     -1.691843    0.619007   -0.184245
H     -1.728541   -0.316198    0.681523
H     -2.476934   -0.029122    0.838799
C     -0.708384    1.531681    0.070147
H      0.356166    1.429683    0.220977
H     -1.280914    2.432177    0.423111
6

C     -0.920800    1.518639    0.078980
H     -1.140197    2.234090    0.753927
H      0.063840    1.472735   -0.170013
C     -1.442390    0.112213   -0.073448
H     -2.540059    0.320833    0.140268
H     -1.550844    0.008717    1.320597
6

C     -1.600775    0.140668    0.042248
H     -1.222755   -1.083327   -0.277534
H     -2.596769    0.111588   -0.117996
C     -1.207997    1.488607    0.181016
H     -0.865721    2.518538    0.763962
H     -1.398735   -0.072968    1.371812
6

C     -0.511038    1.379560    0.615017
H     -1.357780    2.019727    0.687035
H      0.217368    1.573643   -0.524502
C     -1.644635    0.350098    0.249223
H     -2.842335    0.113247   -0.159200
H     -0.088790    1.884881    1.657773
6

C     -1.645935    0.115178   -0.195028
H      0.142866   -1.157531   -1.048189
H     -2.751585    0.065086    0.167415
C     -0.818887    1.383617    0.168764
H     -1.121035    2.359065    0.806608
H      0.199023    1.513330   -0.080187
6

C     -1.602356    0.265386   -0.112853
H     -2.594654    0.127770    0.118294
H      0.451671   -0.517482   -1.436967
C     -0.875531    1.495451    0.284524
H      0.234523    1.310399   -0.256467
H     -1.300401    2.237269    0.834074
6

C     -1.620955    0.204678   -0.179992
H      0.392043   -0.456900   -1.474342
H     -2.694070    0.098141    0.179273
C     -0.921930    1.384336    0.216097
H     -1.113860    2.240142    0.734996
H      0.212395    1.508979   -0.082802
6

C     -0.868830    1.392153    0.295289
H     -1.182764    2.154095    0.688071
H      0.239447    1.527957   -0.136381
C     -1.592976    0.223240   -0.155863
H      0.374322   -0.527600   -1.464859
H     -2.733297    0.138832    0.176457
6

C     -0.765164    1.344853    0.348099
H      0.156797    1.657926   -0.207538
H     -1.152618    2.233693    0.537951
C     -1.576396    0.279259   -0.136702
H     -2.463281    0.235580    0.343226
H     -1.729787   -0.084083    1.165276
6

C     -0.702251    1.221419    0.215226
H      0.251200    1.687177   -0.167672
H     -1.259814    2.183999    0.656021
C     -1.609550    0.264311   -0.079184
H     -2.801406    0.215464    0.133687
H     -1.408629    0.094858    1.292234
6

C     -0.774854    1.225606    0.207067
H      0.121312    1.646036   -0.572230
H     -1.306530    2.470169    0.845525
C     -1.359312    0.015758    0.236353
H     -2.468605    0.542910   -0.052685
H     -1.742461   -0.233251    1.386281
6

C     -1.641574    0.176055   -0.146296
H     -2.618981    0.184244    0.193403
H      0.377365   -0.481161   -1.347166
C     -0.814129    1.356328    0.086467
H      0.159316    1.479909   -0.069925
H     -1.223052    2.239739    0.803924
6

C     -1.796895    0.248715   -0.218706
H     -2.623163   -0.128549    0.085418
H     -1.045147    0.725334   -2.284816
C     -0.877988    1.457589    0.367157
H      0.132162    1.425994   -0.131638
H     -0.972536    2.432526    0.765342
6

C     -0.711269    1.263427    0.463858
H      0.267393    1.617876   -0.369493
H     -1.173125    2.206249    0.735415
C     -1.638549    0.357276    0.126187
H      0.190740    0.936950    1.094369
H     -2.882870   -0.008552   -0.088394
6

C     -0.920301    1.561834    0.040874
H     -1.100325    2.273488    1.006061
H      0.120799    1.276979   -0.272359
C     -1.741019    0.380074    0.256493
H     -1.078245    1.501731   -1.023175
H     -2.497573   -0.056098   -0.163496
6

C     -0.693680    1.414856    0.189979
H     -0.765403    2.407830   -0.523761
H     -1.224912    2.158030    0.766730
C     -1.961844    0.446525   -0.056121
H      0.576554    1.624275   -0.177684
H     -2.834538   -0.207410    0.144669
6

C     -0.898037    1.358078    0.105032
H     -0.983500    2.300119    0.895156
H      0.117473    1.537301   -0.209015
C     -1.783039    0.247181    0.227522
H     -2.151274    1.894701   -0.368058
H     -2.591317   -0.006403   -0.151123
6

C     -0.700192    1.022168    0.101086
H      0.040577    1.816294   -0.322313
H     -1.797005   -0.866266   -0.454486
C     -1.660003    0.104929    0.241355
H     -2.561748    0.392203   -0.148555
H     -1.479306    0.116878    1.365198
6

C     -0.636748    1.398822    0.079431
H      0.329684    1.713433   -0.301214
H     -2.755679    0.050899    0.056792
C     -1.684411    0.243481    0.080332
H     -1.613518    0.045837    1.321431
H     -0.895151   -0.314290   -0.626115
6

C     -1.659575    0.014406    0.102475
H     -2.642572    0.102657    0.021474
H     -1.473639    0.256751    1.054876
C     -0.982466    1.420267    0.274648
H      0.202254    1.598812   -0.203228
H     -0.974452    2.274336    0.800067
6

C     -1.609649    0.018050    0.070474
H     -2.851979   -0.169208   -0.335527
H     -1.317986    0.509247    1.297645
C     -0.799781    1.607499    0.203592
H     -0.042804    1.324195   -0.323807
H     -0.908252    2.377445    1.137934
6

C     -1.603417    0.249581   -0.132134
H     -2.493034    0.295612    0.275161
H     -1.611444    0.078137    1.313500
C     -0.866399    1.315977    0.051407
H      0.232579    1.682451   -0.133038
H     -1.188734    2.045471    0.675416
6

C     -1.505288    0.295130   -0.111095
H     -2.390021    0.434973    0.316651
H     -1.641761    0.077153    1.262657
C     -0.730058    1.268625    0.091653
H      0.182317    1.540343   -0.252888
H     -1.445639    2.051003    0.743333
6

C     -0.558247    1.295537    0.326201
H     -1.218052    2.136285    0.755447
H     -0.540124    0.716808    1.355044
C     -1.787692    0.362741    0.191772
H     -2.737065    0.026185   -0.093036
H      0.162636    1.615529   -0.312810
6

C     -0.596622    1.284062    0.410944
H     -0.629519    1.136415    1.450882
H      0.003335    1.539477   -0.351177
C     -1.612364    0.332872    0.196044
H     -2.730882    0.111568   -0.138350
H     -1.201887    2.168297    0.750111
6

C     -0.565424    1.222222    0.310788
H      0.366030    1.817213   -0.203483
H     -1.187829    2.118324    0.661690
C     -1.916260    0.279493    0.043328
H     -2.834937   -0.000977    0.055250
H      0.212389    0.964848    1.027737
6

C     -0.627715    1.110127    0.449992
H     -1.266968    1.960570    0.552092
H      0.241529    1.467574    1.181185
C     -1.574232    0.229937    0.101190
H     -2.786499    0.342082    0.027377
H      0.116994    1.793561   -0.263079
6

C     -0.556396    1.129018    0.078408
H     -2.945609    0.168638   -0.108291
H      0.263638    1.898846   -0.268533
C     -1.679772    0.103802    0.275340
H     -1.442534    0.152168    1.259848
H     -1.381844   -0.868663   -0.497918
6

C     -2.062331    0.570599    0.081355
H     -2.376198   -0.513322   -0.089804
H     -1.308625    0.446651    0.935714
C     -0.941817    1.595866    0.169870
H     -0.059694    1.140362   -0.020171
H     -0.781785    2.427072    0.973348
6

C     -1.739372    0.405886    0.085525
H     -2.882801   -0.029449   -0.004893
H      0.372799    1.643777   -0.336014
C     -0.600089    1.222345    0.356268
H     -1.288956    2.193717    0.766686
H      0.006414    0.716436    1.138349
6

C     -0.810973    1.292310    0.401707
H     -1.205785    2.430699    0.880107
H      0.282652    1.422121   -0.365507
C     -1.761176    0.351097   -0.019442
H      0.301764    1.021893    1.407816
H     -2.643138   -0.059951   -0.029293
6

C     -0.739164    1.284937    0.380505
H     -0.015556    1.448421   -0.342385
H     -0.164104    0.916549    1.476215
C     -1.709354    0.439192    0.199937
H     -1.058269    2.325072    0.831641
H     -2.616077   -0.061345   -0.202126
6

C     -0.879428    1.461231    0.099156
H     -0.985624    2.250956    0.785395
H     -1.252177    2.115779   -1.223605
C     -1.700384    0.520622   -0.089927
H      0.055542    1.369758   -0.018871
H     -2.628525   -0.166291    0.091818
6

C     -0.932074    1.426280    0.113064
H     -1.065482    2.291697    0.834321
H     -1.426422    2.124877   -1.254836
C     -1.700562    0.446439   -0.091514
H      0.210173    1.390506   -0.090685
H     -2.650475   -0.118646    0.102387
6

C     -0.916911    1.694139    0.172990
H     -0.779974    2.339934    1.037282
H     -0.089838    1.133833   -0.261339
C     -2.250125    0.637909   -0.013132
H     -1.617515    0.346330    1.201267
H     -1.876087   -0.484917   -0.086758
6

C     -1.638633    0.543445    0.310193
H     -1.567722    0.029187    1.271328
H     -2.490550    0.041471   -0.166052
C     -0.702336    1.391788    0.275315
H     -1.993586    2.199094    0.439991
H      0.038569    1.446582   -0.454012
6

C     -0.648695    1.348425    0.496860
H     -1.012879    2.426775    0.788324
H      0.272107    0.979226    1.230480
C     -1.762918    0.369181    0.033719
H     -2.805252   -0.210332   -0.131010
H      0.091325    1.502227   -0.320321
6

C     -1.645447    0.221985    0.173466
H     -2.702063    0.212618   -0.113902
H     -1.908633   -0.727912    0.154153
C     -0.674562    1.157302    0.139332
H      0.108136    1.714838   -0.298027
H     -1.446736    0.145729    1.335902
6

C     -0.679434    1.526754   -0.056959
H     -1.349121    2.114809    0.582849
H      0.380808    1.545173    0.351082
C     -1.926966    0.096897    0.000022
H     -1.087724    0.223455    0.767174
H     -2.868012    0.160139    0.406143
6

C     -0.786437    1.393165    0.192589
H     -1.286935    2.056077    0.685357
H      0.254949    1.528136   -0.096511
C     -1.605740    0.269516   -0.152141
H      0.350111   -0.552423   -2.035491
H     -2.714258    0.189382    0.238278
6

C     -0.842558    1.372797    0.210251
H     -1.273499    2.344836    0.853657
H      0.037670    1.295632   -0.164640
C     -1.547312    0.208803   -0.190012
H      0.101980   -1.338389   -1.585377
H     -2.512720    0.214208    0.158315
6

C     -1.709568    0.369487    0.322687
H     -2.456848   -0.070407   -0.337007
H     -1.051179    0.090469    1.124289
C     -1.064610    1.871001   -0.021885
H     -0.281749    0.852876   -0.013946
H     -0.966495    2.553801    0.976172
6

C     -1.571669    0.192902    0.054132
H     -1.114115    0.955146   -0.722644
H     -1.406001    0.229522    1.144206
C     -2.249877   -2.235092   -0.439269
H     -2.651053    0.174607    0.044300
H     -2.394263   -2.702397   -1.446600
6

C     -1.466778   -0.162829    0.441467
H     -2.291656    0.513081   -0.205083
H     -1.949034    0.079037    1.400264
C     -0.560011    1.556772    0.173213
H     -1.167775    1.960216    0.948001
H     -0.095195    1.720950   -0.707551
6

C     -0.795897    1.460753    0.203233
H      0.118916    1.424236   -0.215390
H     -1.224746    2.185207    0.819830
C     -0.551595   -1.035523    1.154193
H      0.428539   -0.938080    1.226836
H     -1.517321   -1.659825    1.383225
6

C     -1.552935    0.106197   -0.154291
H     -2.693213    0.182268    0.127920
H      0.400629   -1.087532   -0.914546
C     -0.862930    1.300212    0.239428
H      0.112051    1.505302   -0.131494
H     -1.141393    2.342298    0.786009
6

C     -1.584759    0.135519   -0.254750
H     -2.607671    0.251967    0.263675
H     -0.141115   -0.610593   -1.816085
C     -0.859341    1.340127    0.173209
H      0.125591    1.490618   -0.036771
H     -1.212242    2.218046    0.722209
6

C     -1.470742    0.030879    0.017954
H     -2.602602    0.435705    0.099558
H     -0.099895   -0.868997    1.132027
C     -0.921659    1.361529    0.159057
H      0.150488    1.504397   -0.196646
H     -1.293905    2.103766    0.787649
6

C     -0.810976    1.377378   -0.068520
H     -1.237416    2.013029    0.579822
H      0.266261    1.650046    0.174248
C     -1.733359    0.233944   -0.227026
H     -2.617220    0.261684    0.428953
H     -1.397740    0.131145    1.162834
6

C     -1.644793    0.049782   -0.020390
H     -1.668999    0.160985    1.095374
H     -1.034643   -0.589342    0.550598
C     -0.945935    1.698106    0.203930
H     -0.724001    2.528400    0.909766
H     -2.686269   -0.250839    0.052361
6

C     -0.759450    1.284355    0.030142
H      0.348011    1.534327   -0.081280
H     -1.410001    1.987241    0.734823
C     -1.677178    0.436968   -0.094659
H     -2.639801    0.193385    0.278546
H     -0.956609    1.891962   -1.045381
6

C     -0.848557    1.456268    0.103078
H      0.185959    1.388260   -0.060147
H     -1.329379    2.116088    0.758706
C     -1.588403    0.212584   -0.223948
H     -2.558041    0.263076    0.289884
H     -0.156710   -0.398637   -1.955244
6

C     -0.878845    1.269767    0.117919
H      0.201052    1.490751   -0.071058
H     -1.358409    2.139873    0.741392
C     -1.553686    0.153489   -0.224976
H     -2.548532    0.382396    0.304296
H     -1.527500   -1.556120   -2.212970
6

C     -0.857743    1.377278    0.065443
H      0.215715    1.474104   -0.014074
H     -1.348017    2.022385    0.700150
C     -1.585456    0.240711   -0.221213
H     -2.562919    0.321798    0.337267
H     -1.792937   -1.625719   -2.240501
6

C     -0.829348    1.403300    0.072594
H      0.282972    1.443236   -0.056273
H     -1.357216    2.133098    0.770741
C     -1.607229    0.220102   -0.237610
H     -2.627599    0.236540    0.318121
H     -1.847687   -1.549197   -2.153740
6

C     -1.038949    1.332732    0.250029
H     -0.024626    1.281241   -0.108382
H     -1.121527    2.275336    0.765175
C     -1.930813    0.419125    0.595974
H     -0.906720    0.231968    0.958386
H     -2.507815    0.126826   -0.410870
6

C     -0.704884    1.526934    0.300105
H     -0.010741    1.587597   -0.381253
H     -0.937937    2.522942    0.737837
C     -1.350872    0.174319    0.253446
H     -2.064226   -0.217849    0.912195
H     -2.461790    0.073285    0.227982
6

C     -1.628521    0.185721   -0.165879
H     -2.603416    0.146933    0.141907
H     -0.587345   -1.300378   -2.047628
C     -0.884641    1.366107    0.270164
H      0.231787    1.398402   -0.215323
H     -1.253628    2.339114    0.836704
6

C     -1.567968    0.132427   -0.335135
H     -0.169809   -0.284806   -1.923090
H     -2.621063    0.339452    0.395830
C     -0.881818    1.313785    0.110802
H     -1.379461    2.150439    0.727419
H      0.311891    1.500173   -0.031343
6

C     -1.599109   -0.000585   -0.125836
H      0.093721   -1.417723   -0.268381
H     -2.602924    0.375447    0.189639
C     -0.844607    1.211232    0.120820
H     -1.157475    2.192996    0.707335
H      0.065695    1.657186   -0.024385
6

C     -0.815255    1.378210    0.227947
H      0.153755    1.490389   -0.163169
H     -1.237803    2.266089    0.791545
C     -1.584187    0.041858   -0.132119
H     -2.654929    0.259729    0.143369
H      0.173580   -1.032256   -0.565146
6

C     -1.422841   -1.899804    0.293195
H     -2.152916   -2.600571    0.054824
H     -1.511693   -2.054416    1.430894
C     -1.559727    0.190997   -0.013600
H     -1.396028    0.231763    1.210997
H     -2.672968    0.174271    0.045242
6

C     -2.177532    0.560866    0.244920
H     -1.145525    0.455797    0.968540
H     -2.534077   -0.481262   -0.176816
C     -0.999998    1.619688    0.039929
H      0.167947    1.256602    0.029291
H     -0.841264    2.255537    0.944447
6

C     -1.670589    0.178375   -0.155079
H     -2.637149    0.127974    0.160023
H      0.153700   -1.132412   -1.263710
C     -0.865127    1.390043    0.222157
H      0.224135    1.478418   -0.138507
H     -1.189690    2.261467    0.778978
6

C     -1.606729    0.198494   -0.142724
H     -2.736672    0.110183    0.162210
H      0.426630   -1.267698   -1.028639
C     -0.868006    1.379272    0.210266
H      0.277697    1.495130   -0.148587
H     -1.204710    2.253198    0.786408
6

C     -0.873891    1.353569    0.167198
H      0.090767    1.561827   -0.019808
H     -1.115459    2.222773    0.709777
C     -1.513102    0.048173   -0.197645
H     -2.726735    0.249934    0.208051
H      0.190180   -0.984240   -1.088848
6

C     -0.793555    1.296853    0.197780
H     -1.224113    2.101855    0.630573
H      0.135196    1.571516   -0.005161
C     -1.614524    0.219343   -0.252098
H     -0.559542   -0.251562   -2.460495
H     -2.641423    0.246709    0.296478
6

C     -0.945541    1.320458    0.111169
H     -1.107328    2.205253    0.723107
H      0.135264    1.578730   -0.006880
C     -1.571852    0.071880   -0.169560
H      0.421685   -0.838320   -0.576132
H     -2.648962    0.259954    0.209737
6

C     -0.884614    1.160083    0.305922
H     -1.214748    2.278558    0.766442
H      0.034132    1.586309   -0.230424
C     -1.531693   -0.039825   -0.021115
H     -2.145669   -0.565259    1.658266
H     -2.541496    0.451151    0.046747
6

C     -0.862224    1.378497    0.141534
H     -1.143797    2.412249    0.927791
H      0.333719    1.424291   -0.202039
C     -1.754763    0.350224   -0.051222
H      0.072711    1.349986    1.258259
H     -2.711356   -0.128984    0.051508
6

C     -0.819470    1.394496    0.081600
H     -0.915617    2.150503    0.650550
H      0.066480    1.622137    0.098918
C     -1.665827    0.328932   -0.124002
H     -0.518830    0.486517    1.562502
H     -2.803986   -0.059792    0.160507
6

C     -0.851781    1.304619    0.128231
H     -1.145279    2.206165    0.756557
H      0.325807    1.607559   -0.083994
C     -1.692531    0.282400   -0.097385
H     -0.640537    0.338836    1.638465
H     -2.774636    0.035533    0.164164
6

C     -0.734775    1.362502    0.355898
H     -1.406895    1.980103    0.668464
H      0.044365    1.404937   -0.249509
C     -1.407180    0.323605   -0.040349
H     -0.714270    0.331488    1.880781
H     -2.633935    0.365129    0.133068
6

C     -1.823859    0.392926    0.040074
H      0.149095    1.301597   -0.184130
H     -2.617623   -0.285770   -0.086126
C     -0.888926    1.548657    0.116062
H     -0.740415    2.244731   -0.593563
H     -0.957107    2.478866    0.981692
6

C     -1.889975    0.492921    0.073051
H     -1.149302    2.401309    0.847831
H     -2.659292   -0.217301   -0.123990
C     -0.628843    1.318467    0.455974
H     -0.437189    0.728420    1.645443
H      0.188992    1.440880   -0.385293
6

C     -1.778794    0.406384   -0.035483
H     -1.359513    0.316767    0.964871
H     -2.522497   -0.111465    0.198822
C     -1.010650    1.412423   -0.017838
H      0.258441    1.299474    0.010397
H     -1.117436    2.343646    0.929542
6

C     -1.050502    1.498203    0.257338
H     -1.922570   -1.218038    0.101312
H     -1.117596    2.459650    0.644396
C     -1.531501    0.030099    0.211276
H     -1.372264   -0.176814    1.147565
H     -2.598134    0.375296   -0.019534
6

C     -1.646912    0.380832    0.275241
H     -0.246333    0.593267    1.098180
H     -2.577447    0.017181   -0.241456
C     -0.816327    1.452370    0.390597
H     -0.041760    1.389075   -0.369524
H     -1.055973    2.196818    0.812715
6

C     -1.678567    0.196879    0.113504
H     -1.070658    2.381578    0.739955
H     -2.903442    0.017976   -0.140265
C     -0.610040    1.093771    0.496869
H     -0.083325    1.264601    1.704872
H      0.124286    1.746073   -0.342491
6

C     -0.586311    1.576335   -0.194501
H     -1.298097    1.965833    0.626936
H      0.249274    1.421887    0.418371
C     -1.907127    0.475021   -0.032903
H     -2.779269   -0.079030    0.487504
H     -1.208920    0.307182    0.744904
6

C     -1.569796    0.226226    0.062348
H     -1.340151    0.549758    1.229515
H     -2.449118   -0.122958   -0.349073
C     -1.117903    1.538892    0.375392
H     -0.276352    1.143194   -0.330089
H     -0.777130    2.332117    1.062217
6

C     -1.465025    0.035879    0.176574
H     -2.386674    0.634579   -0.070909
H     -1.490790    0.029602    1.360043
C     -0.847667    1.222451    0.204038
H     -1.384360    2.198396    0.815591
H      0.044067    1.546320   -0.435026
6

C     -0.989464    1.394073    0.142160
H     -1.136461    2.267134    0.744930
H      0.175463    1.490157   -0.006976
C     -1.525978    0.039804   -0.286316
H     -0.324838   -1.172408   -1.592909
H     -2.661980    0.245107    0.273774
6

C     -0.982737    1.443686    0.123010
H     -1.176896    2.286031    0.813147
H      0.039586    1.309980   -0.049567
C     -1.578607    0.164030   -0.237572
H     -0.119568   -0.872586   -1.692452
H     -2.439766    0.232549    0.218555
6

C     -0.828831    1.376066    0.241476
H     -1.237071    2.281173    0.782062
H      0.281322    1.540991   -0.160157
C     -1.664770    0.032748   -0.176309
H     -0.211541   -1.214083   -1.123061
H     -2.689070    0.205299    0.180500
6

C     -0.773257    1.422893    0.442346
H     -1.000505    2.303752    0.699966
H      0.078339    1.481787   -0.191411
C     -1.753575    0.338101   -0.093406
H     -2.689422   -0.110257    0.010078
H      0.861588    1.424608    1.058807
6

C     -0.694526    1.213948    0.508928
H     -0.896847    2.628317    0.834706
H     -0.116891    1.493450   -0.296290
C     -1.645002    0.255257    0.007123
H     -2.785154   -0.154695   -0.186894
H      0.139095    1.317732    1.986326
6

C     -0.623076    1.174831    0.472512
H     -1.261086    2.302305    0.827296
H     -0.061340    1.442527   -0.444423
C     -1.649528    0.359978    0.197009
H     -2.543390    0.156635   -0.184822
H      0.119245    1.894813    1.444630
6

C     -0.566270    1.164876    0.039083
H     -1.887681   -1.289195    0.491379
H      0.107197    1.903410   -0.313170
C     -1.566126   -0.062998    0.214556
H     -1.681943    0.054438    1.275064
H     -2.653529    0.392747    0.021238
6

C     -1.730187    0.337309    0.248719
H     -0.912527    2.244717    0.898276
H     -2.589565   -0.070632   -0.155386
C     -0.995163    1.462657    0.030794
H      0.089023    1.462226   -0.154831
H     -1.862917    1.781949   -0.988477
6

C     -1.977083    0.580022    0.010440
H     -0.090954    1.459410    1.233700
H     -2.668183   -0.208788    0.029060
C     -0.633806    1.202239    0.269671
H      0.226976    1.634425   -0.156995
H     -1.086323    2.228379    0.715397
6

C     -1.822886    0.476827   -0.014503
H     -1.118216    2.203902    0.918031
H     -2.578167   -0.209768    0.076966
C     -0.892729    1.720664   -0.008133
H      0.273578    1.244651   -0.104789
H     -1.889075    2.397926   -1.253151
6

C     -0.610453    1.388663    0.159611
H     -1.330793    2.317639    0.951422
H     -0.223029    0.922604    1.119490
C     -1.712290    0.364726    0.076452
H     -2.761192   -0.042441   -0.010236
H      0.276308    1.407688   -0.309677
6

C     -1.037082    1.420356    0.302219
H     -0.348588    2.279425   -1.096399
H     -1.050957    2.252717    0.794082
C     -1.635684    0.185978    0.034256
H     -2.582212    0.115278   -0.025803
H      0.167515    1.461947   -0.237182
6

C     -1.456321    0.142187    0.151708
H     -0.532489   -0.304863   -0.036976
H     -1.400900    0.046974    1.238939
C     -1.070260    1.578218    0.189332
H     -0.933993    2.326931    0.762738
H     -2.808523    0.092125   -0.101676
6

C     -0.865912    1.396428    0.228194
H      0.088904    1.393748   -0.081452
H     -1.248005    2.196731    0.724798
C     -1.497310    0.204733   -0.253499
H     -2.616097    0.244636    0.249531
H     -0.474023   -0.791204   -2.216836
6

C     -0.855325    1.432592    0.264471
H      0.276398    1.360613   -0.216098
H     -1.437477    2.099841    0.758243
C     -1.565744    0.243803   -0.184473
H     -2.556271    0.299428    0.245430
H     -1.847426   -1.622678   -1.881108
6

C     -0.868459    1.385231    0.319347
H     -1.232509    2.214030    0.741972
H      0.118594    1.435308   -0.191292
C     -1.544885    0.153435   -0.138740
H      0.437206   -0.573114   -0.777386
H     -2.611161    0.248272    0.136286
6

C     -1.558538    0.203685   -0.106084
H     -0.171237   -1.906899   -0.617815
H     -2.414877    0.472116    0.246077
C     -0.892484    1.386428    0.166292
H      0.206829    1.386610   -0.185762
H     -1.479350    1.987437    0.747050
6

C     -1.613723    0.173921   -0.153886
H      0.568269   -0.591111   -0.351350
H     -2.558302    0.380847    0.276847
C     -0.848107    1.272398    0.130040
H      0.165672    1.602825   -0.028605
H     -1.283960    2.006286    0.643177
6

C     -1.743267    0.216916   -0.053627
H     -2.802169    0.109920    0.208719
H     -1.288096    0.309784    1.058058
C     -0.724375    1.386126    0.119935
H      0.303433    1.561336   -0.006715
H     -1.275977    2.083145    0.723941
6

C     -1.696154    0.184859    0.057483
H     -1.256769    0.293503    1.368232
H     -2.620911    0.215604   -0.168531
C     -0.848138    1.341074    0.207489
H     -1.219182    2.168288    0.874581
H      0.110703    1.463900   -0.288941
6

C     -1.674057    0.379497    0.315854
H     -0.430495    0.320364    0.731225
H     -2.819840    0.071677   -0.118759
C     -0.718472    1.261637    0.179411
H     -1.176377    2.036131    0.770895
H      0.250326    1.687334   -0.279828
6

C     -1.825324    0.339150    0.138874
H      0.097094    1.522804   -0.383432
H     -2.656210   -0.025570   -0.140780
C     -0.535011    1.209680    0.386071
H     -0.271006    0.517611    1.411463
H     -1.218969    2.390212    0.866840
6

C     -1.581891    0.351799    0.211938
H     -1.412567    0.086162    1.211005
H     -2.350431   -0.117862   -0.224845
C     -1.206872    1.840979    0.017532
H     -0.646716    2.402805    0.884860
H     -0.331973    1.103345   -0.050178
6

C     -1.462202   -0.110424    0.275276
H     -2.161862    0.699979    0.058631
H     -1.957151    0.126536    1.243994
C     -0.589045    1.127783    0.249979
H     -1.265000    1.945998    0.793575
H     -0.095190    1.877356   -0.571143
6

C     -1.072889    1.363922    0.304490
H      0.044755    1.429141   -0.142809
H     -0.867420    2.443983    0.697448
C     -2.029923    0.481530    0.404393
H     -1.236157    0.041996    1.043390
H     -2.368816   -0.093344   -0.256601
6

C     -1.629654    0.079956   -0.017937
H     -1.552196    0.237012    1.147091
H     -2.472291    0.424275    0.295138
C     -0.848001    1.331910    0.005839
H      0.345251    1.643062   -0.167744
H     -1.373560    1.951014    0.787923
6

C     -0.803451    1.212399    0.068543
H     -1.284906    2.030565    0.767575
H      0.254456    1.777766   -0.311452
C     -1.451230    0.085308    0.103195
H     -2.566159    0.462984    0.166856
H     -1.679159    0.098206    1.255595
6

C     -1.520563    0.075444   -0.026609
H     -1.760123   -0.222087    1.340048
H     -2.629753    0.169789    0.159653
C     -0.971170    1.398694    0.122860
H      0.276472    1.768287   -0.237604
H     -0.925313    2.477101    0.691964
6

C     -1.316768    0.156206    0.046079
H     -1.486015    0.030681    1.279506
H     -2.748842    0.176499   -0.075661
C     -0.827589    1.426018    0.265726
H      0.052248    1.326679   -0.397600
H     -1.203485    2.551145    0.932261
6

C     -1.715100    0.327850    0.239631
H     -2.551772    0.053756   -0.136897
H     -1.130963    2.215355    0.901929
C     -0.878674    1.411142    0.152305
H      0.138089    1.428173   -0.289396
H     -0.134413    1.339122    1.359970
6

C     -0.869042    1.521304    0.042049
H     -0.238309    2.909990   -0.320953
H     -1.480072    0.066640    1.264582
C     -1.554427    0.140584    0.070752
H     -1.470483   -0.402529   -0.833565
H     -2.596678    0.243151    0.050119
6

C     -1.598302    0.392988    0.312887
H     -2.699371   -0.036757   -0.208709
H      0.106361    1.376611   -0.320434
C     -0.831148    1.435809    0.111735
H     -1.115960    2.267624    0.972093
H     -1.688537    2.000616   -0.364404
6

C     -0.932204    1.327628    0.191916
H      0.150305    1.486252   -0.069224
H     -1.138231    2.250068    0.742762
C     -1.582094    0.211852   -0.192175
H     -2.636197    0.160476    0.194293
H     -0.611360   -0.893814   -2.565611
6

C     -1.625029    0.238372   -0.166035
H     -2.669168    0.078813    0.171308
H     -0.073681   -1.408809   -1.619720
C     -0.906253    1.462059    0.207748
H     -1.183840    2.238639    0.785718
H      0.245870    1.418393   -0.131167
6

C     -1.637277    0.390732   -0.062771
H     -2.424636   -0.045665    0.015086
H     -0.152011    1.171363   -0.078018
C     -0.930447    1.589448    0.120154
H     -1.253668    2.498697   -1.192680
H     -0.994049    2.330398    0.873121
6

C     -0.893721    1.380056    0.167134
H      0.153951    1.434019   -0.117678
H     -1.177920    2.304056    0.818557
C     -1.575237    0.158422   -0.154370
H     -2.645494    0.159723    0.153931
H     -0.129410   -1.927026   -0.558630
6

C     -0.839955    1.198926    0.252272
H     -1.242397    2.195020    0.705918
H      0.134334    1.613212   -0.136045
C     -1.556645    0.059238   -0.127512
H      0.351611   -1.212702   -0.381011
H     -2.633756    0.369879    0.172940
6

C     -0.398862    1.256100    0.492465
H     -0.152804    1.736070   -0.396544
H     -1.175612    2.144075    0.500040
C     -1.563786    0.381362    0.324947
H     -1.517855   -0.112934    1.304639
H     -2.721530    0.262555   -0.175236
6

C     -1.010718    1.740367   -0.062884
H     -0.893238    2.263888    0.927837
H     -0.300651    1.051482   -0.032253
C     -1.493383    0.510100    0.174267
H     -2.569990   -0.098386   -0.224348
H     -1.262470    0.199777    1.267691
6

C     -0.923225    1.393188    0.274339
H     -1.094666    2.321004    0.791738
H      0.005259    1.402025   -0.157672
C     -1.571564    0.140964   -0.104378
H     -0.811211   -2.166201   -0.153923
H     -2.554224    0.179095    0.063545
6

C     -1.650791    0.108037   -0.162410
H     -0.164447   -1.480005   -1.034616
H     -2.584036    0.185382    0.161120
C     -0.942734    1.397035    0.206784
H     -1.157588    2.273689    0.783306
H      0.196729    1.472133   -0.121228
6

C     -1.518310    0.063233   -0.162595
H     -2.512195    0.481166    0.237295
H      0.330475   -0.640623   -0.807749
C     -0.822614    1.265946    0.183879
H      0.105077    1.482471   -0.139288
H     -1.390378    2.143460    0.748280
6

C     -0.841785    1.274638    0.206845
H      0.367779    1.641447   -0.172865
H     -1.149220    2.197291    0.756939
C     -1.767320    0.309569   -0.007490
H     -2.747873    0.013331    0.084143
H     -1.252421    1.046646    1.832101
6

C     -0.602508    1.242600    0.510631
H     -0.007671    1.486480   -0.369115
H     -1.219072    2.266418    0.744143
C     -1.645721    0.350581    0.075618
H     -2.663449    0.090197   -0.093705
H      0.204393    0.563523    1.346628
6

C     -0.790736    1.297298    0.261492
H      0.195298    1.601389   -0.130941
H     -1.271379    2.034485    0.643312
C     -1.595048    0.220996   -0.096174
H     -2.676555    0.282108    0.189884
H     -0.207934   -2.361625   -0.586521
6

C     -0.704205    1.149292    0.415587
H      0.203644    0.545889    0.959760
H     -1.043949    2.473005    0.806680
C     -1.750911    0.353445    0.007932
H     -0.040623    1.502991   -0.269130
H     -2.598732   -0.042457   -0.093497
6

C     -1.455823    0.058312    0.003131
H     -1.382817   -0.077195    1.063530
H     -1.338364   -0.609916   -0.910457
C     -1.095236    1.307477    0.469928
H     -2.562898    0.426264    0.134534
H     -1.173224    2.471578    0.569919
6

C     -1.524651    0.293132    0.265624
H     -0.699123    0.034178   -0.810236
H     -2.681631    0.100628   -0.067993
C     -1.065117    1.566389    0.239023
H     -1.450953   -0.186284    1.170169
H     -0.947644    2.412569    0.634218
6

C     -1.503495    0.223315   -0.061130
H     -1.855466   -0.153556    0.984946
H     -2.523393    0.238631    0.435386
C     -0.677073    1.332583    0.462158
H     -1.174874    2.302654    0.486800
H      0.203851    1.723602   -0.257847
6

C     -1.796580    0.435584    0.089710
H     -1.395932    2.187516    0.852976
H     -2.802736   -0.056875    0.007664
C     -0.571263    1.367146    0.292381
H      0.428092    1.502904   -0.375159
H     -0.050047    0.745583    1.004068
6

C     -1.708587    0.226315    0.265544
H      0.098215    1.501507   -0.226087
H     -2.651329    0.009981   -0.171647
C     -0.880247    1.471541    0.115915
H     -0.144936    0.438344    0.327862
H     -0.996471    2.226931    0.883847
6

C     -1.652239    0.240353   -0.082688
H     -2.643301    0.286113    0.228522
H     -1.345487    0.262765    1.511986
C     -0.723844    1.295181    0.102515
H     -1.369027    2.039233    0.725098
H      0.249992    1.575396   -0.105874
6

C     -1.476608    0.071238    0.113384
H     -2.446542    0.474007    0.091080
H     -1.607459    0.074710    1.173129
C     -0.795395    1.190291    0.272362
H     -1.273244    2.226932    0.752315
H      0.068799    1.630050   -0.351959
6

C     -0.802850    1.317487    0.210810
H     -1.270092    2.172689    0.763972
H      0.147122    1.524810   -0.174647
C     -1.570667    0.126772   -0.056498
H     -2.641933    0.294518    0.123936
H     -0.331460   -2.034354    0.101763
6

C     -0.795237    1.311713    0.199629
H     -1.278447    2.205640    0.779377
H      0.188154    1.524591   -0.169094
C     -1.571861    0.133701   -0.087090
H     -2.681029    0.260631    0.144751
H     -0.361481   -2.030069    0.139919
6

C     -0.800376    1.495824    0.183118
H      0.371957    1.615960   -0.275622
H     -1.206704    2.422509    0.640861
C     -1.724175    0.256610    0.218855
H     -1.510818   -0.297870    1.247080
H     -0.523447    0.462392   -0.543421
6

C     -1.778965    0.603896   -0.104005
H     -2.748526   -0.324135    0.125989
H     -0.098027    2.799107   -0.688455
C     -0.687146    1.674555    0.060178
H     -1.254081    2.283604    0.945287
H      0.330299    1.198357   -0.159876
6

C     -1.714685    0.361271    0.220606
H     -2.441707    0.038933   -0.145412
H     -0.255790    1.575366    0.821647
C     -0.928586    1.514731    0.162548
H      0.031019    1.317946   -0.266851
H     -1.084460    2.203396    0.896682
6

C     -1.692894    0.269927   -0.018386
H     -2.695262    0.168963    0.055850
H      0.055419    1.719136   -0.158023
C     -0.696654    1.152485    0.397071
H     -1.109029    2.125765    0.591060
H      0.357907    0.166342    1.090484
6

C     -1.820774    0.481280   -0.032344
H     -1.399777    0.203450    1.099866
H     -2.459499   -0.282330   -0.029207
C     -0.973387    1.500488    0.294713
H      0.074268    1.195931   -0.196583
H     -0.951281    2.568410    0.913866
6

C     -1.580266   -0.016517    0.039637
H     -1.364174    0.289717    1.218611
H     -2.771349    0.251266    0.039003
C     -0.918654    1.383539    0.015448
H      0.334566    1.569553   -0.188562
H     -1.230572    2.189670    0.926174
6

C     -1.745962    0.159636   -0.197211
H     -2.707819    0.341211    0.322536
H     -1.244118    0.263943    1.226569
C     -0.723779    1.329102   -0.135285
H     -1.340293    1.930856    0.655817
H      0.231521    1.642481    0.177885
6

C     -0.608199    1.235312    0.039556
H      0.273615    1.901912   -0.354213
H     -1.391491   -0.819926   -1.128072
C     -1.638269    0.038422    0.218314
H     -2.718275    0.273801   -0.005906
H     -1.669543    0.003025    1.339022
6

C     -1.601859    0.261950   -0.002422
H     -2.861214    0.189865    0.137381
H      0.199127    0.898957    1.894226
C     -0.693285    1.374698    0.300881
H     -1.335210    1.971003    0.656405
H      0.353147    1.638760   -0.224672
6

C     -1.635375    0.410841   -0.157464
H     -2.461303   -0.001920    0.204506
H     -1.313105    3.266474   -0.729467
C     -1.037584    1.687423   -0.051826
H      0.237530    1.109673   -0.079318
H     -1.241687    2.230258    0.951675
6

C     -1.711051    0.344358   -0.133634
H     -2.817984    0.019720    0.210878
H     -0.369922    1.411909   -1.536677
C     -0.684211    1.408597    0.198453
H      0.313072    1.580900   -0.091848
H     -1.238246    2.082702    0.683723
6

C     -0.801333    1.383395    0.266200
H     -1.164995    2.375603    0.808662
H      0.178164    1.459429   -0.154041
C     -1.602997    0.144275   -0.193121
H     -0.879479   -1.861113   -1.412943
H     -2.747259    0.073574    0.139873
6

C     -0.847477    1.374784    0.258507
H     -1.207138    2.245665    0.764755
H      0.188618    1.475556   -0.160506
C     -1.661233    0.176719   -0.141452
H     -0.946729   -1.950370   -1.440877
H     -2.611188    0.163553    0.146268
6

C     -0.785588    1.480005   -0.047241
H     -1.517748    2.166814    0.412177
H      0.324061    1.363557    0.516220
C     -1.961808    0.275063   -0.199193
H     -2.512667    0.335086    0.703979
H     -1.076700    0.046703    0.664369
6

C     -2.003124    0.482198    0.345685
H     -2.448785   -0.059083   -0.376583
H     -1.023998    0.194682    1.131104
C     -0.985804    1.443764    0.347369
H     -0.133388    1.281843   -0.106535
H     -0.935351    2.323824    0.709272
6

C     -0.378124    1.234077    0.424828
H     -1.154363    2.281587    0.504691
H     -0.028666    1.846278   -0.499707
C     -1.629492    0.429243    0.371145
H     -1.593954   -0.350317    1.507917
H     -2.745850    0.226360   -0.258563
6

C     -0.988925    2.131433   -0.228399
H     -1.729441    2.050397   -1.005855
H     -1.738153    2.416206    0.712864
C     -1.561363    0.191370   -0.000716
H     -2.667176    0.174426    0.047111
H     -1.400184    0.231236    1.196243
6

C     -2.197449    1.085255   -1.506004
H     -3.078146    0.989988   -0.883918
H     -1.870328    2.004934   -1.568695
C     -0.850234    1.341660    0.156034
H     -1.163115    2.238217    0.824592
H      0.111622    1.490320   -0.172953
6

C     -0.854508    1.362440    0.181719
H     -1.195056    2.259837    0.812489
H      0.168871    1.489240   -0.160431
C     -1.604850    0.134330   -0.069361
H     -1.537191   -2.410903    0.056541
H     -2.652877    0.190428    0.103158
6

C     -0.850301    1.336261    0.155161
H     -1.270950    2.358370    0.885348
H      0.286832    1.445868   -0.185926
C     -1.623972    0.157740   -0.138191
H     -1.606089   -2.454523   -0.008890
H     -2.680029    0.138038    0.151180
6

C     -0.919335    1.388440    0.191939
H      0.014915    1.534543   -0.424059
H     -1.362968    2.085819    0.724946
C     -1.544075   -0.008255    0.124735
H     -2.195610    0.741178   -0.052192
H     -1.523376   -0.074497    1.484943
6

C     -1.622358    0.192441    0.066475
H     -1.390912    0.229885    1.147785
H     -2.615454    0.174706    0.028378
C     -0.501824    1.858386   -0.633689
H     -1.359469    2.707241   -0.395210
H     -0.109257    1.911481    0.547445
6

C     -1.618378    0.192412    0.063413
H     -1.395275    0.229770    1.146419
H     -2.615069    0.174850    0.032807
C     -0.459770    1.842366   -0.665377
H     -1.309640    2.668680   -0.410377
H     -0.091358    1.881323    0.514815
6

C      0.331714    3.631264   -0.513181
H     -0.119410    4.150572    0.346999
H      0.553158    3.652333   -1.508847
C     -0.914396    1.303282    0.161065
H      0.210132    1.485010   -0.218850
H     -1.197463    2.281905    0.865458
6

C     -0.692557    1.376159    0.097853
H     -1.433685    1.922824    0.728196
H      0.393882    1.592262   -0.046699
C     -1.711097    0.158848   -0.023789
H     -1.307584    0.362752    1.019921
H     -2.779408    0.254384    0.274828
6

C     -1.851565    0.484856    0.141324
H     -2.553460   -0.082675   -0.091361
H     -1.312764    0.125026    1.096553
C     -0.864537    1.274748    0.392309
H      0.095171    1.443059   -0.205602
H     -1.043294    2.422215    0.717087
6

C     -1.440181   -1.833922    0.423400
H     -1.059191   -1.941926    1.354226
H     -2.467404   -2.132428    0.697802
C     -1.545761    0.191706    0.001720
H     -2.645431    0.175830    0.080673
H     -1.437531    0.229495    1.160245
6

C     -0.130253    3.386423   -1.450986
H     -0.856423    2.824594   -1.719906
H      0.791958    3.777764   -1.287655
C     -0.810256    1.413765    0.181539
H      0.176123    1.412085   -0.247432
H     -1.267594    2.244347    0.873567
6

C     -0.607614    1.332163    0.506523
H      0.184511    1.483664   -0.410034
H     -1.252619    2.247791    0.772146
C     -1.681903    0.397917    0.085023
H      0.064705    0.671416    0.998996
H     -2.780794   -0.025260   -0.086085
6

C     -0.576945    1.381738    0.617935
H      0.079116    1.395874   -0.446500
H     -1.264030    2.200807    0.724913
C     -1.768457    0.491507    0.079346
H      0.391806    0.520392    1.417180
H     -2.608103   -0.033649   -0.108123
6

C     -0.889813    1.656670    0.183181
H     -0.891134    2.311896    0.867270
H      0.181874    1.387205   -0.169613
C     -1.871144    0.385099    0.090027
H     -0.598385    2.800059   -0.836666
H     -2.668203   -0.304594   -0.103292
6

C     -0.679169    1.542346    0.018467
H     -0.756966    1.959540   -1.083833
H     -1.000723    2.109635    0.774748
C     -1.929566    0.307279    0.118618
H      0.410762    1.714941   -0.063710
H     -2.939724   -0.237925    0.019449
6

C     -0.860533    1.438138    0.145038
H      0.239076    1.412370   -0.101742
H     -1.271966    2.240292    0.804208
C     -1.640860    0.167421   -0.219309
H     -2.604136    0.178054    0.239379
H      0.017679   -0.828477   -1.466456
6

C     -0.841121    1.373203    0.184443
H      0.141263    1.454632   -0.091155
H     -1.229815    2.187147    0.743861
C     -1.564243    0.222696   -0.176200
H     -2.644505    0.198599    0.206624
H      0.418269   -0.954048   -1.516229
6

C     -0.868684    1.483879    0.077183
H      0.175124    1.276377    0.205144
H     -1.309198    2.487099    0.553514
C     -1.668672    0.388685   -0.321852
H     -2.351167    0.182767    0.669893
H     -1.507854   -0.151579    0.866428
6

C     -0.809338    1.496133    0.028494
H      0.159291    1.322442    0.225622
H     -1.265847    2.494708    0.560676
C     -1.650821    0.379653   -0.312500
H     -2.436395    0.137087    0.655953
H     -1.527339   -0.162795    0.892066
6

C     -0.947599    1.216300    0.453805
H     -0.381760    1.376307   -0.488188
H     -1.097325    2.216493    0.918896
C     -1.436289   -0.010965    0.239342
H     -2.429410    0.496483   -0.492204
H     -1.238067    0.372610    1.418661
6

C     -1.599122    0.176005   -0.275825
H     -0.981906   -0.871698   -2.372228
H     -2.507561    0.175751    0.198381
C     -0.916063    1.319557    0.239552
H     -1.183699    2.409015    0.817622
H      0.068025    1.355947   -0.112157
6

C     -1.232259    1.498625    0.279048
H     -0.885120    2.305443    0.717356
H     -0.938174   -0.291308   -0.258187
C     -1.617229    0.173309    0.204566
H     -1.212082    0.089392    1.303768
H     -2.723307    0.119666   -0.263696
6

C     -1.361381    0.182657    0.236805
H     -1.791003    0.204737    1.202633
H     -2.720736    0.887328   -0.011622
C     -0.865575    1.336109    0.048094
H     -1.019600    2.034345    0.883229
H      0.167444    1.735185   -0.356471
6

C     -1.649109    0.174240    0.192091
H     -1.225564    0.065324    1.256825
H     -2.611132    0.323221   -0.126241
C     -0.983921    1.338183    0.165846
H     -1.284878    2.194436   -1.785452
H     -1.200272    2.285466    0.752521
6

C     -0.764998    1.454593    0.215533
H     -1.018146    2.291645    0.828185
H      0.186665    1.456859   -0.185813
C     -1.898079    0.470978    0.057562
H     -1.851399    1.832875   -1.280393
H     -2.643862   -0.237798   -0.047894
6

C     -1.075792    1.363848    0.272871
H     -0.850803    2.419024    0.883655
H      0.237163    1.590781   -0.285633
C     -1.716407    0.137055    0.136013
H     -1.256569    0.234676    1.367809
H     -2.868042   -0.078156   -0.324404
6

C     -1.116856    1.400102    0.297630
H     -0.738375    2.293128    0.783151
H     -0.060891    1.519092   -0.136424
C     -1.762750    0.150460    0.114126
H     -1.245523    0.313114    1.268142
H     -2.606055   -0.008668   -0.276314
6

C     -1.047135    1.538487    0.301555
H     -0.972318    2.479566    1.131590
H      0.088126    1.141210   -0.357300
C     -1.545370    0.284628    0.072489
H     -1.265441    0.463620    1.194330
H     -2.788313   -0.240283   -0.292352
6

C     -0.969952    1.568883    0.241958
H     -1.245964    2.431177    1.093523
H      0.249100    1.097432   -0.372208
C     -1.546435    0.324692   -0.030353
H     -1.271917    0.338336    1.250608
H     -2.745282   -0.093293   -0.133217
6

C     -0.659631    1.267320    0.457291
H     -0.183023    0.911895    1.798387
H     -1.086815    2.331268    0.762681
C     -1.758360    0.316337    0.082394
H      0.058943    1.551692   -0.318744
H     -2.692557   -0.030341   -0.116049
6

C     -0.733408    1.112027    0.695993
H      0.271807    1.116851    1.960505
H     -1.080252    2.197083    0.553869
C     -1.612233    0.289125    0.011084
H     -0.045207    1.658351   -0.326777
H     -2.667321    0.179690   -0.066596
6

C     -1.047048    1.459733    0.281883
H      0.087852    1.323314    0.038119
H     -1.481231    2.437470    0.384105
C     -1.509495    0.022384   -0.157300
H     -1.430341   -0.379571    0.962664
H     -2.150187    0.803899    0.540842
6

C     -0.796240    1.368164    0.279630
H     -1.144537    2.188160    0.972656
H      0.063890    1.562407   -0.434742
C     -1.573443   -0.103273    0.114356
H     -1.435697    0.375433    1.321749
H     -2.644424    0.276338   -0.203338
6

C     -0.787901    1.466680    0.266577
H     -1.144323    2.176109    0.920423
H      0.158503    1.523276   -0.314760
C     -1.610684   -0.036218    0.079234
H     -1.406168    0.386229    1.177943
H     -2.739877    0.151152   -0.079105
6

C     -0.492560    1.210193    0.529776
H     -0.086079    0.559560    1.355920
H     -1.183620    2.147717    0.619653
C     -1.762041    0.234953    0.079698
H      0.188926    1.779129   -0.316380
H     -2.889126    0.064283   -0.045175
6

C     -0.608698    1.110091    0.579589
H      0.283697    0.528627    1.096710
H     -1.128750    2.300933    0.674230
C     -1.764520    0.380978    0.042786
H      0.153398    1.678584   -0.351018
H     -2.789849   -0.034310   -0.078015
6

C     -1.791424    0.214171   -0.058587
H     -2.932773    0.177999    0.428463
H     -1.222265    0.305478    0.860285
C     -0.626327    1.320924    0.056231
H     -1.346229    1.928980    0.528286
H      0.388567    1.719677    0.235633
6

C     -0.488608    1.211248    0.439070
H     -0.249008    1.186802    1.597062
H     -1.191175    2.173721    0.685923
C     -1.696664    0.325474    0.124437
H      0.083797    1.677108   -0.304686
H     -2.845769    0.048725   -0.077172
6

C     -0.609931    1.248459    0.196110
H      0.286003    1.561144   -0.281745
H      0.079654    1.314106    1.099014
C     -1.692861    0.372896    0.095007
H     -1.362226    2.157823    0.823682
H     -2.759406    0.095953    0.034519
6

C     -1.441833    0.127040    0.045685
H     -2.601152    0.135890    0.049274
H     -1.454067    0.265777    1.049635
C     -0.978640    1.538078    0.228508
H      0.006927    1.322740   -0.182012
H     -1.061686    2.277704    0.859220
6

C     -1.834322    0.515902    0.114362
H     -1.119289    2.277361    0.790778
H     -2.610785   -0.128027   -0.109610
C     -0.661313    1.301192    0.379483
H      0.087289    1.469848   -0.307441
H      0.159436    0.931482    0.960070
6

C     -1.865911   -2.160195    0.313122
H     -1.294836    1.212125   -0.545616
H     -2.578274   -1.641295    1.168495
C     -1.544949    0.191438   -0.007357
H     -1.401753    0.231337    1.200343
H     -2.682020    0.174257    0.049652
6

C     -0.800378    1.285880    0.227567
H      0.007524    1.566377   -0.293577
H     -1.236061    2.077519    0.796004
C     -1.567349    0.072851    0.072870
H     -2.578038    0.407968   -0.104512
H     -1.356149    0.256634    1.351958
6

C     -1.710541    0.115726   -0.119999
H     -0.642346   -1.841148   -1.041141
H     -2.733836    0.056695    0.091388
C     -0.813702    1.407704    0.308444
H     -1.164600    2.336645    0.802441
H      0.284260    1.519506   -0.214703
6

C     -1.658757    0.170594   -0.308887
H     -1.004615   -0.608672   -2.295677
H     -2.562918    0.121291    0.262398
C     -0.907394    1.437166    0.169510
H     -1.224421    2.351334    0.826249
H      0.215070    1.355892   -0.081698
6

C     -1.928200    0.300392   -0.067422
H     -2.891452   -0.238544    0.144537
H      0.520341    1.520691   -0.121923
C     -0.614441    1.591106    0.010691
H     -0.843737    2.133387   -1.246931
H     -1.224668    2.262632    0.901691
6

C     -1.663955    0.231816   -0.193741
H     -2.712838    0.025723    0.156957
H     -0.793665   -1.002060   -2.375172
C     -0.829011    1.390528    0.260899
H      0.230702    1.459354   -0.144261
H     -1.163318    2.328855    0.787719
6

C     -1.573492    0.231032   -0.209438
H     -2.681655    0.218846    0.278707
H     -0.289704   -0.906630   -2.304316
C     -0.768067    1.379928    0.108856
H      0.213359    1.463638   -0.064933
H     -1.328565    2.142831    0.754381
6

C     -0.927011    1.295835    0.170278
H      0.305370    1.448149   -0.173482
H     -1.278196    2.362354    0.867378
C     -1.569893    0.137714   -0.190784
H     -2.668691    0.192223    0.194182
H      0.550745   -1.092062   -0.641634
6

C     -0.811869    1.392030    0.237959
H     -1.102747    2.355081    0.812965
H      0.045657    1.411055   -0.139435
C     -1.616628    0.228762   -0.119088
H      0.699974   -0.667207   -1.198569
H     -2.652833    0.049348    0.075171
6

C     -1.640831    0.131280   -0.219436
H      0.183732   -0.335258   -1.660814
H     -2.684694    0.030583    0.099550
C     -0.900191    1.254736    0.306360
H     -1.042114    2.532209    0.827837
H      0.129410    1.487468   -0.146739
6

C     -1.736195    0.262339    0.198973
H     -2.638842    0.116872   -0.384158
H     -1.082518    0.343222    1.323066
C     -0.949550    1.324644    0.310382
H     -1.033689    2.229229    0.837331
H     -0.089656    1.390922   -0.235283
6

C     -0.510835    1.216253    0.369443
H     -1.264102    2.322396    0.810100
H      0.179140    1.205702    1.235517
C     -1.612665    0.282609    0.057264
H      0.038931    1.528271   -0.318466
H     -2.789749    0.086747   -0.050768
6

C     -1.600142    0.250936   -0.124778
H     -2.690186    0.129893    0.157462
H      0.650968   -1.482246   -0.800232
C     -0.837979    1.377987    0.209978
H      0.188062    1.482503   -0.125596
H     -1.198174    2.194957    0.750506
6

C     -1.594437    0.065450    0.018484
H     -1.326152   -0.075831    1.109971
H     -2.664718    0.221361    0.012842
C     -1.042019    1.404145    0.507691
H     -1.401893   -0.302708   -0.952423
H     -1.042672    2.571308    0.592055
6

C     -0.754305    1.456977    0.166958
H     -1.104567    2.277919    0.905674
H     -0.153395    0.904848    1.205308
C     -1.693465    0.366875    0.183012
H      0.094139    1.402662   -0.261424
H     -2.680222   -0.068157   -0.126648
6

C     -0.629866    1.498834    0.342267
H      0.031329    1.180616   -0.444228
H     -1.314999    2.352209    0.975514
C     -1.626970    0.436237    0.148392
H     -0.427041    1.249308    1.398826
H     -2.597914   -0.031619   -0.154372
6

C     -1.683821    0.241495    0.065420
H     -2.988754    0.065608    0.088877
H     -1.399334   -0.744054   -0.854200
C     -0.633229    1.192217   -0.172482
H     -1.319205    0.199636    1.215409
H      0.264337    1.753517    0.039547
6

C     -0.837040    1.395703    0.151780
H     -1.252648    2.229140    0.785235
H      0.214692    1.443249   -0.095789
C     -1.573013    0.207126   -0.198301
H     -0.263678   -1.722613   -1.510184
H     -2.690411    0.161059    0.224647
6

C     -0.879073    1.386835    0.251111
H     -1.210078    2.236335    0.743225
H      0.143342    1.433142   -0.116025
C     -1.465726    0.187306   -0.213699
H     -0.244538   -1.322725   -1.814893
H     -2.726885    0.192658    0.202960
6

C     -1.671714    0.232526    0.127379
H     -1.338522   -0.364770   -0.654206
H     -2.708083    0.159496   -0.001058
C     -0.600673    1.082929    0.131408
H     -1.460250    0.246979    1.185047
H      0.080048    1.730542   -0.206004
6

C     -0.540973    1.397364    0.542821
H     -1.195047    2.124050    0.667345
H      0.270722    1.659986   -0.375912
C     -1.779026    0.289553    0.114596
H      0.290441    0.840786    1.231667
H     -2.894095   -0.034677   -0.081277
6

C     -0.788702    1.576144    0.114190
H     -1.056696    2.329494    0.946014
H     -0.791963    2.434072   -0.469821
C     -1.891448    0.420174    0.121531
H      0.196439    1.345064   -0.221345
H     -2.598013   -0.234600   -0.092818
6

C     -0.506171    1.313669    0.358220
H     -1.047896    2.339462    0.773954
H      0.278970    1.696996   -0.260827
C     -1.919606    0.359065    0.085556
H     -0.029182    0.546397    1.023340
H     -2.943717   -0.272915   -0.089330
6

C     -0.613774    1.441459    0.325958
H      0.166071    1.300972   -0.348855
H     -0.223624    1.189358    1.134304
C     -1.803366    0.576014    0.068130
H     -1.190730    2.392438    0.921673
H     -2.696621   -0.274607   -0.099334
6

C     -0.942741    1.458846    0.256711
H     -0.074736    1.480195   -0.368363
H     -1.224871    2.345773    0.673884
C     -1.411869   -0.026591    0.156816
H     -2.271690    0.646780    0.004751
H     -1.604544   -0.237775    1.326511
6

C     -2.037275    0.547557    0.212527
H     -2.480003   -0.443732   -0.176922
H     -1.302669    0.215581    1.008979
C     -1.048678    1.483597    0.200343
H     -0.028691    1.364012    0.002619
H     -0.633134    2.500214    0.802765
6

C     -0.835416    1.284238    0.283360
H      0.180798    1.488285   -0.209720
H     -1.372389    2.090213    0.713905
C     -1.479616    0.202835   -0.102697
H     -2.631796    0.370704    0.182725
H     -1.129847   -2.163643    0.788645
6

C     -0.835748    1.493365    0.143859
H      0.281008    1.487260   -0.110780
H     -1.099354    2.249177    0.807947
C     -1.664912    0.273162   -0.080449
H     -2.819414   -0.066689    0.106996
H     -1.554305   -1.429077    1.608161
6

C     -0.593925    1.272758    0.481441
H      0.168212    1.556668   -0.386248
H     -1.243943    2.191691    0.737520
C     -1.648985    0.396914    0.123734
H     -2.819779    0.018246   -0.088874
H      0.791613    1.463642    1.651085
6

C     -0.920760    1.365328    0.245734
H      0.029798    1.364261   -0.133406
H     -1.176490    2.338211    0.802574
C     -1.527373    0.139823   -0.198730
H     -2.543595    0.228653    0.151401
H     -1.654081   -2.064610   -0.960415
6

C     -0.696972    1.553581    0.012376
H     -1.355935    2.224807    0.645529
H      0.474687    1.658744    0.047585
C     -1.779767   -0.080907   -0.039291
H     -1.327204    0.018080    1.058362
H     -2.845260    0.292923    0.325751
6

C     -0.961755    1.552807    0.318762
H      0.089385    1.334203   -0.202108
H     -0.811565    2.478562    0.790611
C     -2.202966    0.587542    0.370281
H     -2.294496   -0.373381   -0.239956
H     -1.349054    0.087495    1.012721
6

C     -1.625387    0.164228    0.231352
H     -1.592941    0.543391    1.279292
H     -2.353639   -0.259392   -0.384875
C     -0.936073    2.003212    0.095888
H     -0.666175    2.105817    1.195384
H     -0.356235    1.109972   -0.366730
6

C     -0.884247    1.400086    0.160434
H      0.385142    1.472820   -0.347338
H     -1.403360    2.043305    0.890620
C     -1.447669    0.194134    0.070580
H     -1.469064    0.275728    1.172936
H     -2.711252    0.281154    0.103080
6

C     -1.763466    0.331039    0.349630
H     -1.195242    0.137357    1.208033
H     -2.653591    0.394145   -0.211733
C     -0.523970    1.116846    0.445764
H      0.010665    1.646913   -0.330447
H     -1.404846    2.040927    0.589066
6

C     -0.910754    1.401821    0.282107
H     -1.238666    2.169405    0.778280
H      0.043208    1.532993   -0.418337
C     -1.454086   -0.012857    0.191659
H     -2.273510    0.529354    0.076712
H     -1.696643    0.046512    1.139890
6

C     -0.823953    1.350163    0.198227
H     -1.238473    2.223784    0.729895
H      0.258614    1.513910   -0.071811
C     -1.658356    0.199855   -0.257054
H     -0.944885   -0.686058   -2.428445
H     -2.676252    0.148564    0.268316
6

C     -1.785427    0.290237    0.204372
H     -2.756010   -0.043708   -0.221013
H     -1.140835    0.377040    1.105003
C     -0.874108    1.349614    0.265251
H     -1.111726    2.306018    0.899061
H      0.137656    1.388027   -0.202362
6

C     -1.715326    0.504472   -0.071065
H      0.215248    0.700123    0.928519
H     -2.520171   -0.105610   -0.009907
C     -0.759034    1.409528    0.377455
H      0.046188    1.227812   -0.298186
H     -1.190077    2.400074    0.869276
6

C     -1.819031    0.611960   -0.060281
H     -1.446919    2.630841   -0.291249
H     -2.655372   -0.239552    0.072672
C     -0.812667    1.525775    0.272193
H     -1.175208    2.206176    0.804228
H      0.323857    1.331916   -0.221240
6

C     -1.177614    1.610528    0.166792
H     -2.563883    0.060838   -0.170518
H     -0.847780    2.252519    0.802655
C     -1.692252    0.122549    0.240016
H     -0.807474   -1.010661   -0.285825
H     -1.388468    0.140001    1.202096
6

C     -1.020121    1.475467    0.565146
H     -1.000366   -0.248158   -0.950389
H     -0.979932    2.433195    0.571955
C     -1.584720    0.148057   -0.133862
H     -1.316439    0.037528    1.232481
H     -2.768784    0.092188    0.005321
6

C     -1.115741    1.384912    0.550011
H     -1.167354   -0.610120   -0.947584
H     -1.045774    2.552810    0.571913
C     -1.593930    0.004090   -0.204767
H     -1.404614   -0.052795    1.183258
H     -2.509938    0.297418    0.140626
6

C     -0.799116    1.502745    0.305182
H      0.124179    1.424831   -0.195024
H     -1.135820    2.234726    0.769265
C     -1.613580    0.222530   -0.064777
H     -2.714083    0.051444    0.052927
H      0.077762   -1.652857   -0.179789
6

C     -0.785958    1.436684    0.319353
H      0.188941    1.381706   -0.273336
H     -1.290052    2.280004    0.828752
C     -1.610117    0.183032   -0.090094
H     -2.641234    0.154851    0.082897
H     -0.020748   -1.650091   -0.315900
6

C     -0.952257    1.264029    0.231085
H      0.020147    1.379633   -0.121948
H     -1.184118    2.380670    0.811104
C     -1.501930    0.148441   -0.223943
H     -2.520261    0.263503    0.171275
H      0.509973   -0.919263   -1.306633
6

C     -0.824272    1.473870    0.200680
H     -1.328053    2.099338    0.752304
H      0.204834    1.368942   -0.146281
C     -1.578797    0.308767   -0.153505
H      0.454931   -0.157862   -1.902773
H     -2.612132    0.185360    0.214373
6

C     -0.752618    1.589393    0.021793
H      0.288127    1.434604    0.135644
H     -1.333382    2.204928    0.690921
C     -1.745020    0.049020   -0.135704
H     -2.676655    0.221951    0.402865
H     -1.310903    0.167330    0.934792
6

C     -1.625974    0.042175   -0.121975
H     -1.412442    0.124242    1.183936
H     -2.730636    0.270420    0.275048
C     -0.828643    1.465677   -0.003860
H     -1.308540    2.202492    0.773735
H      0.375786    1.562222   -0.056572
6

C     -1.699237    0.208466   -0.215784
H     -1.415575    0.082124    1.012434
H     -2.632524    0.132345    0.392374
C     -0.675882    1.584969    0.205060
H     -1.376795    2.310420    0.691904
H      0.269563    1.348904   -0.035677
6

C     -0.829400    1.415946    0.191141
H      0.149697    1.438685   -0.220158
H     -1.222024    2.215566    0.836690
C      0.050672    0.170031    1.759502
H      0.789628    0.803936    2.090566
H     -0.347122   -0.625869    2.136252
6

C     -1.561848    0.190957   -0.013756
H     -2.585379    0.178131    0.122519
H     -1.481496    0.227943    1.133876
C     -1.048038    2.104664   -0.763633
H     -1.336345    3.265840   -0.670377
H     -0.126527    2.681866   -1.365799
6

C     -0.728431    1.191629   -0.013646
H     -1.535964    0.037738    1.261675
H      0.155112    1.807028   -0.261278
C     -1.627284    0.046159    0.306028
H     -2.624104    0.369919   -0.056007
H     -1.529129   -0.584404   -0.345277
6

C     -1.693949    0.455120    0.086021
H     -1.225804    2.216116    0.717860
H     -2.673790    0.022918   -0.088446
C     -0.496577    1.257801    0.492342
H     -0.027987    0.584985    0.985892
H     -0.048300    1.484321   -0.340204
6

C     -0.811243    1.315543    0.259213
H      0.142848    1.485520   -0.148388
H     -1.239800    2.248728    0.752585
C     -1.569843    0.169496   -0.167083
H     -2.660381    0.216989    0.171246
H     -0.517873   -1.795196   -1.566373
6

C     -0.736906    1.321112    0.202410
H      0.125037    1.472144   -0.148019
H     -1.317285    2.155269    0.751178
C     -1.574835    0.238279   -0.113951
H     -2.634431    0.249472    0.175955
H      0.237106   -1.868145   -1.409219
6

C     -0.883770    1.369597    0.162447
H      0.050220    1.402960   -0.076518
H     -1.152046    2.272939    0.785443
C     -1.584858    0.233231   -0.165687
H     -2.567966    0.157549    0.161886
H      0.373526   -1.347389   -1.577692
6

C     -1.736658    0.272864    0.177482
H     -2.902920   -0.043570   -0.118676
H      0.284276    1.792545   -0.270509
C     -0.784383    1.173545    0.357207
H     -0.998736    2.240892    0.722068
H      0.067164    0.567141    1.139056
6

C     -0.924570    1.227544    0.219653
H     -0.934265    2.491342    0.698498
H      0.170957    1.543489   -0.132614
C     -1.923563    0.609875    0.320502
H     -2.613355   -0.182809   -0.156745
H     -1.305653   -0.022213    1.101018
6

C     -0.489719    1.399933    0.263775
H      0.198058    0.643984    0.945786
H     -1.337970    2.219012    0.821741
C     -1.784533    0.293349    0.017027
H     -2.788376    0.003871    0.043329
H      0.262178    1.520112   -0.278300
6

C     -1.097492    1.506449    0.367378
H     -0.317959    1.329980   -0.243612
H     -0.658968    2.561302    0.902126
C     -1.402022    0.039595    0.098583
H     -1.387902    0.240102    1.244581
H     -2.666107   -0.010199   -0.318746
6

C     -0.988973    1.489290    0.308862
H      0.075845    1.236933   -0.498105
H     -1.425378    2.548765    0.835430
C     -1.255107    0.032578    0.254884
H     -1.371161   -0.231420    1.319946
H     -2.565676    0.591083   -0.170706
6

C     -0.737544    1.280320   -0.023797
H     -1.300247    2.182364    0.960835
H      0.236351    1.598767   -0.179486
C     -1.711120   -0.026897    0.028162
H     -2.667268    0.287487    0.031991
H     -1.350621    0.345187    1.232606
6

C     -0.752034    1.662263   -0.002069
H      0.278762    1.422836    0.163335
H     -1.452890    2.144262    0.606376
C     -1.716488   -0.053880   -0.027138
H     -2.729477    0.436117    0.329757
H     -1.158322    0.055630    0.980050
6

C     -1.623972    0.369587    0.138498
H      0.006314    1.550379   -0.371179
H     -2.693878    0.154609   -0.093053
C     -0.553926    1.199324    0.480921
H     -0.588790    0.557905    1.871248
H     -1.272958    2.162378    0.712385
6

C     -0.762545    1.264653    0.133365
H     -1.681635   -0.030180    1.298975
H      0.090961    1.715999   -0.434329
C     -1.472160    0.120043    0.319659
H     -0.638003   -0.483043   -0.853303
H     -2.535293    0.381958   -0.080899
6

C     -1.711072    0.472069    0.045280
H      0.311567    0.469161    1.178315
H     -2.709306   -0.081556   -0.125744
C     -0.560469    1.171856    0.582023
H     -1.162949    2.390967    0.760833
H      0.005375    1.482941   -0.394820
6

C     -1.846811    0.364428    0.259714
H      0.062984    1.552972   -0.439652
H     -2.674182   -0.152993   -0.304525
C     -0.699433    1.290652    0.544431
H     -0.967359    1.079760    1.605878
H     -0.980978    2.381216    0.807604
6

C     -0.873659    1.598927    0.006978
H     -1.036771    2.291136    0.941688
H      0.410145    1.527305   -0.165532
C     -1.600150    0.170370    0.114903
H     -1.018813    0.695290    1.489572
H     -3.037985   -0.151462   -0.030465
6

C     -1.591137    0.039914   -0.033661
H     -1.355786    0.261569    1.318128
H     -2.595779    0.184503   -0.054784
C     -0.989646    1.437675    0.024473
H      0.026116    1.442881   -0.127919
H     -1.024218    2.300685    0.924073
6

C     -1.741798    0.282453    0.223553
H     -2.663718    0.064673   -0.139219
H      0.137492    1.591024   -0.302123
C     -0.739506    1.245364    0.245828
H     -1.130890    2.252762    0.839534
H     -0.665526    0.750369    1.329073
6

C     -0.904931    1.662096   -0.131034
H     -1.265192    2.375174    0.429194
H     -0.033373    1.423078    0.359787
C     -1.661589   -0.120795   -0.037131
H     -2.377267    0.655861    0.449396
H     -1.288098   -0.328185    0.980098
6

C     -1.586752    0.281977   -0.356875
H     -2.507120    0.156978    0.281375
H     -2.994420    0.548082   -0.875233
C     -0.891078    1.377012    0.277985
H     -1.238935    2.311520    0.749782
H      0.085465    1.308789   -0.084694
6

C     -0.955441    1.326079    0.128763
H     -1.094127    2.231170    0.800095
H      0.202279    1.608158   -0.202428
C     -1.543730    0.128280    0.067503
H     -1.397476    0.160452    1.286277
H     -2.741954    0.213088   -0.029899
6

C     -0.924338    1.428625   -0.000852
H     -1.131624    2.286290    0.838248
H      0.165624    1.620197   -0.129644
C     -1.555204   -0.183506    0.071427
H     -1.366495    0.123513    1.275558
H     -2.718413    0.392109   -0.004425
6

C     -0.894626    1.549150    0.014570
H     -1.087678    2.186838    0.921847
H      0.135398    1.489101   -0.186080
C     -1.520850    0.019852    0.069499
H     -1.502359    0.248092    1.194453
H     -2.852877    0.895224    0.058367
6

C     -1.621107   -1.791596    0.060547
H     -1.993590   -3.024258    0.530303
H     -0.862329   -1.969932   -0.800022
C     -1.600722    0.192353    0.052047
H     -2.575105    0.177190    0.086724
H     -1.452895    0.227488    1.103867
6

C     -1.202691    2.119895    0.370569
H     -2.027971    2.878207    0.652458
H     -0.228576    2.071537    0.695610
C     -1.547676    0.191972    0.011313
H     -1.378181    0.231897    1.205725
H     -2.702866    0.173163    0.025600
6

C     -0.777842    1.553997   -0.014307
H     -1.276029    2.094033    0.569625
H      0.200597    1.558887    0.161171
C     -1.644233    0.043555   -0.185170
H     -1.348434    0.055842    1.127134
H     -2.684509    0.360914    0.391858
6

C     -0.884359    1.270678    0.239015
H     -1.174078    2.159196    0.782310
H      0.016084    1.419367   -0.174415
C     -1.667213    0.364516    0.220698
H     -1.142415    0.294571    1.183317
H     -2.678470    0.158902   -0.200613
6

C     -0.808868    1.374567    0.242505
H     -1.184682    2.254254    0.777971
H      0.248125    1.516645   -0.169395
C     -1.652414    0.216035   -0.101395
H      0.309233   -1.769040   -0.270972
H     -2.740581    0.074774    0.117886
6

C     -0.902807    1.432562    0.322605
H     -1.334966    2.052782    0.802620
H      0.171438    1.367326   -0.372020
C     -1.414482    0.303804    0.072756
H     -1.429276    0.232499    1.213869
H     -2.620356    0.278255    0.010481
6

C     -0.882673    1.347012    0.227937
H     -1.046415    2.425763    0.844016
H     -0.119019    1.369788   -0.167608
C     -1.581356    0.186127    0.039334
H     -1.347584    0.195363    1.182690
H     -2.553402    0.143174   -0.076059
6

C     -1.708840    0.429786    0.036492
H     -2.642829   -0.052117   -0.135716
H      0.394692    1.341663    1.763549
C     -0.620565    1.283670    0.646145
H     -0.989245    2.263374    0.616289
H     -0.176940    1.511562   -0.295638
6

C     -1.499303    0.256620   -0.084192
H     -1.454021    0.193082    1.121495
H     -2.950030   -0.085666    0.136888
C     -0.756922    1.511202    0.232375
H      0.247613    1.459798   -0.160503
H     -1.117787    2.332192    0.804249
6

C     -1.584006    0.319519   -0.085251
H     -2.570917    0.178410    0.148299
H     -2.282820    1.514691   -1.026022
C     -0.949905    1.357152    0.177120
H      0.171647    1.433986   -0.130495
H     -1.205240    2.147210    0.757901
6

C     -1.555529    0.018666   -0.036951
H     -1.499486    0.193276    1.179608
H     -2.727376    0.244463    0.089588
C     -0.719823    1.312679    0.348923
H      0.167745    1.636707   -0.284050
H     -1.195982    2.261436    0.753192
6

C     -0.641556   -0.454110    1.445064
H     -1.232556    2.265216    0.870766
H     -1.602540   -0.744826    0.915736
C     -0.816363    1.360662    0.152630
H      0.147192    1.444319   -0.215723
H     -1.409535    0.743545    0.353115
6

C     -1.810205    0.425146   -0.114871
H     -1.024364    2.254384   -1.242477
H     -2.747746   -0.277021    0.133961
C     -0.700009    1.637078   -0.062187
H     -1.071751    2.312825    0.905794
H      0.191291    1.338249    0.004876
6

C     -1.732339    0.446017   -0.227068
H     -2.676577   -0.250735    0.093197
H     -1.518464    0.958668    1.688996
C     -0.910549    1.301195    0.240517
H     -0.874980    2.508927    0.790639
H      0.056026    1.430872   -0.029712
6

C     -0.557078    1.116205    0.171606
H     -0.009243    1.801602   -0.298478
H     -1.570517    0.194766    1.269779
C     -1.722003   -0.010786    0.109335
H     -1.725320   -1.137590    0.308613
H     -2.501831    0.350686   -0.015472
6

C     -0.863155    1.554964    0.148989
H      0.055278    1.335343   -0.110092
H     -2.628133    0.152827    0.122059
C     -1.532632    0.178387   -0.106924
H     -1.368821    0.669025    3.705896
H     -1.037679    0.179029    3.611533
6

C     -0.841745    1.455771    0.269779
H      0.155832    1.328433   -0.209211
H     -1.314111    2.209253    0.797383
C     -1.573018    0.240047   -0.149188
H     -2.565378    0.202772    0.158810
H      0.437490   -0.754950   -1.195868
6

C     -0.809575    1.380486    0.131225
H     -1.372348    2.165877    0.804570
H      0.286491    1.460274   -0.149731
C     -1.606409    0.166335   -0.148370
H      0.387209   -0.745173   -0.984464
H     -2.636579    0.263304    0.229878
6

C     -0.605146    1.268975    0.226892
H      0.367165    1.608137   -0.269031
H     -1.274219    2.169235    0.797479
C     -1.846219    0.468264    0.095922
H      0.198069    0.599831    0.500739
H     -2.780002   -0.078335    0.016311
6

C     -1.526110    0.036468    0.120913
H     -2.622846    0.210812   -0.092963
H     -0.956302   -0.947479   -0.165235
C     -1.157661    1.472328    0.099883
H     -1.380831    0.220581    1.237828
H     -0.982548    2.246245    0.875381
6

C     -0.666270    1.379282    0.429569
H     -0.099280    1.487266   -0.260781
H     -0.913422    2.358371    0.766688
C     -1.738405    0.389378    0.129251
H     -0.286955    1.104409    1.451588
H     -2.721044   -0.178021   -0.197154
6

C     -1.605347   -0.025813    0.173996
H     -2.713073    0.039212   -0.199734
H     -0.934089   -0.686435   -0.938579
C     -1.206461    1.579171    0.198664
H     -1.355478    0.121009    1.212036
H     -0.789637    2.472856    0.856079
6

C     -0.597527    1.287694    0.361237
H      0.238066    1.669980   -0.260706
H     -1.019900    2.355733    0.779425
C     -1.879675    0.352214    0.088386
H      0.259673    1.062301    1.138767
H     -2.879384   -0.229345   -0.100770
6

C     -0.633386    1.186309    0.516283
H      0.035221    0.983461    1.369604
H      0.093988    1.672525   -0.295258
C     -1.781388    0.346490    0.068425
H     -1.132360    2.168821    0.631646
H     -2.685274    0.062131   -0.053523
6

C     -1.388209   -0.005186    0.177533
H     -2.391071    0.598191    0.060228
H     -1.772847   -0.042698    1.327179
C     -0.746212    1.319989    0.212847
H      0.101974    1.675621   -0.509405
H     -1.334085    2.121310    0.781929
6

C     -1.776201    0.312642    0.227222
H     -2.770272    0.001660   -0.058247
H      0.307431    1.610295   -0.222570
C     -0.719321    1.374282    0.060383
H     -1.180056    2.137397    0.860784
H     -0.533458    1.403731    1.251787
6

C     -1.749502    0.323858    0.224446
H     -2.690082   -0.028015   -0.150801
H      0.105851    1.525176   -0.275293
C     -0.700317    1.327753    0.184444
H     -1.104370    2.287505    0.884777
H     -0.002723    0.454965    0.989398
6

C     -0.533067    1.158680    0.113431
H      0.339781    1.880495   -0.321616
H     -1.516807   -1.054822    0.094940
C     -1.700572    0.249797    0.236010
H     -1.611345    0.118745    1.197943
H     -2.855469    0.044755    0.011002
6

C     -1.536593    0.031642    0.054550
H     -1.247744   -0.288952    0.998689
H     -2.283015    0.637730    0.297534
C     -0.951246    1.679207   -0.098227
H     -0.173509    1.159659    0.220803
H     -1.338343    2.447943    0.576962
6

C     -1.594602    0.192037    0.038572
H     -1.418266    0.229393    1.146635
H     -2.615855    0.175601    0.057431
C     -1.889544    2.149580    0.691354
H     -1.575869    2.428713    1.730554
H     -1.892629    2.002653   -0.366095
6

C     -0.552655    1.200693    0.425039
H      0.310605    0.936342    1.042330
H     -1.170492    2.444286    0.823027
C     -1.722613    0.478455   -0.022801
H     -0.049209    1.405966   -0.298484
H     -2.643450   -0.093125   -0.059208
6

C     -0.863769    1.293359    0.141843
H      0.318606    1.516805   -0.118605
H     -1.269773    2.256795    0.800418
C     -1.653286    0.210103   -0.180638
H     -2.670198    0.159214    0.224555
H      0.383395   -0.890359   -1.825634
6

C     -0.917072    1.340305    0.120641
H      0.208813    1.532150   -0.059572
H     -1.233160    2.065750    0.703377
C     -1.575094    0.234524   -0.123658
H     -2.621906    0.263547    0.226784
H      0.598806   -1.167606   -1.674878
6

C     -0.894423    1.365803    0.119187
H      0.332300    1.388525   -0.160653
H     -1.389126    2.219389    0.845910
C     -1.580879    0.232395   -0.190693
H     -2.606292    0.230164    0.253821
H      0.358427   -1.179384   -1.677381
6

C     -1.593730    0.222284   -0.175411
H     -2.518481    0.192691    0.161161
H     -1.239492   -1.982079   -1.443870
C     -0.888863    1.430382    0.250370
H      0.073487    1.352529   -0.139828
H     -1.210833    2.238390    0.771280
6

C     -1.549456    0.180570   -0.198003
H     -2.631654    0.338010    0.300917
H     -1.188704   -2.088585   -1.339542
C     -0.777110    1.389836    0.119512
H      0.302937    1.421896   -0.147080
H     -1.483138    2.105963    0.792226
6

C     -1.441064    0.040984    0.147977
H     -1.747532   -0.097167    1.354650
H     -2.407085    0.494914    0.036545
C     -0.814615    1.205673    0.134412
H      0.111026    1.696257   -0.448587
H     -1.231181    2.326567    0.825315
6

C     -1.221465    1.753368    0.143541
H     -1.106921    2.387313    0.887244
H     -0.090324    0.930088   -0.167643
C     -1.561671    0.402751    0.303890
H     -2.341415    0.122718   -0.185055
H     -1.208653    0.070990    1.068334
6

C     -0.816485    1.306138    0.261306
H     -1.233769    2.274554    0.772953
H      0.172621    1.469935   -0.165841
C     -1.593148    0.230814   -0.155826
H     -0.491129   -1.143671   -2.474705
H     -2.667639    0.154835    0.154980
6

C     -0.818255    1.312564    0.367845
H     -1.110517    2.180760    0.772553
H      0.228033    1.644572   -0.353378
C     -1.711713    0.193018    0.231211
H     -2.725968    0.105361   -0.150658
H     -0.010808    0.112668    0.599582
6

C     -1.570051    0.443561    0.291021
H     -2.447352   -0.149180   -0.270179
H     -1.387662   -0.026573    1.178357
C     -1.258268    1.759222    0.196063
H     -0.226618    1.164618   -0.122139
H     -0.640499    2.475580    0.777189
6

C     -1.012901    1.387087    0.271626
H      0.139574    1.453262   -0.145294
H     -0.962207    2.328380    0.785065
C     -1.889155    0.314955    0.213444
H     -2.715545   -0.061212   -0.292567
H     -1.090216    0.244755    1.218036
6

C     -1.635792    0.097369    0.144862
H     -2.790372    0.207960   -0.107979
H     -1.835877   -0.932854   -0.062983
C     -0.682029    1.047563    0.355262
H      0.110582    1.732726   -0.308467
H     -1.363060    0.366854    1.153092
6

C     -0.715075    1.362569    0.077708
H     -1.355568    2.228543    0.530707
H      0.284706    1.499251    0.300423
C     -1.890499    0.244178   -0.151181
H     -1.242072    0.147352    0.748726
H     -2.611941    0.185335    0.543929
6

C     -1.447178    0.098746    0.071302
H     -2.518702    0.218711    0.093206
H     -1.562393    0.069807    1.115739
C     -1.172706    1.486486    0.198150
H     -0.917438   -1.105195   -0.084287
H     -0.969019    2.312684    0.762645
6

C     -0.498840    1.610498    0.499636
H      0.017524    1.235772   -0.442644
H      0.211126    1.731195    1.589270
C     -1.514631    0.455636    0.112117
H     -1.336531    2.165766    0.813094
H     -2.805942   -0.031394   -0.114630
6

C     -1.509303    0.259680   -0.031739
H     -2.618799    0.151764    0.143097
H     -1.523853   -0.201900    1.164638
C     -1.000851    1.534591    0.454323
H     -1.397605   -0.234377   -1.015467
H     -1.017192    2.442299    0.510722
6

C     -1.877094    0.124261   -0.164536
H     -2.549303    0.456919    0.633105
H     -1.263227   -0.029923    0.872964
C     -0.644176    1.428412   -0.081260
H     -1.420882    2.059331    0.373844
H      0.224233    1.628228    0.416194
6

C     -1.652278    0.388493    0.017011
H     -2.690594   -0.089476   -0.102937
H     -1.287461    0.259748    1.212034
C     -0.918886    1.459121    0.248704
H     -1.108523    2.378726    0.910728
H      0.127292    1.270615   -0.235229
6

C     -2.076844    0.551015    0.161513
H     -2.345196   -0.233125   -0.184888
H     -1.074010    0.285994    1.066879
C     -1.042405    1.535887    0.089594
H     -0.952851    2.416149    0.891154
H     -0.039144    1.111307    0.026061
6

C     -0.552632    1.061690    0.235947
H     -1.733402    0.246562    1.104953
H     -0.002781    1.803438   -0.311040
C     -1.454496    0.022382    0.052408
H     -2.617361    0.318400    0.154504
H     -1.519017   -1.190353   -0.062811
6

C     -1.749496    0.387796    0.097949
H     -0.322968    1.023632    1.209480
H     -2.574249   -0.019039   -0.084995
C     -0.661763    1.444945    0.315093
H      0.062411    1.347633   -0.323403
H     -1.215322    2.274941    0.862928
6

C     -1.057642    1.485128    0.096415
H     -1.415214    0.123969    1.232442
H     -0.966666    2.438111    0.897775
C     -1.401201    0.005457    0.089495
H     -2.829273    0.133770   -0.075087
H     -0.625469   -0.691026    0.138241
6

C     -1.722953    0.505137    0.068068
H     -1.221016    2.206271   -0.848394
H     -2.506697   -0.122842   -0.024389
C     -0.938714    1.677184    0.152846
H     -1.068307    2.152482    0.848407
H      0.098250    1.224315   -0.177359
6

C     -1.692894    0.431678    0.158488
H     -0.771112    1.770141   -0.938231
H     -2.648700   -0.235243   -0.171066
C     -0.908187    1.600799    0.166368
H     -1.002014    2.401291    0.993184
H      0.113374    1.237750   -0.279402
6

C     -1.678446    0.527737    0.094992
H      0.145845    1.374930   -0.350107
H     -2.613461   -0.021152   -0.061029
C     -0.785470    1.434839    0.441982
H     -1.206888    2.119922    0.741734
H     -0.120801    1.006636    1.290949
6

C     -1.653933    0.376831    0.125169
H     -1.117286    0.413581    1.199572
H     -2.602032    0.036559   -0.240886
C     -0.940998    1.414055    0.210602
H     -0.050445    1.167373   -0.208785
H     -1.165755    2.258828    0.964638
6

C     -1.196557    1.453806    0.201761
H     -1.366638    0.063748    1.272264
H     -0.855529    2.477823    0.812880
C     -1.587443    0.127876    0.099909
H     -2.663830    0.063182   -0.145772
H     -0.942748   -0.530849   -0.475070
6

C     -0.762400    1.427904    0.239408
H     -1.045083    2.344921    0.725217
H     -2.057739    2.158846   -0.751582
C     -1.948476    0.502594    0.356021
H     -1.300656    0.040089    1.101160
H     -2.613383   -0.129074   -0.180764
6

C     -0.927385    1.760212   -0.187229
H     -0.316785    1.064038    0.383769
H     -1.138741    2.537132    0.612173
C     -1.376895    0.183542    0.057615
H     -1.188971   -0.225777    0.922850
H     -2.581674    0.348081    0.261135
6

C     -0.952959    1.787586   -0.193173
H     -0.373053    1.035324    0.401405
H     -1.108446    2.493006    0.591651
C     -1.456366    0.233361    0.059123
H     -1.191749   -0.226384    0.939008
H     -2.447876    0.344334    0.252297
6

C     -1.610497   -0.046513    0.238433
H     -2.280915    0.768371   -0.132133
H     -1.375888   -0.234756    1.413968
C     -1.050291    1.284384    0.306756
H      0.032317    1.636495   -0.336128
H     -1.245176    2.259246    0.559415
6

C     -1.299221    0.254251    0.260729
H     -2.448466    0.171102    0.256429
H     -2.207393   -0.256615    1.120109
C     -0.677985    1.524202    0.171211
H      0.295302    1.645354   -0.609038
H     -1.192687    2.328933    0.850871
6

C     -1.351192    0.029633    0.231295
H     -2.410394    0.590165   -0.000529
H     -1.685611   -0.076771    1.303921
C     -0.784156    1.294267    0.158237
H     -0.014153    1.607564   -0.432346
H     -1.284944    2.222369    0.789733
6

C     -1.832095    0.264757    0.101334
H     -2.795762   -0.017119   -0.017733
H     -0.096585    0.839673    0.692811
C     -0.771470    1.260019    0.265920
H      0.453299    1.677849   -0.300361
H     -1.192393    2.250770    0.818412
6

C     -1.601675    0.368288   -0.025215
H     -2.594864    0.121771    0.036550
H      0.054461    1.357636   -0.278011
C     -0.706649    1.362619    0.339110
H     -1.289692    2.225962    0.795138
H     -0.809375    0.227408    1.790244
6

C     -0.876836    1.375237    0.252013
H      0.096346    1.427023   -0.138329
H     -1.133225    2.324326    0.789814
C     -1.633924    0.189014   -0.154493
H     -2.590781    0.120676    0.118568
H      0.133396   -1.394314   -1.228096
6

C     -0.878233    1.289056    0.206006
H     -1.197315    2.248569    0.733272
H      0.155860    1.564301   -0.084405
C     -1.531898    0.032030   -0.199860
H      0.316658   -0.691466   -0.871056
H     -2.686834    0.302320    0.212559
6

C     -0.877266    1.277085    0.185158
H     -1.146383    2.263207    0.730377
H      0.119279    1.573451   -0.055341
C     -1.501124    0.061379   -0.192572
H      0.465737   -0.674707   -0.902676
H     -2.732925    0.261154    0.199951
6

C     -0.847888    1.329508    0.208700
H      0.300371    1.506023   -0.139015
H     -1.313335    2.177301    0.747845
C     -1.610386    0.201912   -0.191690
H     -2.667182    0.221531    0.241733
H      0.129632   -0.512534   -1.890022
6

C     -2.007810    0.580359    0.210933
H     -1.119774    0.145398    1.162159
H     -2.624745   -0.268301   -0.294116
C     -0.827004    1.466168    0.419811
H     -1.099214    2.516026    0.829095
H      0.148097    1.227578   -0.277570
6

C     -1.570343    0.343428   -0.175527
H     -1.600403   -0.012520    0.992013
H     -2.627771   -0.119729    0.298001
C     -0.823923    1.511442    0.342029
H     -0.961262    2.550338    0.654758
H      0.053252    1.394271   -0.060963
6

C     -1.682741    0.229680    0.280253
H     -2.395444   -0.343090   -0.322782
H     -1.827621    0.193503    1.381040
C     -1.350664    1.822330    0.159591
H     -0.111144    2.081039    0.786339
H     -0.162836    1.683765   -0.234129
6

C     -0.510840    1.065597    0.398603
H     -1.046155    2.185798    0.551353
H      0.072717    1.770957   -0.082069
C     -1.753605    0.540910   -0.094826
H     -2.432421    1.233301   -1.374815
H     -2.900537   -0.126986    0.094512
6

C     -0.444015    1.474659    0.433316
H     -1.544752    2.129245    0.673395
H      0.054936    1.373131   -0.542031
C     -1.512196    0.504836    0.536453
H     -2.739304    0.307614   -0.262505
H     -1.345119   -0.122256    1.211683
6

C     -0.525038    1.076224    0.466195
H     -1.176028    1.985168    0.638622
H     -0.077576    1.755455   -0.401805
C     -1.716733    0.398535    0.435417
H     -2.643046    0.220894   -0.270856
H     -2.141499   -0.823660    1.278085
6

C     -0.979544    1.601573    0.298268
H     -0.112692    1.177809   -0.049279
H     -2.493438   -0.347869   -0.336937
C     -2.067374    0.538703    0.302862
H     -1.065762    0.351485    1.011070
H     -0.811641    2.345527    0.824328
6

C     -0.817240    1.374831    0.267207
H     -0.972023    2.481020    0.691131
H     -1.084331    0.015625    1.094936
C     -2.029991    0.621940    0.415578
H     -2.591009   -0.185062   -0.328488
H     -0.035856    1.358874   -0.090053
6

C     -1.614662    0.339418    0.458843
H     -2.752009    0.317831   -0.229902
H     -1.440758   -0.079102    1.232546
C     -0.385670    1.277513    0.527217
H     -1.355550    2.119763    0.565934
H      0.018198    1.691804   -0.504327
6

C     -1.742347    0.451238    0.256821
H     -2.604733    0.459749   -0.056718
H     -1.306497   -0.129777    1.353568
C     -0.477712    1.396148    0.415457
H     -1.616223    1.925509    0.486013
H      0.217062    1.564361   -0.404829
6

C     -1.116422    1.439314    0.195790
H      0.059760    1.449089   -0.027306
H     -0.772858    2.296622    0.746331
C     -1.923464    0.425008    0.175014
H     -1.115651    0.246388    1.238426
H     -2.661815   -0.189194   -0.277945
6

C     -0.988330    1.386507    0.181663
H     -0.670193    1.190248   -1.926300
H     -1.048586    2.594297    0.755281
C     -1.648654    0.175317    0.239294
H     -1.331109   -0.131546    1.187970
H     -2.653317    0.161860   -0.123166
6

C     -1.607771    0.206840   -0.065281
H     -1.303159    0.382177    1.270051
H     -2.769917    0.184369    0.083882
C     -0.807133    1.379162   -0.004050
H      0.374008    1.433596   -0.207733
H     -1.416478    2.081083    0.973443
6

C     -1.425754    0.136535    0.000091
H     -2.430232    0.431093    0.382826
H     -1.853796    0.165486    1.214095
C     -0.783001    1.460345   -0.089716
H     -1.327407    1.780968    0.793819
H      0.289740    1.692801   -0.250804
6

C     -1.542977    0.209341   -0.037501
H     -1.607092    0.034186    1.181823
H     -2.605844    0.071029    0.119636
C     -0.941914    1.463157    0.317005
H      0.209735    1.510394   -0.278018
H     -1.042358    2.379121    0.747367
6

C     -1.605071    0.140137   -0.138765
H      0.069081   -1.198495   -0.963148
H     -2.696571    0.091728    0.132440
C     -0.920193    1.516414    0.210172
H     -1.106716    2.245727    0.777543
H      0.190130    1.442270   -0.113817
6

C     -1.651027    0.157704   -0.167863
H      0.183725   -1.312022   -1.022073
H     -2.711718   -0.002473    0.128066
C     -0.952252    1.447343    0.160073
H     -1.062625    2.389812    0.849250
H      0.239203    1.443890   -0.101953
6

C     -1.663059   -0.008636   -0.028725
H     -1.385630    0.265017    1.142043
H     -2.675287    0.441624    0.275747
C     -0.722152    1.282109   -0.079495
H      0.263828    1.731903    0.015101
H     -1.348149    1.955210    0.725641
6

C     -1.509883   -0.049611    0.144830
H     -1.493347    0.100227    1.410748
H     -2.421504    0.657249   -0.024711
C     -0.893196    1.292855    0.058330
H      0.256413    1.579167   -0.444485
H     -1.468934    2.087341    0.905598
6

C     -1.328331   -0.025865    0.574786
H     -2.018303    0.609350   -0.038143
H     -2.196876    0.303128    1.094240
C     -0.547141    1.238337    0.160353
H     -0.339874    1.848159   -0.659338
H     -1.099925    1.694119    0.918412
6

C     -1.704280    0.528340    0.193920
H     -2.672982   -0.195457   -0.142111
H      0.137827    1.293685   -0.289500
C     -0.808483    1.588187    0.204650
H     -0.859421    2.245692   -0.781331
H     -1.090503    2.221521    0.900612
6

C     -1.798278    0.341921    0.164542
H     -2.851512   -0.063871   -0.062758
H      0.096422    0.560162    1.022736
C     -0.597247    1.101853    0.108050
H      0.194058    1.752793   -0.168127
H     -1.085442    2.303579    0.825865
6

C     -1.639474    0.347719    0.188556
H     -2.794413   -0.030332   -0.162467
H     -0.300101    1.402617    1.356208
C     -0.682181    1.348146    0.384822
H      0.051545    1.536716   -0.316824
H     -1.073897    2.234027    0.773486
6

C     -1.507911   -0.222535    0.374323
H     -2.265165    0.649171   -0.053540
H     -2.043176   -0.202097    1.406238
C     -0.593597    1.223702    0.186912
H     -0.073989    2.060057   -0.575596
H     -1.046611    2.158930    0.711974
6

C     -1.645190    0.170067   -0.173534
H     -2.754228    0.083405    0.173795
H     -0.004821   -0.832958   -1.921168
C     -0.883404    1.327997    0.209890
H      0.347530    1.525017   -0.157427
H     -1.203128    2.329789    0.814848
6

C     -1.640219    0.263365   -0.147910
H      0.161503   -0.216948   -2.107685
H     -2.653727    0.070777    0.158730
C     -0.868968    1.435011    0.185724
H     -1.170367    2.239881    0.784654
H      0.194861    1.427242   -0.113626
6

C     -0.576451    1.304752    0.520496
H      0.130729    1.554245   -0.362620
H     -1.184257    2.288808    0.740239
C     -1.700086    0.302523    0.048138
H     -2.808356   -0.014052   -0.078680
H      0.391500    1.123335    1.394522
6

C     -0.511856    1.297240    0.487886
H     -1.147501    2.207111    0.698727
H      0.446559    1.303145    1.466425
C     -1.693115    0.384358    0.113258
H     -2.968939   -0.102203   -0.096779
H      0.182992    1.649770   -0.335519
6

C     -0.692628    1.245399    0.514244
H     -0.114251    0.896853    1.563456
H      0.347445    1.704139   -0.405810
C     -1.689489    0.296571    0.152940
H     -2.881996    0.062164   -0.082243
H     -1.221752    2.128003    0.688442
6

C     -0.469427    1.202232    0.479767
H      0.207285    1.607615   -0.434954
H     -1.428992    2.157094    0.746550
C     -1.553602    0.267458    0.115007
H     -2.893684    0.201878   -0.038797
H      0.216631    1.077518    1.306389
6

C     -1.051880    1.451193    0.230477
H      0.011573    1.480473   -0.261998
H     -1.974267    1.735182   -0.703042
C     -1.730596    0.216379    0.299325
H     -2.556856   -0.049792   -0.282625
H     -0.810661    2.338022    0.882393
6

C     -1.687705    0.147145   -0.137290
H     -1.443480    0.192532    1.066193
H     -2.527655    0.444390    0.467956
C     -0.710190    1.259493   -0.093100
H      0.287520    1.650960    0.077394
H     -1.448941    1.972708    0.669159
6

C     -0.953535    1.426407    0.128640
H     -1.107410    2.432746    0.708922
H     -2.814650    2.085031   -1.187285
C     -1.596436    0.294650    0.306149
H     -2.647802    0.195072   -0.099816
H     -1.364814   -0.162440    1.197146
6

C     -1.734513    0.257730   -0.123840
H     -2.685213    0.016057    0.309064
H     -1.422244    0.167863    1.022225
C     -0.831375    1.364162    0.046232
H     -1.159914    2.336890    0.760910
H      0.302809    1.524525    0.035721
6

C     -1.599501    0.174369    0.079601
H     -2.651722    0.208400   -0.161964
H     -1.234096    0.453636    1.242092
C     -0.768668    1.466386    0.289819
H     -1.327902    2.066788    0.941831
H      0.051439    1.297649   -0.341068
6

C     -0.919305    1.481910    0.256184
H      0.057298    1.421357   -0.219252
H     -1.083351    2.245537    0.816114
C     -1.523151    0.137549    0.048350
H     -2.669911    0.149923   -0.033823
H     -0.733151   -1.714818    0.957595
6

C     -1.708596    0.179401    0.123510
H     -1.313248    0.186615    1.211987
H     -2.925847   -0.225078   -0.238750
C     -1.010068    1.287726    0.256930
H     -0.612965    2.560613    0.778366
H      0.040274    1.677950   -0.081731
6

C     -0.519559    1.523018    0.736513
H     -1.570476    2.024478    0.186451
H      0.092122    1.439774   -0.255331
C     -1.527675    0.495688    0.122786
H     -2.673663    0.465082    0.201483
H     -1.331199   -0.280812    1.058409
6

C     -1.874643    0.557851   -0.098746
H     -2.711687   -1.481902    2.105275
H     -2.648235   -0.078617    0.149063
C     -0.794201    1.022055    0.026632
H     -1.296903    0.358149    1.153665
H      0.253310    1.593034    0.006157
6

C     -1.875126    0.531122   -0.091500
H     -2.641899   -1.485425    2.120377
H     -2.633637   -0.066063    0.192241
C     -0.774832    1.018045   -0.007253
H     -1.358571    0.330858    1.137440
H      0.281494    1.638511    0.005843
6

C     -0.720862    1.006760   -0.008890
H     -0.073144   -0.343205    1.314364
H      0.117879    1.744060   -0.077213
C     -1.819908    0.229797    0.279845
H     -1.023682    0.269584    1.343566
H     -2.914099    0.202272   -0.300537
6

C     -1.577894    0.120284   -0.134101
H    -27.768760   59.332051  -58.623150
H     -2.593278    0.297586    0.152671
C     -0.836653    1.347200    0.308280
H    -28.157213   59.359972  -58.133260
H     -1.270141    2.190412    0.731452
6

C     -0.456344    1.427799    0.187098
H     -0.222910    1.848866   -0.790522
H     -1.071434    1.971128    0.991795
C     -1.420762   -0.199083    0.533869
H     -2.128036    0.110905    1.365182
H     -2.230964    0.507614   -0.237111
6

C     -1.640181    0.363766   -0.089096
H      0.308940    0.446626    1.047478
H     -2.727438   -0.232295   -0.033530
C     -0.897774    1.533893    0.304897
H     -0.913786    2.460356    0.850909
H      0.040759    1.310556   -0.165606
6

C     -0.842727    1.365953    0.163885
H     -1.170152    2.191509    0.750996
H      0.266485    1.576587   -0.103336
C     -1.702276    0.172874   -0.102696
H     -0.393665   -2.042005   -1.018280
H     -2.689750    0.129352    0.158723
6

C     -0.790870    1.358453    0.197983
H     -1.230530    2.409367    0.798509
H     -0.064556    1.553106   -0.533633
C     -1.205852    0.075272    0.378858
H     -1.765711   -0.278143    1.302799
H     -2.472931    0.549173   -0.094204
6

C     -0.445189    1.198451    0.152714
H     -0.442166    1.906971   -0.751839
H     -1.076685    1.803415    0.956269
C     -1.389861   -0.123728    0.464630
H     -1.936735    0.671649   -0.136605
H     -2.239813    0.210470    1.365143
6

C     -0.919907    1.413970    0.238534
H     -1.115776    2.332431    0.863197
H      0.211078    1.333681   -0.198416
C     -1.850237    0.458086    0.219758
H     -1.069462    0.259809    1.207138
H     -2.786146   -0.130750   -0.279901
6

C     -0.915129    1.432335    0.093311
H     -1.256628    2.326506    0.908862
H      0.139646    1.297484   -0.148593
C     -1.578029    0.204779   -0.133242
H     -0.380963    0.346499    1.687358
H     -2.528280    0.175172    0.147234
6

C     -1.599433    0.023758   -0.017725
H     -0.014181    1.542299   -0.196468
H     -2.594182    0.365245   -0.078395
C     -0.883575    1.198513    0.242650
H     -1.804263   -0.754109    0.638640
H     -1.269302    0.322657    1.286709
6

C     -1.461341    0.251279    0.227612
H     -0.221626    1.253681   -0.277538
H     -2.344508    0.093727   -0.308370
C     -1.374062    1.814625    0.303570
H     -1.477935    0.001839    1.370285
H     -0.650978    2.252077    0.734752
6

C     -1.696241    0.255323   -0.320516
H     -2.631417    0.050657    0.290742
H     -2.089737   -0.493988   -2.593487
C     -0.836226    1.375235    0.133384
H      0.239270    1.421337   -0.034263
H     -1.213807    2.333724    0.798225
6

C     -0.690069    1.337475    0.294693
H      0.058770    1.451729   -0.273149
H     -1.293084    2.270436    0.840979
C     -1.531122    0.090556    0.001034
H     -1.389224    0.259583    1.159303
H     -2.685720    0.257449    0.027452
6

C     -0.838618    1.451986    0.251743
H     -1.398033    2.196368    0.800033
H      0.223158    1.276446   -0.195519
C     -1.591985    0.324615   -0.232072
H     -2.532942    0.186859    0.243388
H     -1.663920    0.979989    1.871341
6

C     -1.444641   -0.094417    0.012610
H     -2.583910    0.369092    0.159076
H     -1.504105   -0.160181    1.058886
C     -1.026844    1.433713    0.332924
H     -1.454004   -0.961403   -0.646861
H     -1.110497    2.638228    0.677546
6

C     -0.516408    1.288849    0.376070
H     -1.327057    2.232624    0.803749
H      0.142763    1.515152   -0.358313
C     -1.639684    0.320167    0.090643
H     -0.265496    0.976399    1.298775
H     -2.798033    0.079484   -0.044577
6

C     -1.030729    1.450869    0.443122
H     -0.092419    1.381044   -0.128732
H     -0.746943    2.475982    0.620159
C     -2.094746    0.544844    0.288645
H     -2.482799   -0.217716   -0.422019
H     -1.082814    0.032205    1.249137
6

C     -1.624209    0.240737    0.125694
H     -1.469138    0.254509    1.111050
H     -2.607230   -0.063925   -0.059805
C     -1.129818    1.470475    0.228639
H     -0.839602    2.284638    0.835463
H     -0.464486   -0.347686   -0.332312
6

C     -0.391856    1.194009    0.402446
H      0.278675    1.375672    1.097855
H      0.127575    1.635633   -0.347414
C     -1.690967    0.202579    0.066295
H     -2.787649    0.205752   -0.002536
H     -1.395523    2.198303    0.748781
6

C     -0.512856    1.265822    0.679154
H      0.016508    1.523981   -0.476249
H     -1.321505    2.128960    0.658378
C     -1.564043    0.341346    0.125033
H     -2.756524    0.176167   -0.118744
H      0.181087    1.111775    1.578476
6

C     -0.821286    1.238210    0.174788
H      0.069972    1.595814   -0.277786
H     -1.173025    1.989559    0.954145
C     -1.600368    0.010148    0.237840
H     -2.778335    0.266389   -0.245109
H     -1.227408    0.567108    1.206433
6

C     -0.885173    1.507713    0.163067
H      0.235171    1.403355   -0.048308
H     -1.058935    2.446129    0.760520
C     -1.599992    0.334484   -0.139768
H     -2.638559   -0.099910    0.336705
H     -1.582961    0.075458    0.978095
6

C     -1.574620    0.070563   -0.113750
H     -2.650386    0.227939    0.295714
H     -1.408265    0.270935    1.062312
C     -0.875445    1.408000   -0.100753
H     -1.164015    2.178891    0.811725
H      0.142280    1.510900    0.095063
6

C     -1.632300    0.063930    0.020803
H     -2.715917    0.389337    0.169929
H     -1.351642    0.291536    1.122281
C     -0.710678    1.386003    0.217700
H     -1.465400    1.949512    0.733625
H      0.345487    1.586910   -0.214027
6

C     -1.421736    0.048135    0.129533
H     -2.539102    0.412774    0.062693
H     -1.692162   -0.038396    1.276218
C     -0.788851    1.222366    0.136183
H     -1.209292    2.341164    0.821381
H      0.120692    1.681184   -0.375696
6

C     -0.999243    1.358653    0.204379
H     -1.107639    2.159134    0.989120
H      0.151623    1.412878   -0.263609
C     -1.675413    0.144963    0.212986
H     -2.720734    0.083036   -0.255150
H     -1.179045    0.508565    1.162586
6

C     -1.643850    0.137836   -0.049103
H     -0.705457   -2.113033   -0.109173
H     -2.633566    0.127241    0.052701
C     -0.876931    1.444434    0.245307
H     -1.076446    2.239621    0.763239
H      0.092373    1.487144   -0.144572
6

C     -1.573434    0.145179   -0.118868
H     -0.716583   -2.282849   -0.129541
H     -2.761128    0.133397    0.110255
C     -0.815560    1.322583    0.261258
H     -1.245619    2.352753    0.841980
H      0.257321    1.482363   -0.227052
6

C     -0.669843    1.377459    0.696361
H      0.098796    1.480056    0.019382
H     -1.349617    2.068846    0.186488
C     -1.628916    0.532990   -0.029251
H     -1.279807   -0.027608    0.802488
H     -2.701063    0.235484    0.374844
6

C     -1.136425    1.468201    0.148220
H     -0.935089    2.582442    0.889081
H     -0.018926    1.153191   -0.009591
C     -2.108574    0.381968    0.433759
H     -2.402758   -0.123095   -0.371753
H     -0.928678    0.204521    0.960596
6

C     -0.937577    1.408013    0.387530
H     -0.996059    2.593986    0.873439
H      0.079888    1.253346   -0.293717
C     -1.846296    0.504662    0.160727
H     -2.632415   -0.226181   -0.301987
H     -1.197991    0.133401    1.224318
6

C     -0.879592    1.424717    0.412668
H     -0.099950    1.535867   -0.228325
H     -0.777328    2.675598    0.701483
C     -1.511691    0.127165   -0.098380
H     -1.593677   -0.078637    1.280136
H     -2.668211   -0.017483   -0.017271
6

C     -1.573145    0.204172    0.010641
H      0.054123    1.604643    1.507488
H     -2.711193    0.310781    0.125362
C     -0.771867    1.236755    0.212159
H      0.174810    1.662119   -0.145972
H     -1.257025    2.022449    0.665382
6

C     -1.643432    0.269619    0.022494
H     -0.097937    1.601379    1.967144
H     -2.740955    0.135459    0.034441
C     -0.713177    1.334056    0.365945
H      0.266812    1.526431   -0.319516
H     -1.307668    2.170710    0.764208
6

C     -1.872952    0.341510    0.082592
H      0.387236    1.617891   -0.282724
H     -2.817880   -0.096212   -0.005154
C     -0.614708    1.382025    0.283657
H     -1.220116    2.191062    0.789201
H      0.505461    1.266674    0.785840
6

C     -1.145985    1.457113    0.417274
H     -1.134905   -0.043561   -0.772315
H     -1.032812    2.508433    0.625559
C     -1.647487   -0.030945    0.222906
H     -1.202098   -0.071988    1.129921
H     -2.641615    0.323821   -0.154618
6

C     -1.633510    0.197863   -0.235487
H     -1.680168   -1.729332   -1.760751
H     -2.571418    0.194931    0.254950
C     -0.861567    1.422079    0.154485
H     -1.252751    2.205740    0.763503
H      0.180827    1.415664   -0.069879
6

C     -1.627007    0.195112   -0.196323
H     -1.732977   -2.035344   -1.795030
H     -2.729501    0.085941    0.220390
C     -0.871367    1.375731    0.086877
H     -1.127206    2.255678    0.771115
H      0.216661    1.523814   -0.014486
6

C     -1.573687    0.306073   -0.131046
H     -0.484955   -1.803261   -2.169685
H     -2.565695    0.204045    0.218246
C     -0.838509    1.488049    0.086181
H     -1.374062    2.127970    0.833498
H      0.213533    1.310139   -0.139307
6

C     -1.632620    0.192537   -0.224478
H     -0.537398   -0.871967   -2.051495
H     -2.643987   -0.055593    0.123253
C     -1.049573    1.524354    0.219393
H     -0.920382    2.396372    0.791999
H      0.108141    1.378606   -0.042594
6

C     -1.006515    1.300668   -0.059031
H     -1.287010    1.961810    0.825541
H     -0.040717    1.546614   -0.182733
C     -1.427784   -0.063926    0.183896
H     -2.375873    0.716235   -0.018194
H     -1.392551    0.205826    1.300833
6

C     -1.533125    0.137264   -0.186422
H     -2.643500    0.277859    0.203929
H     -0.141138   -1.397456   -1.331751
C     -0.813943    1.374189    0.252379
H      0.189577    1.423947   -0.182345
H     -1.337428    2.223018    0.780031
6

C     -1.637851    0.220766   -0.141120
H     -2.612227    0.141762    0.121162
H     -0.094398   -1.584224   -1.409601
C     -0.837921    1.360739    0.325322
H      0.139889    1.454303   -0.184904
H     -1.190311    2.258706    0.747112
6

C     -1.456180    0.109384   -0.211320
H      0.610038   -0.392403   -0.789443
H     -2.665200    0.315183    0.240223
C     -0.903124    1.295978    0.143264
H     -1.225386    2.224188    0.750096
H      0.111470    1.491543   -0.054690
6

C     -1.737157    0.305754   -0.158954
H     -2.621322    0.283858    0.387332
H     -1.356531    0.032460    1.005324
C     -0.671941    1.347825    0.414594
H      0.344793    1.504162   -0.099438
H     -1.488291    2.193169    0.501454
6

C     -1.590493    0.261338   -0.084694
H     -2.859135    0.175078    0.161236
H     -1.301901    0.213699    1.138606
C     -0.650869    1.391055    0.311849
H      0.291936    1.464821   -0.189144
H     -1.419988    2.161236    0.712458
6

C     -1.931619    0.450803    0.435667
H     -1.082291    0.038428    1.206149
H     -2.533807    0.029605   -0.450031
C     -0.984968    1.296015    0.459526
H     -1.071285    2.478351    0.742199
H      0.073520    1.374025   -0.343197
6

C     -1.709107    0.367342    0.054888
H      0.252764    0.866950    1.633018
H     -2.644272   -0.023005   -0.139552
C     -0.615031    1.391490    0.646425
H     -1.123591    2.273755    0.701919
H     -0.046418    1.426694   -0.396108
6

C     -0.695267    1.554815    0.221550
H      0.147321    1.175305    1.156131
H      0.498220    1.372295   -0.272714
C     -1.915700    0.553960   -0.039400
H     -1.274163    2.248434    0.880878
H     -2.751510   -0.293228    0.077259
6

C     -0.509788    1.625429    0.333252
H     -0.209781    0.948484    1.034517
H      0.052626    1.290022   -0.347070
C     -1.789311    0.383398    0.115316
H     -1.176934    2.335655    0.909976
H     -2.715014   -0.198228   -0.143901
6

C     -0.503896    1.164476    0.475733
H      0.059269    1.567106   -0.353639
H     -1.187762    2.450801    0.811320
C     -1.745835    0.264909    0.023979
H      0.525817    1.119540    0.918568
H     -2.760195   -0.011016   -0.089820
6

C     -0.426026    1.492152    0.453024
H     -1.258379    2.285551    0.816658
H     -0.009020    0.824707    1.163291
C     -1.837435    0.391265    0.059998
H      0.135986    1.413953   -0.377203
H     -2.752566   -0.146644   -0.084904
6

C     -1.552016   -0.221368    0.111437
H     -1.282099   -0.046489    1.074668
H     -2.739349    0.333634   -0.049779
C     -1.040738    1.522374    0.429227
H     -1.319340   -0.652640   -0.926318
H     -1.055795    2.598282    0.675488
6

C     -1.689272    0.215796    0.158353
H     -2.609064   -0.034436   -0.136181
H     -1.335595   -1.084486   -0.232854
C     -1.122268    1.543042    0.201372
H     -1.396949    0.263626    1.190786
H     -0.852445    2.198406    0.826711
6

C     -1.649736    0.146138    0.197100
H     -2.639118    0.115498   -0.195990
H     -0.916155   -0.744716   -0.436055
C     -1.199630    1.524123    0.262132
H     -1.294193    0.068789    1.248367
H     -0.887320    2.331886    0.729433
6

C     -0.663522    1.273638    0.347462
H     -0.739882    2.050326   -0.669561
H     -1.284044    2.077710    0.766576
C     -1.647065    0.376082    0.248693
H      0.204188    1.582584   -0.382253
H     -2.747977    0.126261   -0.112905
6

C     -0.499528    1.444160    0.465754
H      0.186855    1.724445    1.140617
H      0.129793    1.363198   -0.485018
C     -1.613157    0.334349    0.149843
H     -1.380726    2.250423    0.866518
H     -2.774803    0.044147   -0.129525
6

C     -0.702155    1.533393    0.097959
H     -1.215673    2.292643    0.727721
H      0.285027    1.626777   -0.277534
C     -1.349615    0.155527   -0.037141
H     -1.796462   -0.154298    1.247843
H     -2.751573    0.213186    0.291464
6

C     -0.790492    1.501004    0.198263
H     -2.052155    2.306482   -0.911774
H     -0.988090    2.290142    0.889249
C     -1.776800    0.251336    0.244504
H      0.116640    1.492104   -0.267526
H     -2.699678   -0.098310   -0.196917
6

C     -0.728415    1.311248    0.546069
H      0.035011    1.451444   -0.343826
H     -1.012271    2.413810    0.772060
C     -1.802359    0.423867    0.037301
H      0.047178    1.302212    1.450197
H     -2.630387   -0.164094   -0.144031
6

C     -0.871312    1.391585    0.408496
H     -0.062106    1.458483   -0.398798
H     -1.045875    2.300215    0.849901
C     -1.616343    0.093778    0.273790
H     -2.365190   -0.295510    2.193120
H     -2.542785    0.192215   -0.265817
6

C     -1.006881    1.633706    0.024061
H      0.062153    1.262936   -0.143766
H     -0.971075    2.377112    0.982329
C     -1.624755    0.233880    0.076505
H     -0.908221    0.757101    1.556710
H     -2.597861   -0.071358   -0.071557
6

C     -1.509631    0.443865    0.339958
H     -2.589443    0.367146    0.053666
H     -1.644762   -0.177600    1.155032
C     -0.401860    1.536692    0.535745
H      0.151475    1.533759   -0.545383
H     -1.536229    1.963365    0.511294
6

C     -2.037063    0.654524   -0.180680
H     -1.910798   -0.568577    0.185635
H     -1.833470    0.446631    0.925603
C     -0.963413    1.546261    0.385845
H     -0.045689    1.151677   -0.278870
H     -0.740017    2.436711    1.012778
6

C     -0.880531    1.240203    0.152916
H     -1.172035    2.027393    0.771246
H      0.218368    1.694738   -0.176371
C     -1.687971    0.089991    0.160143
H     -1.302932    0.327004    1.194434
H     -2.705348    0.287899   -0.052056
6

C     -0.853369    1.351820    0.221218
H     -1.186549    2.271685    0.795160
H      0.228376    1.521928   -0.169209
C     -1.629602    0.139731   -0.093956
H     -0.178464   -1.969301   -0.280858
H     -2.697276    0.151112    0.114359
6

C     -0.766234    1.456903    0.126872
H     -0.021700    0.843483    0.927526
H     -1.308463    2.107421    0.867858
C     -1.802363    0.363739    0.139345
H     -2.744029   -0.013386    0.020522
H      0.482669    1.521600   -0.287024
6

C     -0.858805    1.485669    0.129003
H     -1.185457    2.273587    0.803515
H      0.319479    1.476075   -0.105468
C     -1.662894    0.183962   -0.112855
H     -2.668560    0.058257    0.247938
H     -1.474213    0.189677    1.088178
6

C     -0.720138    1.429317    0.357834
H     -1.324998    2.251443    0.811018
H      0.174437    1.337706   -0.292600
C     -1.613390    0.337684   -0.092409
H     -1.478999    2.562878   -0.920546
H     -2.654331    0.080126    0.083730
6

C     -0.760334    1.437397    0.286483
H     -1.198867    2.348712    0.864789
H      0.355890    0.831790    1.481446
C     -1.744150    0.330251   -0.056540
H      0.300310    1.416243   -0.266264
H     -2.735378   -0.096327    0.039105
6

C     -0.724608    1.450122    0.266640
H     -1.080000    2.166096    0.784452
H      0.031965    0.974967    1.460441
C     -1.855312    0.329263    0.177524
H      0.286438    1.600487   -0.264923
H     -2.764939   -0.109692   -0.096121
6

C     -1.601919    0.147361   -0.125246
H     -2.608872    0.260291    0.167304
H     -0.207727   -1.947539   -0.644119
C     -0.849621    1.329035    0.214576
H      0.150000    1.514764   -0.128016
H     -1.228008    2.184825    0.738955
6

C     -1.640859    0.176950   -0.046504
H      0.181204   -1.565710    0.126192
H     -2.697159    0.094161    0.046821
C     -0.828740    1.395946    0.283422
H     -1.174560    2.294932    0.814931
H      0.202898    1.474288   -0.231097
6

C     -0.695841    1.458927    0.242855
H     -1.182585    2.271370    0.592248
H      0.201404    1.628036   -0.263998
C     -1.654194    0.333610    0.208875
H     -2.519127    1.798769    1.267232
H     -1.538899   -0.198910    1.234311
6

C     -0.331485    1.421734    0.345042
H     -1.408329    1.718441    0.570300
H      0.115615    1.811925   -0.488459
C     -1.438113    0.279034    0.320475
H     -2.807127    0.401193   -0.020391
H     -1.661011    0.034902    1.323344
6

C     -1.547782    0.067826   -0.030113
H     -2.662750    0.364253    0.135905
H     -1.689896   -0.002783    1.600072
C     -0.785081    1.260065    0.129347
H     -1.407269    2.225250    0.866676
H      0.264462    1.518883   -0.234243
6

C     -1.748401    0.414138   -0.178640
H     -2.602729    0.087973    0.299738
H      0.158255    1.457057    0.039726
C     -0.642459    1.432480   -0.025371
H     -1.303085    2.044627    0.732121
H     -0.940849    2.284157   -0.697627
6

C     -1.467269   -0.187521    0.360187
H     -2.278745    0.595346   -0.054153
H     -2.015594    0.040853    1.395691
C     -0.544697    1.440324    0.094267
H     -1.241284    1.942558    0.917735
H      0.017140    1.835668   -0.663415
6

C     -0.966813    1.313164    0.592521
H     -0.402337    1.618044    1.527673
H     -0.965514    2.405596    0.758214
C     -1.715949    0.440526    0.013760
H     -2.632897   -0.153842   -0.131113
H      0.142753    1.430832   -0.365809
6

C     -1.576635   -0.108579    0.245845
H     -1.216526   -1.037439    0.365896
H     -2.571523    0.489375   -0.073708
C     -0.704252    1.058745    0.157558
H     -0.022522    1.802347   -0.275515
H     -1.485740    0.210584    1.182592
6

C     -0.288408    1.479042    0.582152
H      0.023007    1.442402   -0.432742
H      0.138530    0.724906    1.200635
C     -1.732938    0.330749    0.082578
H     -2.889021   -0.130829   -0.147904
H     -1.251061    2.314912    0.783489
6

C     -0.678263    1.385841    0.438839
H     -1.086202    2.283164    0.693917
H      0.298077    1.537338   -0.205705
C     -1.998645    0.488815   -0.134026
H     -2.673387   -0.258882    0.074548
H     -0.848939    0.246778    0.728894
6

C     -1.596818    0.105233   -0.155027
H      0.168960   -0.552194   -1.107798
H     -2.440963    0.568277    0.283583
C     -0.765761    1.251249    0.254564
H      0.163834    1.538891   -0.167663
H     -1.498712    1.972626    0.652116
6

C     -1.581283    0.109823   -0.021472
H     -2.559370   -1.255266    0.277803
H     -2.691395    0.151273    0.040259
C     -0.856863    1.450027    0.217372
H      0.147414    1.454261   -0.199040
H     -1.156293    2.270891    0.830454
6

C     -1.468362    0.045155   -0.182635
H     -1.787541   -2.105831   -0.362343
H     -2.726320    0.350017    0.272903
C     -0.876686    1.364971    0.054107
H      0.174878    1.557104   -0.005955
H     -1.241930    2.119029    0.729153
6

C     -1.435989    0.288099    0.246784
H     -0.705985    0.872329   -1.246857
H     -1.584101   -0.043526    1.122933
C     -0.839355    1.469146    0.169504
H      0.162317    1.483312   -0.299879
H     -1.172987    2.296002    0.774948
6

C     -1.766467    0.394317   -0.051624
H     -0.746874    1.717127   -1.344104
H     -2.954427   -0.183621    0.148023
C     -0.656304    1.403895   -0.000457
H      0.270284    1.670338    0.041243
H     -1.031506    2.151347    0.730388
6

C     -0.997574    1.561000    0.445583
H     -2.589938    0.085681    0.129799
H     -0.947260    2.563864    0.578785
C     -1.574005    0.157740    0.047719
H     -1.561220   -0.181851    1.039156
H     -1.554161   -0.822585   -0.655211
6

C     -1.615955    0.167656   -0.278095
H     -2.572615    0.162601    0.227867
H     -0.614808   -1.012116   -2.139576
C     -0.866273    1.334239    0.193953
H      0.122638    1.399872   -0.085919
H     -1.206214    2.371908    0.809767
6

C     -1.610040    0.227021   -0.163588
H     -2.666016    0.122709    0.155432
H     -0.381307   -1.136470   -2.226660
C     -0.914482    1.355380    0.284321
H      0.157595    1.515836   -0.105177
H     -1.105478    2.215330    0.696584
6

C     -1.676656    0.249644   -0.139339
H      0.465272   -0.392063   -1.719938
H     -2.664073   -0.039398    0.091838
C     -0.905513    1.450674    0.208587
H     -1.044493    2.361651    0.820512
H      0.152315    1.413705   -0.114025
6

C     -1.607203    0.206825   -0.013871
H     -1.490019    0.103916    1.244646
H     -2.686361    0.100151    0.045358
C     -0.894450    1.409672    0.304871
H      0.285970    1.540929   -0.303514
H     -1.138387    2.305734    0.772822
6

C     -1.724948    0.227461    0.161242
H     -1.259941    0.283581    1.093060
H     -2.759620    0.108565   -0.019390
C     -0.908585    1.212957    0.090759
H      0.183455    1.646249   -0.034990
H     -1.060811    2.188415    0.759630
6

C     -1.453897    0.159930   -0.061643
H     -1.702488   -0.083235    1.010344
H     -2.637148   -0.019399    0.198214
C     -0.850295    1.455927    0.401598
H     -0.024987    1.502311   -0.170429
H     -0.861636    2.651693    0.672227
6

C     -1.593895    0.040154    0.057620
H     -1.307702    0.255136    1.323539
H     -2.681241    0.363852   -0.081824
C     -0.751137    1.195702    0.109181
H      0.036210    1.607067   -0.205027
H     -1.232684    2.205318    0.846822
6

C     -1.705683    0.280583    0.309146
H      0.278128   -0.114992   -0.567504
H     -2.664390   -0.057569   -0.263477
C     -0.815997    1.435419    0.226376
H      0.041110    1.456343   -0.323298
H     -0.993459    2.321499    0.918825
6

C     -1.602782    0.217136    0.431829
H     -3.243621   -0.813716   -0.856076
H     -2.674043    0.281849   -0.246153
C     -0.702497    1.213437    0.272433
H      0.123455    1.610689   -0.449958
H     -1.282553    2.113165    0.859421
6

C     -1.489101   -2.217462    2.221146
H     -2.299614   -2.040903    2.894135
H     -0.569726   -2.087592    1.653042
C     -1.516881    0.189795   -0.075295
H     -2.575039    0.180148    0.181897
H     -1.536802    0.227088    1.136037
6

C      2.920673    2.038985    2.585576
H      3.905095    2.332267    2.608355
H      2.000801    1.709258    2.367039
C     -0.757262    1.483759    0.200141
H      0.167108    1.367190   -0.270200
H     -1.311573    2.219247    0.877732
6

C     -0.796221    1.357573    0.218926
H     -1.213344    2.189157    0.720656
H      0.113121    1.514493   -0.096970
C     -1.559878    0.137984   -0.162361
H     -0.388137   -1.892675   -0.998835
H     -2.682097    0.237069    0.187321
6

C     -0.806850    1.321328    0.228892
H     -1.372640    2.141405    0.761347
H      0.328721    1.537642   -0.207059
C     -1.572596    0.151696   -0.111082
H     -0.401737   -2.067172   -0.945548
H     -2.715055    0.284205    0.195474
6

C     -0.932544    1.324936    0.075523
H     -1.112902    2.325786    0.794491
H     -0.003648    1.609394   -0.331978
C     -1.370224    0.047272    0.175412
H     -1.745518   -0.116459    1.273375
H     -2.365614    0.476299    0.063488
6

C     -0.849041    1.173244   -0.125112
H      0.166483    1.849313   -0.048085
H     -1.193438    1.924566    0.765678
C     -1.572524   -0.076600    0.089992
H     -2.534307    0.520691    0.220461
H     -1.547624    0.276015    1.147377
6

C     -1.002174    1.455573    0.352822
H     -0.819464    2.654874    0.841257
H      0.331455    1.419114   -0.247650
C     -2.099546    0.539526    0.253231
H     -1.327466    0.071837    1.071402
H     -2.613255   -0.473697   -0.220750
6

C     -1.603863    0.040314    0.168576
H     -1.274397    0.422350    1.217509
H     -2.694676    0.058311   -0.289593
C     -1.083760    1.382513    0.245784
H     -0.084239    1.511927   -0.180742
H     -0.789515    2.251812    0.888777
6

C     -1.394017    0.264467    0.131688
H     -1.930000   -0.032775    1.012751
H     -2.609878    0.156092    0.309271
C     -0.664018    1.422886    0.269401
H      0.348984    1.631189   -0.446185
H     -1.281521    2.225369    0.773385
6

C     -0.849612    1.499777    0.225015
H     -1.261143    2.495824    0.731645
H      0.230076    1.378292   -0.226359
C     -1.604184    0.260249    0.177563
H     -1.385251   -0.141109    1.106426
H     -3.351743    0.214907    1.427605
6

C     -1.586100    0.058578    0.226006
H     -2.693968    0.312797   -0.098947
H     -1.867623   -0.822861    0.219987
C     -0.626345    1.036754    0.260486
H      0.015998    1.778105   -0.320250
H     -1.470257    0.266239    1.169477
6

C     -0.593928    1.291181    0.333136
H      0.203018    1.291266    1.331684
H      0.163001    1.579362   -0.272639
C     -1.585392    0.409473    0.097579
H     -2.838647    0.096348    0.008713
H     -1.283454    2.059912    0.700784
6

C     -0.856065    1.432515    0.272284
H     -1.484052    2.028629   -0.190866
H     -1.007270    2.356233    0.919072
C     -1.822460    0.202275    0.266577
H     -2.688864   -0.087849   -0.232819
H      0.236239    1.533102   -0.357540
6

C     -0.772877    1.184504    0.192031
H      0.070986    1.726799   -0.061792
H     -1.190404    2.101922    0.644488
C     -1.575207    0.013164   -0.075457
H     -2.670918    0.409886    0.168303
H      0.313988   -0.939198   -0.290323
6

C     -0.772884    1.360195    0.064339
H      0.146894    1.620139    0.022978
H     -1.142608    2.197325    0.727031
C     -1.599465    0.048615   -0.178519
H     -2.770358    0.210003    0.231744
H     -0.473320   -1.794973   -1.018523
6

C     -0.893387    1.439422    0.100985
H      0.076130    1.363839    0.004364
H     -1.242899    2.199097    0.752656
C     -1.648829    0.169097   -0.299278
H     -2.429435    0.264821    0.308846
H     -2.867134   -1.315724   -0.762572
6

C     -0.698559    1.397713    0.513729
H     -1.328145    2.352770    0.535371
H      0.203728    1.303529   -0.054335
C     -1.747359    0.559314   -0.132302
H     -1.204475    0.094532    0.961143
H     -2.755639   -0.040631    0.226706
6

C     -0.801838    1.227386    0.177787
H     -1.263764    2.069127    0.712674
H      0.210847    1.648471   -0.159148
C     -1.587468    0.188025    0.020040
H     -0.644123    1.317937    1.842534
H     -2.696196    0.303266    0.116220
6

C     -0.850468    1.460241    0.190343
H      0.236301    1.470167   -0.126738
H     -1.165257    2.300896    0.811698
C     -1.660953    0.106674   -0.161084
H     -2.698042    0.098298    0.153353
H     -0.096171   -1.113434   -1.261649
6

C     -0.853774    1.371181    0.151450
H      0.242672    1.535677   -0.088618
H     -1.184437    2.217012    0.763931
C     -1.651758    0.167846   -0.145326
H     -2.691123    0.144560    0.186135
H      0.059915   -1.210018   -1.515983
6

C     -0.830036    1.312247    0.128141
H     -1.411620    1.956427    0.642724
H      0.165689    1.561214   -0.042366
C     -1.615265    0.063890   -0.203659
H     -0.094851   -0.740858   -1.310647
H     -2.447187    0.542498    0.342732
6

C     -0.606937    1.149357    0.209476
H     -1.356077    0.287523    1.236774
H      0.099492    1.714275   -0.232943
C     -1.685966    0.139206    0.113038
H     -1.539092   -0.971019   -0.423141
H     -2.811185    0.162112   -0.089575
6

C     -1.775155    0.026506    0.342272
H      0.100884    1.678915   -0.372918
H     -2.620319    0.165732   -0.273120
C     -0.815366    1.248753    0.307608
H     -0.525912    0.054343    0.838441
H     -1.028464    2.316370    0.863731
6

C     -1.763344    0.361142    0.164290
H     -1.117311    0.385071    1.102683
H     -2.884454    0.006371   -0.082293
C     -0.863177    1.354131    0.187000
H     -1.222821    2.072304    0.794110
H      0.320657    1.488209   -0.115479
6

C     -1.157025    1.840661    0.146100
H     -0.705049    2.405255    0.846047
H     -0.217613    0.979929   -0.050224
C     -1.797686    0.709230    0.266441
H     -1.218801    0.127501    1.155704
H     -2.434277   -0.395348   -0.313756
6

C     -1.866001    0.538374   -0.073623
H     -0.499639    0.479527    1.920938
H     -2.596957   -0.220687   -0.024050
C     -0.731002    1.164946    0.393127
H     -0.988817    2.455092    0.766353
H      0.044357    1.498551   -0.194235
6

C     -0.820001    1.362966    0.146971
H      0.188461    1.495503   -0.080509
H     -1.223594    2.228240    0.769808
C     -1.656970    0.167990   -0.179013
H     -2.626316    0.181577    0.210315
H      0.163536   -0.882859   -1.451802
6

C     -0.845851    1.391517    0.124556
H      0.305330    1.447683   -0.148194
H     -1.409840    2.067134    0.771576
C     -1.567466    0.229024   -0.132213
H     -2.620592    0.300917    0.251848
H      0.729414   -0.966623   -0.409282
6

C     -1.422148    0.034157    0.206446
H     -2.411442    0.640359   -0.144328
H     -1.307702    0.004110    1.352965
C     -1.061380    1.314837    0.109530
H     -1.310249    2.280166    0.824367
H     -0.017528    1.393599   -0.298668
6

C     -1.356290    0.033027    0.148499
H     -2.335940    0.537716    0.009789
H     -1.507460   -0.124621    1.171912
C     -1.072936    1.432977    0.308214
H     -1.078560    2.379178    0.640386
H     -0.179265    1.408951   -0.228488
6

C     -0.826328    1.580631   -0.017177
H     -2.757913   -0.222982    0.159289
H     -1.054139    2.301424    0.870412
C     -1.795993    0.366514   -0.138814
H      0.295953    1.410689   -0.006137
H     -0.933042    2.879989   -1.104848
6

C     -0.783399    1.208253    0.381718
H     -2.601348   -0.170415   -0.005724
H      0.179747    1.608147   -0.186765
C     -1.926078    0.553978    0.003201
H     -1.007343    2.236313    0.675142
H     -0.125274    0.497184    1.721745
6

C     -0.743938    1.218293    0.035093
H     -2.846370   -0.129380    0.066316
H     -0.661677    2.046302   -0.776871
C     -1.751576    0.356585   -0.013182
H     -1.032271    2.343941    0.831852
H      0.235735    1.646837   -0.052506
6

C     -0.796295    1.183438    0.437744
H     -2.650297   -0.171347   -0.204784
H     -0.620194    0.049352    1.592459
C     -1.847155    0.590439    0.240804
H      0.150204    1.603250   -0.342038
H     -0.994877    2.230497    0.735847
6

C     -0.721013    1.407408    0.090927
H      0.277213    1.440393   -0.018046
H     -1.313869    2.149023    0.741492
C     -1.712274    0.391687   -0.278035
H     -2.668475    0.047765    0.331235
H     -0.756650    1.388919   -1.785442
6

C     -0.904471    1.363465    0.072435
H      0.290440    1.431375    0.003937
H     -1.201838    2.250043    0.774870
C     -1.731865    0.371937   -0.297577
H     -2.590686    0.019456    0.313908
H     -0.349070    1.301982   -1.541301
6

C     -1.453100    0.001921    0.142164
H     -2.579900    0.335607   -0.020843
H     -1.466565   -0.256789    1.266808
C     -1.207028    1.613466    0.203536
H     -0.963405    2.492230    0.649376
H     -0.383239   -1.054379   -0.226016
6

C     -0.610367    1.121020    0.364098
H      0.058340    1.767206   -0.157576
H      0.111627    1.161989    1.237885
C     -1.662003    0.239839    0.008171
H     -2.758026    0.219169    0.064388
H     -1.166363    2.089042    0.588491
6

C     -1.108802    1.385434    0.323840
H      0.106477    1.493893   -0.376947
H     -0.932980    2.264344    0.866302
C     -1.701352    0.213123    0.348555
H     -2.501763    0.079483   -0.294178
H     -1.826581    1.767744   -0.304643
6

C     -1.581428    0.318193    0.132734
H     -1.269522    2.238047    0.751157
H     -2.787527    0.109905   -0.124641
C     -0.549854    1.243498    0.535016
H      0.049912    1.526634   -0.426694
H     -0.049674    1.237774    1.519896
6

C     -0.653472    1.373693    0.031905
H     -1.139015   -0.413724   -0.475786
H      0.275576    1.621948   -0.199518
C     -1.734683    0.384205    0.100305
H     -2.685286   -0.020338    0.103148
H     -1.562806    0.092965    1.200932
6

C     -1.759394    0.253030    0.307564
H     -1.757788    1.817158   -0.458722
H     -2.674594    0.070707   -0.140566
C     -0.773486    1.455034    0.126231
H      0.198017    1.573002   -0.263359
H     -1.128962    2.084502    0.837702
6

C     -1.080682    1.484399    0.125338
H     -1.535959    0.556189    1.102142
H     -0.779572    2.140816    1.013045
C     -1.660760    0.225874    0.041929
H     -2.613025   -0.220843   -0.041412
H     -0.734355   -0.531372    0.074864
6

C     -1.777880    0.364657    0.008839
H     -0.679431    0.465357    1.725907
H     -2.805324   -0.113724    0.003156
C     -0.718656    1.156303    0.215951
H      0.195246    1.664433   -0.148367
H     -1.031806    2.364607    0.787993
6

C     -1.935411    0.596370   -0.198297
H     -0.969933    0.452960    1.632637
H     -2.567646   -0.196251    0.182202
C     -0.785293    1.239745    0.226478
H      0.208965    1.531455   -0.035918
H     -1.059036    2.264956    0.693107
6

C     -1.766737    0.287068    0.136967
H      0.271791    1.567089   -0.382901
H     -2.675634    0.040967   -0.100662
C     -0.794010    1.311961    0.434856
H     -1.173829    2.229192    0.779311
H     -0.012393    1.422782    1.354901
6

C     -0.911739    1.327188    0.110856
H     -1.465207    2.151146    0.827601
H      0.334050    1.371811   -0.166856
C     -1.633270    0.271987   -0.192474
H     -2.462254    0.314144    0.288445
H     -1.730593    0.024930    1.370616
6

C     -0.719092    1.332301    0.488959
H      0.207400    1.352748   -0.507084
H      0.000590    1.754261    1.531110
C     -1.703336    0.431846    0.146998
H     -2.704377   -0.125520   -0.194845
H     -1.219015    2.444901    0.933545
6

C     -1.553052    0.491134    0.219226
H     -1.491779   -0.114548    1.115937
H     -2.740552    0.337253    0.146164
C     -0.443122    1.475818    0.554043
H     -1.550903    1.895967    0.399219
H      0.248958    1.581603   -0.384277
6

C     -0.984985    1.561979    0.162968
H     -0.956391    2.365850    0.924930
H     -0.059260    1.226597   -0.093223
C     -1.617121    0.244628   -0.083896
H     -2.535602   -0.068260    0.013029
H     -1.377091    0.336433    1.126504
6

C     -0.715548    1.146086    0.274540
H     -1.272407    2.136677    0.717414
H      0.098512    1.739630   -0.317043
C     -1.561773    0.029052    0.021520
H     -2.569816    0.467774    0.047343
H     -1.509418    0.148009    1.306538
6

C     -2.225316    0.441115    0.299727
H     -1.226275    0.306885    1.008093
H     -2.074017   -0.311396   -0.306161
C     -1.113497    1.716998    0.239511
H     -0.138508    1.089138   -0.117287
H     -0.752836    2.424488    0.926428
6

C     -1.493719    0.341443    0.221497
H     -2.462465   -0.070013   -0.261025
H     -1.345213   -0.059666    1.242658
C     -1.218758    1.757355    0.028879
H     -0.757368    2.649564    0.926490
H     -0.252927    1.048545   -0.108188
6

C     -0.420512    1.237423    0.493445
H      0.020167    1.062122    1.316716
H      0.085080    1.636604   -0.366549
C     -1.640053    0.340910    0.136719
H     -1.319241    2.088485    0.667280
H     -2.843695    0.132854   -0.063323
6

C     -0.625760    1.354040    0.144091
H     -1.132816    2.036965    0.690508
H     -0.500086    1.265070    1.181294
C     -1.783905    0.284021    0.105314
H     -2.820447    0.037677    0.041024
H      0.224508    1.723573   -0.113363
6

C     -0.911690    1.393005    0.265887
H      0.051278    1.383984   -0.436798
H     -1.080259    2.352379    0.984704
C     -1.706070    0.237893    0.368997
H     -2.491678    0.069015   -0.315219
H     -0.301582    0.211614    0.812545
6

C     -1.587873    0.428480    0.281757
H     -1.279773   -0.028287    1.049110
H     -2.368408   -0.041999   -0.152031
C     -1.111369    1.729765   -0.052710
H     -0.152931    0.893845   -0.088540
H     -1.030096    2.685424    1.012727
6

C     -0.761568    1.360548    0.225090
H     -1.371989    2.195092    0.875834
H      0.094590    1.602808   -0.740335
C     -1.287019    0.085215    0.471689
H     -2.221479    0.617819   -0.025227
H     -1.982985   -0.194255    1.243261
6

C     -1.571350   -0.013834    0.222460
H     -1.378336    0.531839    1.193475
H     -2.465976    0.180950   -0.327193
C     -1.054592    1.395263    0.355186
H     -0.972572    2.188596    1.038334
H     -0.087624    1.384415   -0.431952
6

C     -1.565872    0.010662    0.159002
H     -1.167851    0.445483    1.546166
H     -2.685728    0.311892   -0.447093
C     -0.986128    1.346498    0.174606
H     -1.032208    2.041154    0.947241
H     -0.092664    1.511538   -0.329611
6

C     -1.825924    0.360389    0.116229
H     -0.065414    1.165319    1.173770
H     -2.736988   -0.098582   -0.044663
C     -0.630657    1.431189    0.187035
H     -1.200004    2.247876    0.871648
H      0.255153    1.495404   -0.262677
6

C     -0.832699    1.410430    0.189295
H     -1.169839    2.190304    0.799036
H      0.100811    1.469462   -0.180657
C     -1.021023   -0.431711    0.938747
H      0.204001   -0.543502    0.922904
H     -0.937856    0.173665    2.218372
6

C     -3.176748    2.030919   -2.439974
H     -3.997213    1.743754   -1.836542
H     -2.405572    2.448390   -3.282646
C     -0.808035    1.297516    0.111490
H      0.227153    1.408538   -0.271681
H     -1.320845    2.364144    0.967864
6

C     -0.216534    2.888186   -3.154119
H     -0.319582    1.891912   -3.590095
H     -0.191217    3.867897   -2.519431
C     -1.646239    0.190910    0.030021
H     -1.422088    0.229465    1.150981
H     -2.560395    0.176656    0.061636
6

C      1.628264   -2.027348   -3.582391
H      1.594773   -0.949673   -3.807472
H      1.689331   -3.179248   -3.475098
C     -1.558611    0.186881   -0.146711
H     -2.688147    0.174224    0.051882
H     -1.381964    0.235926    1.337467
6

C     -1.596517    0.267121    0.255109
H     -2.745675    0.113551   -0.082331
H     -1.402288   -0.162596    1.231708
C     -0.809302    1.494501    0.077155
H     -2.193759    1.358602    0.010984
H     -1.116215    2.473857    0.759400
6

C     -0.828259    1.485380    0.066881
H      0.167247    1.627202   -0.095902
H     -1.054503    2.399771    0.615328
C     -1.675587    0.226420    0.287144
H     -0.313709    0.830519    0.658765
H     -1.479013   -0.245740    1.140840
6

C     -0.862254    1.342908    0.378100
H     -0.933148    2.268896    0.790289
H     -0.048373    1.587974   -0.324964
C     -1.758679    0.119170    0.296034
H     -1.725316    1.643837   -0.111743
H     -2.535967    0.117329   -0.271887
6

C     -0.801795    1.368067    0.137048
H     -1.129279    1.741156   -1.338192
H     -1.202444    2.122095    0.865064
C     -1.811537    0.364242    0.268269
H      0.304911    1.549360   -0.299965
H     -2.627556    0.032513   -0.102844
6

C     -1.597819    0.109177   -0.169089
H     -2.617283    0.200515    0.170024
H     -0.812888   -2.002041   -1.238213
C     -0.800774    1.353478    0.117157
H      0.163244    1.397296   -0.147432
H     -1.285789    2.375810    0.896913
6

C     -1.683942    0.267218   -0.133784
H     -2.763405   -0.041812    0.116617
H     -0.811800   -2.102708   -1.491659
C     -0.872343    1.460748    0.276275
H      0.244034    1.507485   -0.122407
H     -1.062764    2.242637    0.730871
6

C     -1.648331    0.249575   -0.126940
H     -2.579001   -0.035878    0.009984
H      0.469073    0.247952   -1.616774
C     -0.894386    1.454793    0.335077
H      0.105767    1.259359   -0.269417
H     -1.122470    2.508427    0.918868
6

C     -0.479593    1.375883    0.258841
H     -0.074234    1.918269   -0.717536
H     -1.108949    2.012402    0.897199
C     -1.529735   -0.237890    0.460687
H     -2.060703    0.087869    1.286204
H     -2.277236    0.510694   -0.135085
6

C     -0.566323    1.268955    0.214392
H     -0.074356    1.931523   -0.395358
H     -1.128557    2.201278    0.671104
C     -1.769027   -0.250740    0.205202
H     -1.736935   -0.104176    1.394578
H     -2.255253    0.620389   -0.039606
6

C     -0.836411    1.504446    0.124583
H      0.190224    1.428000   -0.043162
H     -1.166394    2.209824    0.769707
C     -1.588720    0.226939   -0.200751
H     -2.737120    0.067066    0.217196
H      0.095154   -0.899850   -1.646942
6

C     -0.941853    1.403666    0.206861
H      0.083943    1.340375   -0.129260
H     -1.132112    2.384222    0.845304
C     -1.589630    0.199414   -0.185739
H     -2.558769    0.108599    0.130407
H      0.124586   -0.933851   -1.774586
6

C     -0.844915    1.299680    0.181718
H     -1.273531    2.186410    0.744457
H      0.194787    1.515658   -0.108528
C     -1.642116    0.164160   -0.169850
H     -2.572645    0.270368    0.219776
H     -0.220055   -1.084330   -1.926035
6

C     -1.541793    0.006942   -0.064184
H     -0.606028   -2.069340   -0.021843
H     -2.676558    0.499212    0.212303
C     -0.767198    1.263297    0.209811
H      0.255689    1.658590   -0.173451
H     -1.408560    2.008236    0.683093
6

C     -1.652464   -0.148656    0.147708
H     -2.147154    0.867337    0.117215
H     -1.511864   -0.310324    1.255500
C     -0.867318    1.317214    0.312693
H     -0.069915    1.699436   -0.210595
H     -1.281734    2.242221    0.427791
6

C     -1.999788    0.342845    0.701389
H     -0.982983    0.282481    0.611011
H     -2.502721   -0.099599   -0.308365
C     -1.070851    1.457776    0.150787
H     -1.036906    2.518214    0.925470
H      0.062798    1.165511   -0.029979
6

C     -0.800063    1.370639    0.151487
H      0.171331    1.418056   -0.241804
H     -1.272995    2.281502    0.897990
C     -0.344944    0.310140    1.756793
H     -1.807261    0.651216   -0.316234
H      0.022858   -0.302348    2.474888
6

C     -0.791056    1.630966   -0.060618
H      0.251020    1.549681    0.016378
H     -0.778405    2.341644    0.883262
C     -2.018339    0.369464    0.071562
H     -0.657617    2.772341   -0.802089
H     -2.801639   -0.455479   -0.043011
6

C     -0.678924    1.145071    0.299726
H     -1.051391    2.185635    0.663382
H      0.089862    1.755806   -0.154355
C     -1.651530    0.275448    0.069445
H     -0.269377    1.215865    1.200054
H     -2.846436    0.074317   -0.010625
6

C     -0.619183    1.121982    0.523327
H     -0.358541    0.526903    1.489823
H     -1.114566    2.390183    0.788153
C     -1.593630    0.392079    0.151705
H      0.000023    1.554522   -0.402827
H     -2.811063   -0.022490   -0.192785
6

C     -0.782036    1.533401    0.220120
H     -1.489188    2.010728   -1.179489
H     -1.157832    2.291777    0.971796
C     -1.813239    0.304387    0.277162
H     -2.660612   -0.097012   -0.204047
H      0.275300    1.403724   -0.397458
6

C     -0.858753    1.590237    0.003935
H     -0.759892    1.175820   -0.983538
H     -0.883189    2.324539    0.942389
C     -1.811903    0.357345    0.202419
H     -2.651546   -0.235370   -0.155480
H      0.066971    1.399524   -0.125691
6

C     -1.592379    0.148128    0.249128
H     -2.690431    0.320079   -0.241611
H     -0.667399   -0.117123   -0.278543
C     -0.795754    1.240098    0.158823
H      0.055997    1.631967   -0.324446
H     -1.338105    0.112201    1.394877
6

C     -0.783242    1.393380    0.222615
H      0.521010    1.421976   -0.286605
H     -1.565520    2.010347    0.782530
C     -1.601002    0.406140   -0.099400
H     -2.709666    0.204433    0.248432
H      0.500975    1.073057    0.966448
6

C     -0.968676    1.444532    0.224289
H     -0.986396    2.378170    0.843051
H     -1.882458    2.421834   -0.880115
C     -1.637855    0.326088   -0.063077
H      0.153539    1.395316   -0.153072
H     -2.699031   -0.107829    0.016383
6

C     -0.615303    1.219182    0.336864
H     -1.400696    2.088545    0.713012
H     -2.708583    0.238907    0.095525
C     -1.646463    0.299423    0.008146
H      0.232626    1.590219   -0.285975
H      0.234508    1.028552    1.084386
6

C     -1.128518    1.434016    0.331476
H     -0.717064    2.477051    0.825467
H     -2.629788   -0.216111   -0.148545
C     -1.726049    0.294905    0.035535
H     -1.256999    1.988750   -1.077861
H      0.063000    1.446414   -0.176361
6

C     -0.859207    1.215147    0.317506
H     -0.024013    1.523258   -0.217604
H     -2.403941    0.693663    0.159822
C     -1.447336   -0.033938   -0.063318
H     -1.064780   -2.068018    0.039331
H     -1.403922    2.038145    0.671167
6

C     -1.653086    0.214195    0.180802
H     -1.194780    0.294704    1.214828
H     -2.744695    0.095089   -0.252075
C     -0.885954    1.332360    0.325153
H      0.105485    1.397647   -0.311429
H     -1.157420    2.333233    0.893033
6

C     -1.824642    0.378127   -0.284091
H     -1.216064    0.171003    0.684368
H     -2.554841    0.077290    0.637868
C     -0.793272    1.492999    0.066562
H      0.268565    1.221226    0.341340
H     -1.410196    2.326583    0.604265
6

C     -1.876807    0.658329   -0.239769
H     -1.580941   -1.213455    0.336250
H     -2.548695   -0.086580    0.248201
C     -0.685885    1.258913    0.337465
H     -1.316363    2.163343    0.676591
H      0.289329    1.442271   -0.154915
6

C     -1.039849    1.631025    0.195584
H     -0.864682    2.443595    0.896321
H     -0.076386    1.059309   -0.128063
C     -2.146296    0.710346    0.163997
H     -1.335207    0.191419    1.074950
H     -2.068031   -0.368467   -0.152477
6

C     -1.077540    1.458399    0.215873
H     -1.148921    2.372004    0.774485
H     -0.039904    1.125129   -0.096371
C     -2.042543    0.502547    0.511796
H     -0.820811    0.120393    1.101199
H     -2.400731    0.088755   -0.456671
6

C     -0.931641    1.335967    0.249644
H     -1.169578    2.293934    0.933142
H      0.065160    1.384827   -0.381193
C     -1.529453    0.239590    0.251392
H     -0.748874    0.252413    1.601626
H     -2.572909    0.181958   -0.185412
6

C     -0.761666    1.396376    0.520139
H     -1.037639    2.295715    0.589804
H      0.095431    1.509297   -0.186171
C     -1.710470    0.396028   -0.113680
H     -1.298845    0.141163    1.267623
H     -2.817261   -0.071352   -0.027403
6

C     -0.653828    1.318227    0.461575
H     -0.961446    2.540317    0.897936
H      0.025100    1.476422   -0.392158
C     -1.817429    0.339961    0.177425
H      0.172963    0.599458    1.657596
H     -2.730816   -0.238651   -0.277206
6

C     -1.116344    1.333958    0.126799
H     -1.048479    2.333269    0.745144
H      0.045464    1.564813   -0.274813
C     -1.384063    0.100856    0.131696
H     -1.576955   -0.097728    1.331895
H     -2.450074    0.432061   -0.010410
6

C     -1.407515   -0.010154    0.230037
H     -2.508379    0.558207   -0.068921
H     -1.362510    0.303907    1.190347
C     -0.964055    1.293211    0.046541
H      0.040803    1.458493   -0.276939
H     -1.328795    2.063563    0.929246
6

C     -1.517791    0.040409    0.105897
H     -2.584299    0.328542   -0.096408
H     -1.332305    0.519610    1.245338
C     -0.989902    1.382985    0.066563
H      0.003622    1.509259   -0.180968
H     -1.109775    1.886424    0.909888
6

C     -1.770713    0.122962    0.103723
H     -2.700987    0.164492   -0.169850
H     -1.203016    0.350862    1.305176
C     -0.889465    1.299605    0.104330
H      0.191198    1.545617   -0.197509
H     -1.157468    2.183689    0.904441
6

C     -0.887686    1.375569    0.140977
H      0.455898    1.499105   -0.143844
H     -1.393240    2.162738    0.789877
C     -1.703778    0.155244   -0.219521
H     -2.609614    0.243619    0.300084
H     -0.107168   -0.610975   -1.579621
6

C     -0.752795    1.350953    0.191461
H      0.130414    1.510373   -0.069845
H     -1.177391    2.272775    0.751361
C     -1.652621    0.179673   -0.200149
H     -2.686027    0.122502    0.194744
H      0.072328   -0.632498   -1.696007
6

C     -1.552297    0.084722   -0.254482
H     -0.280644   -1.251199   -1.912081
H     -2.583536    0.361002    0.257176
C     -0.866218    1.152638    0.225745
H     -1.198756    2.244153    0.677317
H      0.062386    1.593761   -0.038183
6

C     -0.807553    1.382379    0.316526
H      0.042259    1.437274   -0.162795
H     -1.171932    2.268242    0.745581
C     -1.578693    0.167440   -0.144493
H     -0.076303   -1.411725   -1.305881
H     -2.622501    0.180941    0.112754
6

C     -0.835906    1.354671    0.089242
H      0.174764    1.498378   -0.038759
H     -1.251754    2.113489    0.731755
C     -1.657495    0.244903   -0.158770
H     -2.568029    0.224834    0.244104
H     -0.339500   -0.586609   -2.544134
6

C     -0.916200    1.365469    0.118857
H      0.133905    1.470699   -0.070119
H     -1.141524    2.296983    0.808940
C     -1.598779    0.116550   -0.156847
H     -2.615822    0.186575    0.166740
H      0.213463   -1.117784   -1.181267
6

C     -0.986553    1.364585    0.131158
H      0.221476    1.465331   -0.085501
H     -1.092136    2.366832    0.838583
C     -1.653016    0.155556   -0.170121
H     -2.628192    0.083972    0.153453
H      0.200255   -1.320183   -1.312242
6

C     -0.895277    1.449668    0.217278
H     -1.202043    2.230404    0.778045
H      0.297735    1.440903   -0.138160
C     -1.612093    0.252616   -0.175692
H     -0.042402    0.076941   -2.019343
H     -2.726741    0.062684    0.186101
6

C     -0.849172    1.371431    0.172504
H     -1.185686    2.334953    0.807852
H      0.142174    1.414328   -0.084431
C     -1.602041    0.201112   -0.231080
H     -1.493582   -1.363780   -2.281256
H     -2.643695    0.114451    0.202727
6

C     -0.874693    1.287303    0.244117
H     -1.234113    2.057773    0.798913
H      0.156249    1.591650   -0.348429
C     -1.622659    0.160276    0.303979
H     -0.079124    0.045476    1.024185
H     -2.563204    0.339273   -0.131008
6

C     -1.629495    0.102619   -0.202846
H     -2.541040    0.274768    0.198425
H      0.068343   -0.682260   -1.280605
C     -0.862825    1.331627    0.248078
H      0.147704    1.463408   -0.139865
H     -1.252764    2.263853    0.763780
6

C     -1.602446    0.250421   -0.143806
H     -2.629624    0.343396    0.286288
H      0.614632   -1.133039   -1.613311
C     -0.766405    1.313958    0.164653
H      0.314971    1.532094   -0.140804
H     -1.454916    1.996406    0.701241
6

C     -0.744797    1.091745    0.248711
H     -1.817739   -1.098724    0.196457
H      0.003949    1.739595   -0.377752
C     -1.691885    0.017792    0.123073
H     -1.414951    0.185023    1.440267
H     -2.512989    0.418318   -0.197529
6

C     -1.045141    1.452703    0.069676
H     -0.659597   -0.539933    0.378071
H     -0.980389    2.111299    0.938887
C     -1.571849    0.177532    0.159398
H     -1.429597    0.393445    1.143781
H     -2.643021    0.051455   -0.070700
6

C     -0.856336    1.412387    0.245232
H      0.096263    1.319259   -0.209401
H     -1.200155    2.338077    0.858191
C     -1.584397    0.284567   -0.099480
H     -2.593795    0.081986    0.073031
H      0.571216    0.383571   -2.204551
6

C     -0.936534    1.361952    0.205012
H     -1.184033    2.225754    0.751945
H      0.123370    1.422093   -0.095269
C     -1.482752    0.232502   -0.188066
H      0.587460   -0.437108   -1.744588
H     -2.658471    0.193976    0.193951
6

C     -1.628806    0.243855    0.396633
H     -2.594133    0.351691   -0.085099
H     -1.743441   -0.219977    1.314741
C     -0.218245    1.402504    0.378202
H     -1.360427    2.111866    0.604936
H      0.014602    1.777289   -0.559101
6

C     -1.677844    0.262403    0.450106
H     -2.603968    0.292046   -0.123216
H     -1.779919   -0.182799    1.319800
C     -0.210291    1.351937    0.353057
H     -1.261135    2.062739    0.599432
H      0.002707    1.880903   -0.548868
6

C     -0.568099    1.410783    0.304420
H     -1.350981    2.088794    0.757477
H      0.049158    0.878319    1.164394
C     -1.776931    0.304655    0.060836
H      0.501011    1.646540   -0.314172
H     -2.943420   -0.014496    0.059011
6

C     -0.898324    1.580715    0.083208
H      0.106688    1.209526   -0.244956
H     -1.644731    2.506215   -0.850119
C     -1.671105    0.551383    0.175175
H     -1.129083    2.219742    0.951689
H     -2.546596   -0.125090   -0.097543
6

C     -0.852609    1.414323    0.202021
H      0.244777    1.444147   -0.082520
H     -1.219156    2.340961    0.792640
C     -1.557223    0.102642   -0.310252
H     -2.754209    0.134203    0.265683
H     -0.340769   -0.822020   -1.833239
6

C     -0.746444    1.270130    0.228345
H     -1.249154    2.266070    0.777552
H      0.145322    1.559629   -0.166853
C     -1.689596    0.084354   -0.099767
H     -1.328394   -2.270926   -0.687278
H     -2.598548    0.256094    0.128296
6

C     -1.573115    0.074343    0.073499
H     -1.542384    0.127689    1.669908
H     -2.602589    0.434850    0.063110
C     -0.782689    1.231778    0.229041
H     -1.393290    2.115040    0.791899
H      0.213263    1.580265   -0.289977
6

C     -1.943072    0.479103    0.081819
H     -2.764025   -0.305452   -0.043793
H     -1.288898    0.171687    1.080737
C     -0.809930    1.314799    0.221455
H      0.149789    1.554179   -0.014844
H     -0.874313    2.452913    0.724937
6

C     -1.636517    0.154993   -0.189686
H     -2.673722    0.055698    0.164842
H     -0.379977   -1.568098   -1.513107
C     -0.915643    1.438638    0.128756
H      0.188935    1.434309   -0.070066
H     -1.101473    2.352638    0.833726
6

C     -0.793939    1.403574   -0.084517
H     -1.117813    2.158620    0.772412
H      0.160516    1.492536    0.089336
C     -1.690950    0.398128   -0.153602
H     -2.696234   -0.016582    0.243944
H     -1.011432    1.808782   -1.643648
6

C     -0.545778    1.305694    0.360563
H      0.033501    0.799859    1.391465
H      0.463268    1.578641   -0.424096
C     -1.814955    0.228006    0.057677
H     -2.949584   -0.140308   -0.064827
H     -1.291370    2.464243    0.938256
6

C     -0.673615    1.094756    0.321949
H     -1.224096    2.212784    0.742204
H      0.187101    1.672917   -0.273874
C     -1.673718    0.332861    0.089855
H      0.040355    0.303527    0.702807
H     -2.754092    0.122958   -0.012562
6

C     -1.415898    0.047763    0.014420
H     -1.660714    0.048544    1.148539
H     -2.795976    0.313133    0.229839
C     -0.671926    1.250739    0.202972
H     -1.206992    2.218736    0.687825
H      0.221057    1.788313   -0.233284
6

C     -1.953500    0.472861    0.325675
H     -2.699329   -0.022191   -0.265708
H     -1.018136    0.156495    1.141451
C     -0.917552    1.272150    0.201310
H      0.056716    1.508115   -0.009575
H     -0.998650    2.279798    0.657157
6

C     -1.361829    0.006555    0.284964
H     -1.711129    0.012905    1.298332
H     -2.420168    0.666531    0.026853
C     -0.797166    1.263168    0.119568
H     -1.266401    1.952395    0.716956
H      0.026244    1.765674   -0.396362
6

C     -0.524740    1.125085    0.434708
H     -1.523757    2.037234    0.579510
H      0.145349    1.635238   -0.379139
C     -1.753404    0.385492    0.300593
H     -1.222255    0.054949    1.262671
H     -2.651644    0.429229   -0.148032
6

C     -0.541087    1.263435    0.511542
H     -0.730945    1.575193   -0.456388
H     -0.698324    2.169426    0.988826
C     -1.423785   -0.096256    0.294503
H     -2.389585    0.115748   -0.320592
H     -1.746725    0.639681    1.032420
6

C     -0.840695    1.399773    0.383744
H     -1.178171    2.372982    0.878187
H      0.055545    1.267642   -0.307661
C     -1.637505    0.358735    0.027216
H     -2.587646    0.000089   -0.072041
H     -1.341978    0.268008    1.140867
6

C     -0.827490    1.560093   -0.064162
H     -1.206314    2.356463    1.036055
H      0.227666    1.198961   -0.157739
C     -1.740923    0.502446    0.006888
H     -0.318637    2.549478   -1.014403
H     -2.591359   -0.181686    0.046531
6

C     -0.777724    1.383236    0.063411
H      0.333451    1.607768   -0.063979
H     -1.222588    2.237411    0.736156
C     -1.640611    0.186100   -0.125610
H     -1.513809    0.114055    1.127406
H     -2.709170    0.138658    0.312927
6

C     -0.929654    1.632233    0.248519
H     -0.795551    2.496859    0.899650
H      0.001410    1.225381   -0.207621
C     -2.277203    0.586819    0.326288
H     -1.399409    0.157047    1.017912
H     -2.130042   -0.431111   -0.234436
6

C     -0.849254    1.471393    0.303299
H     -0.421303    1.168070    1.754402
H      0.148124    1.522749   -0.289796
C     -1.850965    0.276341    0.219654
H     -2.680433   -0.176058   -0.221504
H     -0.905893    2.341850    0.855920
6

C     -0.739736    1.447610    0.095759
H     -0.321052    0.634590    0.711591
H      0.332028    1.467313   -0.278441
C     -1.728762    0.386931    0.185727
H     -2.685583    0.051397   -0.011657
H     -1.316366    2.083024    0.876185
6

C     -0.922825    1.391324    0.547299
H     -1.082281    2.374149    0.781713
H     -0.105337    1.295046    1.321624
C     -1.677550    0.504605   -0.066094
H      0.136771    1.304040   -0.348280
H     -2.592535   -0.137841   -0.047065
6

C     -0.437439    1.151396    0.373253
H      0.388576    0.943609    1.117080
H      0.121548    1.745926   -0.209885
C     -1.701382    0.220383   -0.017286
H     -1.185030    2.275366    0.692512
H     -2.936118    0.043204    0.028979
6

C     -0.822038    1.388476    0.386192
H     -0.832712    2.377800    0.727526
H      0.042986    1.547185   -0.155231
C     -1.817187    0.342346   -0.010323
H      0.078682    0.871827    1.504923
H     -2.709469   -0.219531   -0.080592
6

C     -0.783101    1.190615    0.477454
H      0.044806    1.087712    1.160822
H     -0.997953    2.408921    0.744257
C     -1.862467    0.400312   -0.008134
H      0.276996    1.639773   -0.285864
H     -2.771896   -0.203345   -0.060140
6

C     -0.580746    1.191853    0.488959
H     -1.365532    2.238930    0.782048
H      0.248338    1.537256   -0.439939
C     -1.747377    0.396293    0.087717
H     -0.089502    0.693339    1.359779
H     -2.693103    0.071945   -0.051212
6

C     -1.708099    0.336474    0.137337
H     -2.885500    0.003081   -0.119947
H     -1.166291    2.179813    0.655687
C     -0.536026    1.222127    0.579025
H      0.157495    1.694781   -0.384530
H     -0.262955    1.286991    1.607226
6

C     -1.813509    0.303704    0.267542
H     -2.709707   -0.218961   -0.200496
H      0.230711    1.432558   -0.236879
C     -0.904240    1.588094    0.056258
H     -0.941675    2.330881    0.981146
H     -1.666909    1.723022   -1.159884
6

C     -1.382947    0.155944    0.138035
H     -2.623853    0.429663   -0.071055
H     -1.456111    0.048328    1.347838
C     -0.895112    1.298109    0.217129
H     -1.297385    2.223536    0.808719
H      0.124957    1.511649   -0.390355
6

C     -1.507319    0.006228    0.022252
H     -2.816850    0.362186    0.000518
H     -1.448063    0.257647    1.318403
C     -0.669106    1.271512    0.285530
H     -1.306559    2.055842    0.776588
H      0.217447    1.713813   -0.352980
6

C     -1.638928    0.046953    0.008177
H     -2.757549    0.261175    0.100594
H     -1.497242    0.156851    1.270082
C     -0.788679    1.269647    0.158835
H     -1.301898    2.208190    0.829001
H      0.453846    1.724412   -0.316378
6

C     -0.936202    1.510771    0.192170
H      0.228421    1.536934   -0.367770
H     -1.198805    2.357673    0.803959
C     -1.333671   -0.035339    0.132681
H     -1.572622   -0.079821    1.274653
H     -2.717572    0.377009    0.014619
6

C     -0.941408    1.390841    0.080769
H      0.114972    1.584291   -0.075176
H     -0.981333    2.283798    0.817630
C     -1.622876    0.049829    0.022795
H     -0.354330    0.016278    1.547124
H     -2.707774    0.127517    0.021555
6

C     -0.843840    1.331007    0.225118
H      0.191144    1.608456   -0.180746
H     -1.123855    2.240251    0.776621
C     -1.559814    0.078636    0.008186
H     -0.333218   -0.139207    1.677215
H     -2.802056    0.177925    0.038395
6

C     -0.766516    1.399200    0.133457
H      0.269088    1.485324   -0.105232
H     -1.321621    2.103853    0.749014
C     -1.562702    0.278952   -0.145148
H      0.338591    0.531249    1.285598
H     -2.756669    0.168946    0.235482
6

C     -1.404231   -0.040933    0.177486
H     -2.456150    0.565271    0.024089
H     -1.737727   -0.164634    1.388944
C     -0.851793    1.385429    0.187567
H      0.104844    1.730538   -0.427612
H     -1.185394    2.191558    0.699837
6

C     -1.418191    0.067723    0.036008
H     -2.583475    0.265204    0.315721
H     -1.980214   -0.177933    1.235481
C     -0.726337    1.486446    0.085588
H      0.262244    1.816078   -0.307676
H     -1.084477    2.209710    0.685189
6

C     -0.821746    1.244201    0.169306
H     -1.354696    2.122412    0.825228
H     -0.021232    1.516401   -0.371027
C     -1.451782    0.077258    0.137219
H     -2.376238    0.583497   -0.020620
H     -1.504756    0.123458    1.310205
6

C     -0.808288    1.545231    0.075468
H      0.309388    1.439922   -0.093491
H     -1.220688    2.106177    0.791235
C     -1.733073    0.341578   -0.077698
H     -2.685759    0.003367    0.172058
H     -0.450747    2.211195   -1.581845
6

C     -0.805140    1.326369    0.320284
H     -1.198065    2.196870    0.732460
H      0.211896    1.526430   -0.212343
C     -1.631217    0.284824   -0.057983
H     -2.715894    0.101783    0.085154
H     -0.515789    0.660534    2.046230
6

C     -1.777040    0.364424    0.223601
H     -0.397866    0.329311    0.726124
H     -2.830909   -0.068349   -0.140627
C     -0.612419    1.325478    0.337292
H      0.269903    1.606037   -0.366592
H     -1.187954    2.208685    0.813898
6

C     -0.538698    1.146861    0.073146
H     -1.419827    0.205052    1.272667
H      0.176720    1.849267   -0.205067
C     -1.791011    0.054745    0.150970
H     -2.787856    0.196548   -0.054945
H     -1.392541   -0.555120   -0.548900
6

C     -1.778440    0.396069    0.187318
H     -1.071885    2.295059    0.770121
H     -2.780975   -0.167320   -0.227820
C     -0.709216    1.402320    0.606791
H     -0.183833    0.953858    1.667694
H      0.202096    1.510147   -0.468838
6

C     -1.791955    0.355585    0.073074
H      0.272821    1.272624    1.364199
H     -2.621482   -0.018420   -0.132079
C     -0.599465    1.140864    0.490085
H     -0.036669    1.562386   -0.324856
H     -1.088849    2.395861    0.761349
6

C     -0.799912    1.469345    0.087527
H     -1.976772    1.946462   -0.410221
H      0.247193    1.529381   -0.230444
C     -1.776785    0.249700    0.214603
H     -0.979502    2.377917    0.957912
H     -2.829414   -0.190066   -0.162026
6

C     -1.512962    0.089052    0.129632
H     -0.405368   -0.736138   -0.101246
H     -2.637465    0.225123   -0.077574
C     -1.155546    1.427109    0.186751
H     -1.367876    0.076799    1.215288
H     -0.996147    2.368353    0.786943
6

C     -0.893621    1.218303    0.259577
H     -0.970994    1.836509    1.895158
H     -1.260322    2.173266    0.755706
C     -1.551100    0.095541    0.000115
H      0.102231    1.547340   -0.221883
H     -2.535607    0.401827    0.074058
6

C     -0.829870    1.685196    0.251370
H    -24.568291   -0.729487   -4.326383
H    -24.973474   -1.197173   -4.040838
C     -1.487949    0.299538   -0.116386
H      0.093677    1.237707   -0.173373
H     -2.744499   -0.000920    0.092422
6

C     -0.825928    1.658900    0.237344
H     47.191364   16.231006  -48.770295
H     46.693801   15.854192  -48.494022
C     -1.507176    0.269816   -0.104953
H      0.058523    1.251178   -0.165698
H     -2.694061    0.041627    0.087340
6

C     -1.132451    1.414873    0.564248
H     -1.006402    2.444655    0.544186
H     -1.398505   -0.802484   -0.587634
C     -1.542985    0.120746   -0.035571
H     -1.451968   -0.021526    1.030032
H     -2.536191    0.227687    0.138146
6

C     -1.727992    0.349758    0.167466
H     -2.789008   -0.022759   -0.160312
H      0.051908    1.658070    1.537552
C     -0.629072    1.274814    0.541290
H      0.206297    1.570186   -0.450587
H     -1.198645    2.264276    0.769715
6

C     -1.711091    0.429656    0.188932
H     -2.537290   -0.103785   -0.190918
H      0.133352    1.218359   -0.415110
C     -0.875394    1.559800    0.325748
H     -0.958299    2.348425   -0.693614
H     -1.147998    2.332246    0.958922
6

C     -1.804867    0.300413    0.140918
H     -2.719778    0.114054   -0.047105
H     -1.307511    2.117014    0.719871
C     -0.619679    1.241876    0.442832
H     -0.125367    1.540918    1.372720
H      0.313415    1.662919   -0.388943
6

C     -1.004990    1.480538    0.384228
H     -1.482794   -0.561122   -0.772383
H     -1.122512    2.471117    0.577631
C     -1.438745    0.079413    0.152220
H     -1.279124   -0.166892    1.183185
H     -2.824626    0.322258   -0.056223
6

C     -1.835255    0.345551    0.055996
H     -0.729927    2.014755   -1.337207
H     -2.805446   -0.183735    0.018076
C     -0.929718    1.454926    0.127118
H     -1.005984    2.220579    0.813047
H      0.437983    1.598956   -0.146665
6

C     -1.780807    0.216011    0.041931
H     -0.849204    1.613029    2.002253
H     -2.707362   -0.186057   -0.145131
C     -0.957005    1.342926    0.344008
H      0.081457    1.561982   -0.190763
H     -0.774703    2.501415    0.817527
6

C     -1.040977    1.519692   -0.041208
H     -1.028279    2.158042    0.935281
H     -4.706881    0.427058    0.791460
C     -1.383140    0.102769    0.112914
H     -1.557265    0.231737    1.198034
H     -4.564267    0.251472    1.419144
6

C     -1.033830    1.596061   -0.029362
H     -1.027837    2.087214    0.855348
H      4.256233    1.184249    5.957305
C     -1.386622    0.183191    0.067672
H     -1.561372    0.145774    1.311362
H      4.497383    0.870797    6.489613
6

C     -0.891255    1.598088    0.212783
H      0.170534    1.336898   -0.164461
H     21.932924   80.433041  -50.066660
C     -1.544277    0.210822   -0.099604
H     -2.703645    0.075713    0.105314
H     22.694393   80.792723  -50.448157
6

C     -1.644890    0.195104   -0.188906
H     -2.650848    0.158615    0.208928
H      0.456529   -0.821191   -1.525128
C     -0.869765    1.280702    0.158797
H      0.251636    1.512610   -0.105133
H     -1.224553    2.289244    0.793886
6

C     -1.509135    0.169992   -0.033637
H     -1.588469    0.144607    1.026180
H     -2.620707    0.445795    0.413847
C     -0.641682    1.316840    0.211094
H     -1.526262    1.944962    0.639529
H      0.355805    1.645032   -0.206703
6

C     -0.871622    1.399655    0.379645
H      0.096394    1.695601   -0.333247
H     -0.850442    2.210748    0.872433
C     -1.688762   -0.075692    0.118800
H     -2.743138    0.018026   -0.191055
H     -1.472880    0.418890    1.203735
6

C     -1.537651    0.347672    0.301195
H     -2.503583   -0.012501   -0.400599
H     -1.218824    0.082815    1.279989
C     -1.325816    1.673040    0.187258
H     -0.268336    1.177134   -0.122303
H     -0.676241    2.399068    0.804770
6

C     -1.514513    0.237090   -0.256447
H     -0.448541    0.153847   -2.292831
H     -2.672027    0.318450    0.330777
C     -0.833388    1.353656    0.237146
H     -1.430442    2.061666    0.691119
H      0.311951    1.465414   -0.135023
6

C     -1.490109    0.193427   -0.245248
H     -0.705410    0.392115   -2.440494
H     -2.676379    0.316126    0.293590
C     -0.764943    1.297511    0.184549
H     -1.362626    2.154425    0.721683
H      0.155637    1.474787   -0.087001
6

C     -1.580476    0.199859    0.141190
H     -3.019573    1.375699   -0.547825
H     -1.503080   -0.206330    1.148150
C     -0.926158    1.442151    0.398928
H     -0.985280    2.445774    0.526295
H      0.124879    1.611579   -0.200273
6

C     -1.437783    0.004375    0.056825
H     -2.206968    0.652325   -0.021418
H     -1.586033   -0.003116    1.402746
C     -0.828482    1.451051    0.293702
H     -1.432064    2.207015    0.842910
H     -0.039120    1.355578   -0.524455
6

C     -1.790007    0.503590    0.113672
H     -2.550929   -0.191449   -0.071915
H     -1.005219    1.892266   -1.146285
C     -0.862884    1.574519    0.095895
H      0.101478    1.291188   -0.176506
H     -1.036077    2.258427    0.906427
6

C     -0.641324    1.253123    0.060414
H      0.257334    1.875652   -0.321759
H     -1.518844    0.053856    1.327497
C     -1.584222   -0.030151    0.271221
H     -0.781085   -0.792202   -0.266394
H     -2.873615    0.299994   -0.100601
6

C     -1.120665    1.544717    0.199554
H     -0.810487    2.448690    0.885972
H     -0.543752   -0.485948    0.101655
C     -1.569678    0.030555    0.049334
H     -2.693165   -0.030120   -0.063989
H     -1.476001    0.192592    1.170171
6

C     -1.060540    1.643396    0.144805
H     -0.824506    2.451276    0.769248
H     -1.478162   -0.074600    1.380392
C     -1.629271    0.215893    0.050800
H     -0.457653   -0.499112    0.237874
H     -2.677517   -0.049530   -0.104205
6

C     -0.862262    1.346650    0.105347
H      0.201140    1.477223   -0.093384
H     -1.331596    2.165037    0.779717
C     -1.568963    0.095651   -0.177599
H     -2.576740    0.351715    0.253492
H     -0.220831   -1.514870   -1.268386
6

C     -0.860323    1.442959    0.127192
H      0.202019    1.430064   -0.089150
H     -1.266713    2.137231    0.764899
C     -1.624396    0.221204   -0.156967
H     -2.589007    0.204819    0.221599
H     -0.153367   -1.545670   -1.474428
6

C     -0.891246    1.329425    0.107533
H      0.194222    1.504295   -0.056215
H     -1.111997    2.336954    0.815250
C     -1.604006    0.190128   -0.170701
H     -2.725393    0.075474    0.171706
H      0.805137   -0.627434   -0.912871
6

C     -0.810728    1.383337    0.056074
H     -1.260269    2.150411    0.763974
H      0.230500    1.567794   -0.043690
C     -1.585245    0.047744   -0.150720
H     -0.016274   -1.332121   -0.884168
H     -2.712679    0.286991    0.241934
6

C     -0.854129    1.369771    0.050017
H     -1.234073    2.137415    0.750460
H      0.230713    1.534281   -0.021458
C     -1.687538    0.174399   -0.165635
H      0.020726   -1.525837   -1.094397
H     -2.593392    0.220410    0.254188
6

C     -0.785685    1.402418    0.149748
H      0.237668    1.565736   -0.109844
H     -1.108122    2.297126    0.807601
C     -1.694135    0.140834   -0.082132
H     -2.788146    0.030162    0.102199
H      0.379004   -0.935880   -0.645175
6

C     -0.877546    1.311411    0.109652
H     -1.230815    2.201229    0.765197
H      0.136468    1.555205   -0.070260
C     -1.587617   -0.002856   -0.140539
H     -1.775523   -2.161767   -0.494268
H     -2.578910    0.371288    0.203523
6

C     -0.896263    1.432602    0.052057
H     -1.177011    2.144310    0.756634
H      0.251039    1.533214   -0.021556
C     -1.654843    0.149778   -0.146712
H     -2.084278   -2.206211   -0.456484
H     -2.661341    0.176373    0.227149
6

C     -0.876278    1.296830    0.192645
H     -1.163821    2.248997    0.678786
H      0.229783    1.594097    0.010215
C     -1.597233    0.094903   -0.337728
H     -0.109091   -0.201586   -1.730161
H     -2.730871    0.201448    0.323654
6

C     -0.998538    1.335045    0.283230
H     -1.065186    2.294686    0.795286
H     -0.056385    1.324903   -0.131029
C     -1.907743    0.310921    0.247518
H     -2.527323    0.106186   -0.351429
H     -0.975275    0.295487    1.206735
6

C     -1.561454    0.083713    0.037874
H     -0.690671   -0.688775   -0.002362
H     -2.679107   -0.092874   -0.040729
C     -1.065138    1.562609    0.056736
H     -0.819994    2.288607    0.994763
H     -1.544304    0.344380    1.192398
6

C     -0.687069    1.303549    0.150268
H     -1.156267    2.341667    0.770937
H     -0.090798    1.642315   -0.400727
C     -1.296538    0.104486    0.096817
H     -2.410710    0.434349    0.131128
H     -1.889067   -0.159138    1.301889
6

C     -1.303498    0.336619    0.442988
H     -2.448144    0.541890    0.068605
H     -1.885417   -0.053243    1.141872
C     -0.334792    1.238904    0.290322
H     -1.563998    1.949927    0.745477
H      0.005399    1.653132   -0.638953
6

C     -0.844640    1.309562    0.399227
H     -1.084831    2.305795    0.801424
H      0.139949    1.489409   -0.309767
C     -1.630921    0.324535    0.187204
H     -2.959112   -0.017972   -0.319303
H     -1.150895    0.255899    1.291527
6

C     -1.696447    0.506242    0.238039
H     -1.248693    0.156752    1.215748
H     -2.435489   -0.180731   -0.278922
C     -1.232646    1.741451    0.061621
H     -0.187716    1.111317   -0.045339
H     -0.729460    2.332196    0.859166
6

C     -1.698012    0.149936    0.003166
H     -2.877134    0.180212    0.111344
H     -1.324569    0.353031    1.123867
C     -0.666918    1.251528    0.258208
H     -1.240178    1.993472    0.673872
H      0.276361    1.739048   -0.120147
6

C     -1.692401    0.127443   -0.033313
H     -2.738454    0.039428    0.108486
H     -1.410796    0.241046    1.185613
C     -1.044438    1.403782    0.027161
H     -1.047998    2.260701    0.860382
H      0.403637    1.594827   -0.098018
6

C     -0.930898    1.595481    0.308645
H     -0.240935    1.005796   -0.135296
H     -0.906782    2.465532    0.924628
C     -2.047584    0.573050    0.280570
H     -2.332721   -0.302927   -0.380640
H     -1.071530    0.330296    1.052403
6

C     -2.116080    0.488851    0.430709
H     -2.358126   -0.213354   -0.300831
H     -1.161040    0.172826    0.973755
C     -0.998670    1.494704    0.231078
H      0.079649    1.222663   -0.175691
H     -0.976184    2.501538    0.891291
6

C     -1.448461    0.193273   -0.024816
H     -1.387537    0.243824    1.208705
H     -2.865573    0.147395    0.062706
C     -0.735802    1.436281    0.174180
H     -1.218325    2.171190    0.806347
H      0.125248    1.475264   -0.176810
6

C     -1.611000    0.361748   -0.169898
H     -2.598792    0.096315    0.150293
H     -1.925548    1.765712   -1.042409
C     -0.872049    1.308760    0.315246
H     -1.145467    2.223203    0.698981
H      0.088888    1.446250   -0.127049
6

C     -1.093727    1.394660    0.243232
H     -0.064371    1.388107   -0.263367
H     -0.989804    2.144050    0.935001
C     -1.527777    0.086121    0.151445
H     -2.473522    0.203162   -0.154983
H     -1.381250    0.451127    1.138983
6

C     -0.810573    1.367775    0.131597
H      0.172292    1.717990   -0.431205
H     -1.167869    2.191307    0.743936
C     -1.356288    0.156983    0.127029
H     -2.447891    0.384865    0.173685
H     -1.920121   -0.151693    1.305270
6

C     -1.062879    1.332306    0.620172
H     -1.093025    2.324886    0.520658
H     -1.249941    0.090464    1.056324
C     -1.543605    0.215211    0.034878
H     -2.720547    0.223568    0.009010
H     -0.810098   -0.087737   -0.886537
6

C     -1.063476    1.489934    0.199291
H     -0.972523    2.439031    0.685056
H     -0.746148    0.385664   -0.489732
C     -1.557163    0.286586    0.134155
H     -1.495547   -0.144877    1.223758
H     -2.581288    0.115761   -0.001218
6

C     -1.800357    0.243253    0.210297
H     -2.665938   -0.117750   -0.257800
H     -1.464830    1.970409   -0.707050
C     -0.792250    1.336571    0.389426
H     -0.948328    2.457328    0.884682
H      0.068452    1.516874   -0.359033
6

C     -1.958338    0.503637   -0.004940
H     -2.739492   -0.302512   -0.080581
H     -0.637135    0.756770    2.061264
C     -0.708707    1.273630    0.560869
H      0.200464    1.632837   -0.265587
H     -0.932347    2.328685    0.657811
6

C     -1.336103    0.076982    0.198483
H     -2.486464    0.632110   -0.166682
H     -1.276936    0.088666    1.309796
C     -0.937095    1.362654    0.268113
H     -1.372780    2.190187    0.789569
H     -0.121073    1.316629   -0.348968
6

C     -1.579334    0.008373    0.149139
H     -1.477384    0.179163    1.250163
H     -2.365769    0.556943   -0.036635
C     -0.810272    1.103012    0.214436
H      0.014641    1.618205   -0.360627
H     -1.312333    2.201532    0.833836
6

C     -1.369324   -0.039768    0.146433
H     -1.813409    0.019431    1.387367
H     -2.446538    0.573122    0.043439
C     -0.688160    1.384797    0.233013
H      0.000979    1.770214   -0.472851
H     -1.213998    1.959432    0.712910
6

C     -0.807167    1.512361    0.066254
H     -1.098011    2.276053    0.839507
H     -1.230814    2.494100   -0.773445
C     -1.854924    0.511115   -0.136522
H     -2.681054   -0.254118    0.153668
H      0.302736    1.390865   -0.055334
6

C     -0.679469    1.348231    0.389120
H     -0.268301    0.493748    1.405945
H     -1.069222    2.247385    0.814559
C     -1.707882    0.409817    0.277264
H     -2.607411   -0.020013   -0.249532
H     -0.074436    1.450856   -0.363838
6

C     -0.667027    1.252040    0.464593
H     -1.020066    2.369027   -0.383494
H      0.196006    1.586911   -0.193866
C     -1.861327    0.498119   -0.123815
H     -2.742004   -0.196157    0.060239
H     -1.064068    2.295364    0.660421
6

C     -1.057787    1.743213    0.229437
H     -0.239034    1.059028   -0.093074
H     -0.652034    2.294698    0.973539
C     -2.193447    0.572336    0.255593
H     -1.249357    0.487525    1.016334
H     -2.138792   -0.489572   -0.331518
6

C     -0.877697    1.260012    0.144765
H      0.156245    1.690079   -0.447465
H     -1.150310    2.418436    0.842999
C     -1.441335    0.011393    0.193152
H     -1.814658   -0.128865    1.251578
H     -2.402695    0.416173    0.065282
6

C     -0.715747    1.387472   -0.072233
H      0.321775    1.607520    0.341016
H     -1.559869    1.732103    0.424534
C     -1.785735    0.197485   -0.123389
H     -1.179309    0.209683    0.895409
H     -2.611564    0.532966    0.584974
6

C     -1.091650    1.547706    0.395383
H     -0.794878    2.439596    0.826339
H     -0.138280    1.194714   -0.156168
C     -2.071268    0.412941    0.433375
H     -2.298321   -0.206102   -0.382950
H     -1.136053    0.278374    0.934333
6

C     -0.886707    1.290037    0.409673
H     -0.023737    1.564124   -0.450264
H     -1.168114    2.238837    0.833236
C     -1.457770   -0.113955    0.219191
H     -1.377494    0.221789    1.288965
H     -2.616628    0.466396   -0.250489
6

C     -1.639300    0.155182   -0.119230
H      0.405454   -1.077586   -1.047235
H     -2.624623    0.274078    0.196911
C     -0.848931    1.286358    0.182441
H     -1.278250    2.153750    0.739767
H      0.252684    1.566907   -0.132315
6

C     -1.721528    0.121259   -0.202300
H     -2.727955   -0.027714    0.140633
H      0.138660   -0.538724   -1.298816
C     -0.871383    1.403652    0.172220
H      0.225838    1.503623   -0.077525
H     -1.043392    2.435455    0.834545
6

C     -1.691539    0.068073   -0.245903
H     -2.702639    0.036877    0.170096
H      0.033607   -0.492522   -1.280715
C     -0.839295    1.387211    0.173845
H      0.125523    1.514241   -0.029478
H     -1.030471    2.429874    0.799012
6

C     -1.605396    0.188832   -0.101056
H     -2.658767    0.198223    0.129667
H      0.096053   -1.950506   -0.437764
C     -0.817998    1.316601    0.253598
H     -1.190362    2.201052    0.728869
H      0.134102    1.531567   -0.143505
6

C     -1.491069    0.022379    0.298643
H     -2.612481    0.455968   -0.201470
H     -2.343208    0.378847    1.930456
C     -0.669465    1.241631    0.420165
H     -1.208341    2.106771    0.728968
H     -0.157063    1.609527   -0.378734
6

C     -1.472345    0.131577    0.014666
H     -1.778868    1.187290   -0.786660
H     -1.749405   -1.548286   -0.074866
C     -1.046678    1.415830    0.046032
H     -1.058502    2.287801    0.880671
H      0.099440    1.426874   -0.109817
6

C     -1.779974    0.491917    0.151725
H     -1.121890    2.131824    0.847086
H     -2.878955   -0.235389   -0.027110
C     -0.682883    1.550035    0.073887
H      0.325282    1.497889   -0.178016
H     -1.104288    1.961859   -0.833872
6

C     -0.766532    1.494543    0.087338
H     -0.968025   -0.390917   -0.491360
H     -2.552882    2.664673    0.598936
C     -1.573080    0.241214    0.103831
H     -1.489164    0.114737    1.176423
H     -2.671443    0.121185    0.059910
6

C     -1.534795    0.239996   -0.138466
H     -0.446121   -2.018949    0.553682
H     -2.586219    0.007746    0.009818
C     -0.945151    1.443347    0.323419
H     -1.072352    2.508884    0.902092
H      0.000097    1.236303   -0.229290
6

C     -1.595287    0.011928   -0.076882
H     -0.452499   -1.953867    0.120642
H     -2.567041    0.496008    0.237783
C     -0.816485    1.240233    0.054439
H     -1.419315    2.085024    0.777415
H      0.259709    1.603084   -0.125182
6

C     -1.591258    0.231355   -0.118077
H     -2.615019    0.190920    0.181148
H     -0.108839   -1.772351    0.959165
C     -0.889978    1.382239    0.112776
H      0.224057    1.427242   -0.127043
H     -1.266222    2.204519    0.818769
6

C     -0.884265    1.197793    0.374420
H     -1.361931    2.419989    0.800450
H      0.052592    1.492181   -0.518054
C     -1.491096    0.042461    0.157550
H     -2.330293    0.588196   -0.087012
H     -1.515457   -0.073392    1.322957
6

C     -0.783204    1.354772    0.039614
H     -1.240665    2.507673    0.885906
H      0.538447    1.671612   -0.291050
C     -1.486292    0.107922   -0.017487
H     -2.776571    0.095738    0.331963
H     -1.782164   -0.070490    1.101366
6

C     -1.040926    1.322621    0.261994
H     -1.401936    2.612008    1.186646
H      0.117182    1.476265   -0.338251
C     -1.607275    0.165930    0.265048
H     -2.647742    0.325580   -0.319902
H     -1.181912    0.162076    1.367881
6

C     -1.044177    1.684477    0.148120
H     -0.725530    2.370112    0.971333
H     -0.300842    1.009037   -0.068381
C     -2.139008    0.619878   -0.041688
H     -1.412658    0.375876    1.152605
H     -1.908235   -0.392153   -0.111678
6

C     -0.945666    1.413679    0.269093
H     -1.128048    2.370642    0.833017
H      0.093955    1.245902   -0.217746
C     -1.979469    0.542297    0.424756
H     -1.140098    0.167373    1.014743
H     -2.431124   -0.072665   -0.273550
6

C     -0.825540    1.636050    0.116484
H      0.240885    1.367291   -0.227632
H     -1.069883    2.184305    0.894567
C     -1.802777    0.452948    0.179920
H     -1.050905    1.756396   -0.973626
H     -2.681105   -0.204318   -0.095767
6

C     -0.635984    1.336762    0.460754
H     -1.178329    2.354049    0.829682
H      0.004333    1.367821   -0.374201
C     -1.605614    0.435931    0.075107
H     -0.134604    0.925878    1.678470
H     -2.722825   -0.058286   -0.123771
6

C     -1.690953    0.498690   -0.039657
H     -2.585404   -0.128537   -0.050554
H     -0.101136    1.401365    1.314346
C     -0.705575    1.387084    0.404001
H     -1.244395    2.467687    0.928166
H      0.087907    1.211352   -0.374383
6

C     -1.762331    0.428451   -0.191598
H     -2.612193    0.101872    0.336656
H     -0.995785    2.346557   -0.686750
C     -0.678951    1.433693   -0.021332
H      0.398430    1.402099   -0.075864
H     -1.483376    2.070161    0.819710
6

C     -1.861780    0.337798    0.182582
H     -2.873056   -0.166475   -0.123070
H     -1.002214    2.267987    0.774577
C     -0.688183    1.260322    0.280298
H      0.286813    1.736644   -0.246814
H     -0.117306    0.514373    1.073917
6

C     -1.981675    0.468598   -0.085280
H     -2.661717   -0.229930    0.139934
H     -0.858508    1.641022   -1.040072
C     -0.760097    1.430807    0.060541
H      0.432286    1.486645   -0.110762
H     -1.167217    2.280156    0.863139
6

C     -1.740924    0.376455    0.007440
H     -2.850641   -0.256289   -0.098568
H      0.193095    1.358916   -0.369638
C     -0.600690    1.533483    0.455897
H      0.529500    1.366629    1.179987
H     -1.139260    2.423711    0.872441
6

C     -1.925065    0.524749   -0.036379
H     -2.619013   -0.232070    0.055864
H     -1.204530    2.256788    0.856979
C     -0.678313    1.534728    0.203428
H     -0.467748    2.262527   -1.038562
H      0.288500    1.352081   -0.212320
6

C     -0.862427    1.575808    0.226573
H      0.126966    1.410810   -0.403720
H     -2.601137    0.166289   -0.111106
C     -1.475993    0.301397    0.338888
H     -1.548081   -0.001831    1.186136
H     -0.537370    0.291161   -0.346522
6

C     -1.621118    0.342710    0.229123
H     -2.550169    0.048809   -0.105082
H      0.077029    1.307318   -0.214480
C     -0.886083    1.459964   -0.063668
H     -1.158078    2.277475    1.021679
H     -1.920130    1.958269   -0.409145
6

C     -1.910181    0.384286    0.108878
H     -2.812870   -0.084144    0.025645
H     -0.049179    1.048576    0.987870
C     -0.707851    1.301465    0.214047
H     -1.090769    2.059697    0.675387
H      0.383251    1.774972   -0.156385
6

C     -1.006403    1.230697    0.267312
H     -1.073496    2.375949    0.854459
H      0.132623    1.514775   -0.270657
C     -1.837001    0.163676    0.308656
H     -1.021803    0.226651    1.333078
H     -2.724369    0.155480   -0.442536
6

C     -0.839879    1.229474    0.232452
H      0.006833    1.751216   -0.476636
H     -1.271554    2.225386    0.649705
C     -1.471250   -0.038537    0.310497
H     -2.379091    0.753806   -0.158214
H     -1.575511   -0.254117    1.492508
6

C     -0.844286    1.415796    0.152501
H      0.185255    1.390340   -0.063409
H     -1.277872    2.206009    0.762926
C     -1.577219    0.251375   -0.265334
H     -2.624298    0.172755    0.280888
H     -0.526529   -0.578374   -2.393567
6

C     -0.890993    1.333777    0.181540
H     -1.300795    2.111968    0.841573
H      0.035451    1.462853   -0.295065
C     -1.507496    0.054432    0.184658
H     -1.880433   -1.546551    1.240407
H     -2.474587    0.473246   -0.045134
6

C     -1.615213    0.214006   -0.184787
H      0.082639   -0.944870   -1.756754
H     -2.640661    0.192393    0.215598
C     -0.871396    1.361058    0.226330
H     -1.209042    2.160745    0.704018
H      0.197892    1.508074   -0.093587
6

C     -1.575581    0.295884   -0.115239
H     -2.597819    0.119483    0.117212
H      1.054357   -0.139441   -1.210084
C     -0.885206    1.419691    0.243758
H      0.155155    1.341958   -0.197899
H     -1.234969    2.259260    0.819741
6

C     -1.631100    0.288187   -0.106354
H     -2.672871    0.041831    0.087023
H      1.026104   -0.300787   -1.182933
C     -0.816169    1.394466    0.281315
H      0.149629    1.418459   -0.188920
H     -1.167908    2.293333    0.794508
6

C     -0.818741    1.329601    0.234483
H      0.145161    1.518594   -0.288274
H     -1.301780    2.156940    0.817388
C     -1.391949    0.067797    0.097977
H     -2.161316   -0.420083    1.396040
H     -2.771111    0.363344    0.005999
6

C     -0.806082    1.449472    0.194527
H      0.128049    1.546988   -0.368037
H     -1.126402    2.397559    0.819225
C     -1.308417    0.124534    0.109593
H     -1.773824   -0.071477    1.169155
H     -2.643774    0.220152    0.125849
6

C     -1.800072    0.345499   -0.159106
H     -1.745008    1.713743   -0.883636
H     -2.864765   -0.223790    0.069080
C     -0.692197    1.328614    0.377642
H      0.253874    1.571009   -0.171296
H     -1.035261    2.414944    0.751253
6

C     -1.835507    0.236468   -0.419138
H     -1.599791    0.247404   -2.456647
H     -2.591393   -0.094307    0.313067
C     -0.989528    1.407585    0.171254
H     -0.963139    2.393349    0.718095
H      0.241147    1.493180    0.084294
6

C     -1.703126    0.062036   -0.304385
H     -0.929024   -0.925699   -1.935112
H     -2.650326    0.125755    0.222279
C     -0.801322    1.396453    0.310561
H     -1.148507    2.350634    0.730978
H      0.164860    1.501398   -0.091860
6

C     -1.678561    0.113803   -0.298468
H     -0.861640   -0.944395   -1.899350
H     -2.608088    0.126653    0.214064
C     -0.772447    1.455794    0.324555
H     -1.229593    2.349176    0.772555
H      0.150269    1.390850   -0.145133
6

C     -0.938141    1.431216    0.178951
H      0.075422    1.270537   -0.082137
H     -1.249209    2.208063    0.773813
C     -1.560538    0.350452   -0.245120
H     -2.465954    0.176008    0.242065
H     -2.369035    1.434235   -1.145390
6

C     -0.684501    1.484964    0.056994
H     -1.107835    2.468297    0.966277
H     -0.933669    2.033939   -0.733283
C     -1.977648    0.297591   -0.066030
H     -2.856891   -0.334593    0.065244
H      0.488455    1.520017   -0.154913
6

C     -1.582334    0.189412   -0.052522
H     -2.655075    0.174606    0.046419
H     -1.391314    0.233014    1.248741
C     -2.035929    2.151805   -0.407671
H     -1.756301    2.578799    0.734121
H     -3.046373    2.294319   -0.789501
6

C     -1.202435    0.087501    0.152986
H     -1.857320    0.482242    1.243060
H     -2.341582    0.089361   -0.159625
C     -1.221818    1.549728    0.213134
H     -0.632019    2.016005    1.029941
H     -0.275276    1.442392   -0.429185
6

C     -1.419283   -0.041950    0.125645
H     -1.671940    0.664687    1.374215
H     -2.450922    0.129171   -0.253698
C     -1.173765    1.468527    0.139120
H     -0.687752    1.839326    1.059655
H     -0.126788    1.607466   -0.394626
6

C     -1.021336    1.546226    0.234774
H     -0.972206    2.419759    0.943345
H     -0.020734    1.308013   -0.271900
C     -1.490028    0.087685   -0.018657
H     -2.569029    0.077818   -0.085102
H     -1.457117    0.227727    1.247851
6

C     -2.120316    0.296920    0.426531
H     -2.630507   -0.160039   -0.437654
H     -0.879299    0.158353    0.962917
C     -1.030122    1.456590    0.437455
H     -0.876714    2.620068    0.727719
H      0.006508    1.295336   -0.066657
6

C     -1.527340    0.012072    0.093448
H     -2.577272    0.214688   -0.026702
H     -1.436210    0.146284    1.175261
C     -1.147348    1.438909    0.141115
H     -0.981828    2.374482    0.857920
H     -0.495030    0.238596   -0.022839
6

C     -1.071431    1.554172   -0.151318
H     -0.191683    1.160059    0.473042
H     -1.383947    2.343447    0.425579
C     -1.444838    0.094903   -0.182695
H     -1.161506   -0.245454    0.935687
H     -2.277045    0.760102    0.550015
6

C     -1.999778    0.765803    0.400004
H     -2.373883   -0.360968   -0.242842
H     -1.365551    0.046117    1.030084
C     -1.016511    1.558057    0.384378
H      0.101243    1.258755   -0.271022
H     -0.875969    2.399464    0.749710
6

C     -1.051200    1.625562   -0.138663
H     -0.128457    1.178815    0.294007
H     -1.346320    2.500626    0.534513
C     -1.501801    0.000336    0.003354
H     -2.324380    0.710062    0.331553
H     -1.178292   -0.348174    1.025548
6

C     -1.063874    1.650405    0.018700
H     -0.142131    1.148460    0.210373
H     -1.361470    2.506635    0.476270
C     -1.481977    0.025894    0.040689
H     -2.222529    0.734709    0.360521
H     -1.258469   -0.398876    0.943757
6

C     -1.566111    0.253355    0.009912
H     -1.311426    0.400312    1.055854
H     -2.662917    0.107131    0.087527
C     -0.930237    1.440263    0.113041
H      0.013552    1.411720    0.001318
H     -1.073312    2.054447    0.782659
6

C     -1.533840    0.108675   -0.079046
H     -1.631466    0.023256    1.195552
H     -2.499141    0.195341    0.191227
C     -0.802563    1.472428    0.113770
H      0.078318    1.457458   -0.202646
H     -1.141760    2.410070    0.831454
6

C     -1.536998    0.025224    0.076386
H     -1.495789    0.025814    1.340897
H     -2.739932    0.284541   -0.082573
C     -0.808364    1.170105    0.309633
H      0.210543    1.706581   -0.401508
H     -1.159910    2.454963    0.807478
6

C     -1.912495    0.305888   -0.139782
H     -1.112680    0.115362    0.831401
H     -2.633874    0.313473    0.545177
C     -0.705769    1.376685   -0.003538
H     -1.452738    2.035375    0.422662
H      0.287107    1.520445    0.394391
6

C     -1.033007    1.373089    0.465772
H     -1.335050   -0.569096   -0.896411
H     -0.965977    2.752502    0.620197
C     -1.527091    0.148369   -0.017406
H     -2.708008    0.100366    0.057595
H     -1.435915   -0.187892    1.114882
6

C     -0.934417    1.530944    0.176820
H      0.089682    1.288313   -0.132544
H     -1.035068    2.420517    0.893011
C     -1.661283    0.270602   -0.123052
H     -2.597334   -0.074100    0.053338
H      0.873677   -0.341244   -1.186354
6

C     -0.815655    1.387886    0.347231
H     -1.335395    2.287954    0.801842
H      0.142680    1.295835   -0.242370
C     -1.465214    0.302788   -0.207626
H     -2.041838   -1.166231   -2.371611
H     -2.664836    0.161813    0.168496
6

C     -0.819295    1.456103    0.159461
H      0.252971    1.404877   -0.172236
H     -1.316512    2.244436    0.844162
C     -1.567212    0.131192   -0.145991
H     -2.688371    0.199667    0.182176
H     -0.209576   -1.677768   -0.852327
6

C     -1.983651    0.379232    0.366304
H     -1.109125    0.235261    1.074475
H     -2.500517   -0.158498   -0.376776
C     -1.180477    1.437352    0.346400
H     -0.770103    2.406711    0.773813
H      0.013423    1.367170   -0.133905
6

C     -1.684108    0.416208    0.125594
H     -2.686542    0.088056   -0.068803
H     -1.220468    2.104307    0.678756
C     -0.662437    1.263026    0.478510
H      0.152429    1.215460    1.363196
H      0.115135    1.564678   -0.346484
6

C     -0.649940    1.139663    0.347669
H      0.051484    1.650929   -0.312930
H     -1.350676    0.331677    1.294975
C     -1.638491    0.162726    0.032812
H     -2.773048    0.167478   -0.125754
H     -1.497699   -0.964088    0.053209
6

C     -1.588325    0.354403    0.059508
H     -2.624929    0.198926   -0.034227
H     -1.208656    2.076908    0.622735
C     -0.668977    1.288838    0.524012
H     -0.263124    1.245710    1.978258
H     -0.047532    1.517201   -0.304456
6

C     -1.776067    0.311092   -0.023544
H     -2.835887   -0.114602    0.166188
H     -1.198370    0.497468    0.934162
C     -0.852937    1.501320    0.051526
H     -1.166751    2.079415    0.843414
H      0.299564    1.392535    0.078566
6

C     -1.781817    0.331340    0.180013
H     -2.598723    0.008754   -0.346983
H     -1.036274    0.342560    1.242923
C     -0.993697    1.418685    0.234649
H     -1.077008    2.358129    0.932820
H     -0.042931    1.207759   -0.193110
6

C     -1.404973    0.221779   -0.056922
H     -1.737425   -0.120666    1.173858
H     -2.732974    0.020852    0.197223
C     -0.707539    1.519909    0.250930
H      0.139434    1.489336   -0.285122
H     -1.086972    2.536017    0.770344
6

C     -1.683654    0.101091    0.371199
H     -0.013447    1.413414   -0.405032
H     -2.553183    0.081710   -0.337523
C     -0.889140    1.505275    0.289365
H     -1.780867    1.399834   -0.380747
H     -0.998996    2.334786    0.949563
6

C     -1.408680    0.054951   -0.011547
H     -2.616158    0.412722    0.155612
H     -1.683160    0.009792    1.291482
C     -0.664693    1.312046    0.243981
H     -1.261472    2.190591    0.712644
H      0.103714    1.687126   -0.341861
6

C     -1.410201    0.079497    0.008960
H     -2.467022    0.438873   -0.074699
H     -1.496068   -0.039174    1.466157
C     -0.937801    1.500520    0.243882
H     -1.342413    2.363393    0.892611
H      0.123055    1.324118   -0.486600
6

C     -0.709294    1.511513   -0.064764
H      0.447455    1.704366    0.240177
H     -1.340876    2.043109    0.539256
C     -1.855010    0.007609   -0.061018
H     -2.846401    0.298071    0.406613
H     -1.226324    0.102559    0.990047
6

C     -0.932234    1.245256    0.459390
H     -0.142110    1.417703   -0.291703
H     -1.146902    2.258291    0.731237
C     -1.441447    0.147008    0.010297
H     -2.475728    0.368018   -0.041649
H     -2.457184   -0.696493    0.812122
6

C     -1.259196    1.656308    0.150915
H     -0.245964    1.081314   -0.109245
H     -0.876826    2.223019    0.850367
C     -1.566679    0.406416    0.262569
H     -2.366389    0.062404   -0.270371
H     -1.215396    0.237766    1.166075
6

C     -1.224274    1.641342    0.044043
H     -0.302858    0.958249   -0.117570
H     -1.046582    2.566764    0.903022
C     -1.417403    0.259072    0.186630
H     -2.551144    0.275727   -0.418223
H     -0.988189   -0.033926    1.452410
6

C     -1.807974    0.358479    0.127921
H      0.080569    1.741322    1.426398
H     -2.581021   -0.088110   -0.184499
C     -0.681260    1.388095    0.477395
H     -1.034794    2.337860    0.788986
H     -0.033370    1.439952   -0.342231
6

C     -1.801791    0.322354    0.050300
H     -0.215630    1.177132    1.296259
H     -2.973371   -0.143486    0.041673
C     -0.567967    1.445682    0.186453
H     -1.071944    2.103717    0.694652
H      0.276653    1.708010   -0.105506
6

C     -0.850243    1.410170    0.216991
H     -1.641807    2.016952   -0.378586
H     -0.003345    1.343306   -0.369563
C     -1.653607    0.289715    0.295897
H     -1.066766    2.391202    0.991309
H     -2.564458    0.001882   -0.267061
6

C     -0.670570    1.274943    0.245051
H     -1.245565    2.076464    0.711601
H      0.249489    1.668631   -0.214549
C     -1.678716    0.272106    0.077628
H      0.260616    1.591175    1.146079
H     -2.793059    0.144132    0.047841
6

C     -0.888484    1.581733    0.069930
H     -0.405284    1.974452   -1.170359
H      0.083100    1.278611   -0.197144
C     -1.677114    0.448037    0.156659
H     -1.102661    2.187255    0.909679
H     -2.553261   -0.059360   -0.071553
6

C     -0.853377    1.402100    0.229003
H      0.282748    1.478435   -0.202740
H     -1.272766    2.241605    0.809410
C     -1.614496    0.113934   -0.113174
H     -2.680529    0.200202    0.145074
H     -0.394197   -1.786538   -0.941833
6

C     -0.851864    1.399383    0.127860
H      0.101691    1.510066   -0.046173
H     -1.100116    2.242540    0.765253
C     -1.626352    0.143682   -0.127900
H     -2.661780    0.140606    0.148531
H     -0.418943   -2.015107   -0.825499
6

C     -0.819255    1.213212    0.166709
H     -1.198790    2.185921    0.633757
H      0.102457    1.605688    0.054957
C     -1.664949    0.132434   -0.338434
H     -2.557883    0.299022    0.350584
H     -1.421895   -0.497352   -2.491457
6

C     -0.950551    1.372826    0.318372
H     -1.258711    2.423844    0.537668
H      0.024132    1.629680   -0.354144
C     -1.497711   -0.124880    0.263541
H     -1.476235   -0.409638    1.354521
H     -2.371374    0.775395   -0.069646
6

C     -1.852930    0.365456    0.135272
H      0.294965    1.550016   -0.303341
H     -2.821875   -0.207673   -0.110416
C     -0.664428    1.414240    0.292816
H     -0.186130    1.157891    1.348402
H     -1.094153    2.314237    0.853241
6

C     -1.624238    0.424709    0.138617
H      0.138036    1.491216   -0.363025
H     -2.698666    0.140575   -0.038107
C     -0.605810    1.320603    0.398911
H      0.355114    1.193427    1.264822
H     -1.347742    2.059174    0.731178
6

C     -1.641161    0.227295   -0.026113
H      0.163138    1.526653   -0.241455
H     -1.320416    0.230479    1.319781
C     -0.768992    1.379394    0.279653
H     -1.167920    2.205302    0.778049
H     -2.795100    0.098104   -0.059603
6

C     -0.780247    1.366009    0.271897
H      0.128448    1.530349   -0.216388
H     -1.174394    2.213403    0.772391
C     -1.556092    0.159317    0.014420
H     -2.364472    1.724540   -0.852692
H     -2.756135    0.167198    0.025252
6

C     -0.832480    1.382717    0.222538
H      0.201550    1.314086   -0.246319
H     -1.503148    2.124505    0.812933
C     -1.463703    0.225495   -0.141869
H     -2.392847    2.162837   -0.295370
H     -2.540640    0.389473    0.220291
6

C     -0.801824    1.440289    0.227510
H      0.110368    1.480555   -0.485462
H     -1.185033    2.086330    0.949987
C     -1.219796    0.225739    0.230792
H     -2.276966    2.183996    0.428239
H     -1.773830    0.260118    1.091465
6

C     -0.583249    1.356158    0.259195
H      0.279876    1.857221   -0.337812
H     -1.156186    2.179152    0.559068
C     -1.741771    0.303148    0.298213
H     -1.668785   -0.202647    1.235627
H     -0.355475   -0.087485   -0.775576
6

C     -0.668664    1.400892    0.250714
H      0.333853    1.691088   -0.352592
H     -1.241370    2.307520    0.647386
C     -1.701530    0.293145    0.280112
H     -1.592404   -0.199612    1.188672
H     -0.199462    0.117601   -0.831181
6

C     -0.594116    1.178142    0.227657
H     -1.359514    1.867456    0.681103
H      0.123785    1.701126   -0.295934
C     -1.633630    0.354699    0.313039
H     -2.674945    0.334852   -0.058293
H     -2.491885   -0.582418    1.690156
6

C     -0.697451    1.331642    0.164790
H     -1.167505    2.092725    0.610745
H     -1.105531    0.626618    0.906059
C     -2.138145    0.464099   -0.274903
H     -2.599483   -0.144252    0.335181
H      0.464164    1.692062    0.031759
6

C     -0.360707    1.386746    0.550136
H      0.269508    1.613205   -0.458883
H     -1.305659    2.180307    0.741325
C     -1.700292    0.341785    0.159893
H     -3.041270   -0.085767   -0.124899
H      0.338661    1.239414    1.428040
6

C     -0.835491    1.560545   -0.018667
H      0.138114    1.475935   -0.103591
H     -1.346506    1.716792   -1.098895
C     -1.617917    0.177660    0.126598
H     -0.458237   -1.003378   -1.348769
H     -1.162792    2.047941    0.827212
6

C     -1.551491    0.292648    0.248127
H     -1.378663    0.069863    1.193523
H     -2.796671   -0.023192   -0.155513
C     -1.062400    1.618412    0.249897
H     -0.880772    2.228704    0.705007
H     -0.687014   -0.110774   -0.230719
6

C     -1.378890   -0.050476    0.152624
H     -2.533454    0.271699    0.086000
H     -1.789095   -0.175792    1.117282
C     -0.928322    1.482430    0.317756
H     -1.033016    2.577138    0.785470
H      0.132327    1.562229   -0.408821
6

C     -0.814619    1.459304    0.202199
H      0.409861    0.234826    0.103656
H      0.070398    1.549071   -0.457478
C     -1.530520    0.163149    0.306836
H     -1.681110   -0.044315    1.262552
H     -2.404822    0.325265   -0.077338
6

C     -1.610862    0.220054    0.010349
H      0.208597    1.515090    2.380006
H     -2.651675    0.177169   -0.021469
C     -0.718997    1.321126    0.474794
H      0.030446    1.508240   -0.300303
H     -1.187333    2.209687    0.704201
6

C     -1.817412    0.388350    0.221993
H     -0.452945    1.205676    1.509871
H     -2.677581   -0.177687   -0.211467
C     -0.830503    1.426134    0.336163
H      0.150435    1.496377   -0.317835
H     -0.963359    2.303103    0.838719
6

C     -1.143880    1.538517    0.105141
H     -0.861071    2.225264    0.866080
H     -1.394313    0.219811    1.291590
C     -1.652481    0.198163    0.138300
H     -0.819343   -0.555791   -0.083082
H     -2.618253    0.004679   -0.160069
6

C     -1.603585    0.139350   -0.113645
H     -2.643947    0.243616    0.174861
H      0.222309   -1.348347   -0.796267
C     -0.810575    1.380353    0.157924
H      0.223568    1.472547   -0.156248
H     -1.303881    2.200410    0.804680
6

C     -1.970730    0.621264    0.392222
H     -2.477245   -0.188804   -0.298809
H     -1.244980    0.060570    1.077776
C     -0.952114    1.406485    0.448610
H      0.078170    1.351993   -0.279053
H     -0.963550    2.415719    0.709565
6

C     -1.279664   -0.068373    0.341278
H     -1.656002   -0.235183    1.325816
H     -2.371163    0.736064   -0.114080
C     -0.740749    1.490130    0.347698
H     -1.337113    2.243465    0.694490
H     -0.145760    1.501125   -0.544891
6

C     -1.068645    1.476619    0.086216
H     -0.741978   -0.954331    0.474457
H     -1.029348    2.272890    0.870814
C     -1.495588    0.048928    0.046845
H     -2.501314    0.214742    0.105575
H     -1.575101    0.173256    1.131592
6

C     -1.790299    0.266079    0.137181
H     -1.052313    2.265235    0.786787
H     -2.705332    0.018415   -0.070251
C     -0.790292    1.207121    0.230175
H      0.199816    1.679426   -0.216319
H     -0.604759    0.995473    1.100543
6

C     -0.811943    1.411067    0.204461
H     -1.295296    2.220452    0.758132
H      0.206329    1.407117   -0.098243
C     -1.610330    0.223865   -0.266608
H     -1.136670   -0.439075   -2.507841
H     -2.627180    0.173775    0.269831
6

C     -1.641983    0.122689    0.112342
H     -2.633807    0.278312   -0.168240
H     -1.229254    0.539447    1.260157
C     -0.767878    1.321806    0.181389
H     -1.321277    1.973311    0.968414
H      0.063749    1.431662   -0.303751
6

C     -1.730925    0.443887    0.059867
H     -2.653601   -0.071805   -0.088635
H      0.146487    0.799563    1.234090
C     -0.701199    1.403182    0.494088
H     -1.167740    2.255742    0.767917
H      0.115045    1.405270   -0.365664
6

C     -0.545768    1.181605    0.419594
H      0.042430    1.640524   -0.435188
H     -1.376377    2.086737    0.574468
C     -1.645443    0.478714    0.363821
H     -1.480224   -0.073138    1.231616
H     -2.525067    0.352787   -0.104000
6

C     -1.732098    0.290135   -0.001234
H      0.373924    0.914838    1.119248
H     -2.780558    0.118184    0.087273
C     -0.567857    1.314470    0.341660
H     -1.337293    2.097473    0.703508
H      0.279387    1.616014   -0.263634
6

C     -1.104052    1.542969    0.274709
H     -2.646855   -0.150617   -0.119007
H     -0.760363    2.449222    0.816098
C     -1.711150    0.197093    0.144896
H     -1.447578    0.147767    1.124345
H     -0.660064   -0.191617   -0.108207
6

C     -0.608516    1.095747    0.091148
H     -0.864128   -0.748442   -0.455658
H      0.235498    1.860369   -0.214713
C     -1.690590    0.087111    0.153209
H     -2.762933    0.193517    0.063480
H     -1.534132    0.215728    1.143647
6

C     -1.794859    0.301278    0.152289
H     -1.073632    2.139858    0.738402
H     -2.659772    0.040771   -0.058329
C     -0.746011    1.321027    0.229656
H      0.135854    1.633341   -0.194445
H     -0.214913    0.724822    1.172420
6

C     -0.577638    1.357415    0.568871
H     -1.296639    2.112991    0.707802
H     -0.093350    1.391608   -0.429048
C     -1.527091    0.397318    0.148655
H     -2.643702    0.176944   -0.128708
H      0.140882    1.607813    1.548013
6

C     -1.542422   -0.061358    0.091636
H     -1.454764    0.197251    1.146421
H     -1.187222   -1.187473    0.061224
C     -1.105558    1.449099    0.097950
H     -1.009514    2.367153    0.911161
H     -2.557739    0.234289   -0.006126
6

C     -0.917097    1.374174    0.209098
H     -1.179870    2.328834    0.815488
H      0.187334    1.458163   -0.140613
C     -1.616202    0.081705   -0.171294
H     -0.318584   -1.598865   -1.127198
H     -2.612585    0.193399    0.154894
6

C     -0.931579    1.448812    0.219220
H     -1.083631    2.282791    0.764716
H      0.193132    1.460736   -0.090814
C     -1.597018    0.187631   -0.181198
H     -0.162303   -1.566141   -1.299693
H     -2.719324    0.056306    0.155648
6

C     -0.830711    1.386591    0.261333
H     -1.299483    2.221799    0.775889
H      0.109337    1.402114   -0.179925
C     -1.566808    0.130459   -0.159675
H      0.307810   -0.585928   -0.867568
H     -2.550756    0.295313    0.169950
6

C     -2.301943    2.394898   -0.870194
H     -1.740383    2.180025   -1.719453
H     -2.838028    3.367150   -0.504515
C     -0.867430    1.375347    0.183514
H      0.170515    1.460665   -0.216129
H     -1.204813    2.234185    0.840287
6

C     -0.876397    2.560360    0.268246
H     -0.342718    2.694163    1.186142
H     -1.636996    2.834382   -0.652694
C     -1.538164    0.192022    0.007825
H     -1.483041    0.227294    1.113808
H     -2.607518    0.177715    0.121006
6

C     -0.640262    1.211514    0.182220
H      0.061304    1.841710   -0.172159
H     -1.162085    2.073036    0.633405
C     -1.459231    0.023125   -0.007684
H     -1.641982    0.116156    1.202874
H     -2.688194    0.401687    0.211654
6

C     -0.435309    1.140553    0.054936
H     -1.524780    0.168959    1.260565
H      0.079030    1.891776   -0.227311
C     -1.674820   -0.009266    0.174942
H     -2.804793    0.260451   -0.026360
H     -1.723705   -1.217441   -0.773419
6

C     -1.538309    0.335538   -0.168442
H      0.070712    1.739833   -1.529332
H     -2.691712   -0.040011    0.166417
C     -0.898475    1.580366    0.018439
H     -1.057604    2.266777    0.836149
H      0.047681    1.293605    0.015010
6

C     -0.715249    1.369665    0.109684
H     -1.628030    0.140533    0.982408
H      0.163393    1.544698   -0.207539
C     -1.566686    0.330419    0.192456
H     -2.614100    0.067158    0.159762
H     -0.926487   -0.152474   -0.303460
6

C     -1.513554    0.258933   -0.128253
H     -0.160291    1.790062   -1.665952
H     -2.571017    0.304406    0.304892
C     -0.989111    1.434345   -0.140925
H     -1.224771    1.974593    0.739681
H      0.160034    1.463999    0.092178
6

C     -0.686024    1.129469    0.442537
H      0.092050    1.676502   -0.300677
H     -1.332798    2.069432    0.614071
C     -1.615265    0.176481   -0.009479
H     -1.379084    0.193042    1.267357
H     -2.609329    0.422301    0.036502
6

C     -2.009830    0.644202    0.310967
H     -1.153045    0.044548    1.174652
H     -2.365380   -0.128720   -0.322100
C     -0.927276    1.475123    0.400749
H     -1.132528    2.480551    0.802576
H      0.057608    1.151523   -0.316532
6

C     -1.526459    0.348533    0.125366
H     -2.755665    0.095093   -0.133851
H     -1.211478    0.256731    1.186495
C     -0.908953    1.448477    0.256788
H      0.041881    1.303639   -0.198026
H     -1.103112    2.618934    1.331524
6

C     -0.686367    1.187681    0.093197
H      0.180288    1.689288   -0.228570
H     -2.632136    0.124600    0.011103
C     -1.722547    0.290308    0.184189
H     -1.113919   -0.431097   -0.143106
H     -1.499910    0.160595    1.176851
6

C     -0.480535    1.401160    0.443236
H      0.184019    1.483156   -0.396515
H     -0.073541    0.734310    1.173103
C     -1.759956    0.317535    0.085369
H     -1.221177    2.368431    0.852253
H     -2.860770   -0.134006   -0.116771
6

C     -0.849890    1.402565    0.208167
H      0.199254    1.457103   -0.142404
H     -1.277218    2.145411    0.748500
C     -1.561937    0.196238   -0.136716
H     -2.648629    0.234959    0.190027
H      0.250635   -1.242267   -1.235119
6

C     -0.923169    1.272721    0.192879
H      0.085167    1.526876   -0.072602
H     -1.029980    2.375306    0.783485
C     -1.625972    0.159872   -0.148033
H     -2.644465    0.101501    0.111843
H      0.349230   -1.449094   -1.427666
6

C     -0.862546    1.385042    0.176555
H     -1.320634    2.160168    0.784098
H      0.096902    1.362396   -0.146067
C     -1.470993    0.231856   -0.136525
H      0.852008   -0.539176   -0.862888
H     -2.581148    0.296814    0.189513
6

C     -0.885295    1.385061    0.159146
H     -1.065605    2.273512    0.767256
H      0.230717    1.565796   -0.071154
C     -1.702818    0.162998   -0.123728
H      0.406616   -0.881066   -0.900974
H     -2.715420    0.048909    0.136052
6

C     -0.507517    1.274701    0.232111
H     -1.080969    2.178482    0.833012
H     -0.233585    1.856946   -0.581908
C     -1.275518   -0.186755    0.343949
H     -2.012485   -0.012804    1.283231
H     -2.420375    0.556658   -0.060083
6

C     -0.838304    1.488725    0.207217
H      0.302987    1.684893   -0.202021
H     -0.980816    2.445594    0.709528
C     -1.480646    0.096095    0.000347
H     -2.736822    0.034825    0.293164
H     -1.796848   -0.082905    1.042077
6

C     -0.830451    1.513582    0.287192
H      0.108481    1.433293   -0.111405
H     -0.883544    2.679785    0.665701
C     -1.571217    0.462642   -0.045495
H     -2.560959   -0.233508    0.334505
H     -1.792760   -0.188566    0.919813
6

C     -0.882508    1.546296    0.167952
H      0.168193    1.363548   -0.040053
H     -1.198552    2.554102    0.620624
C     -1.751816    0.258165   -0.011404
H     -0.973175    0.492668   -1.427127
H     -1.205432   -0.229078    1.277171
6

C     -1.375968    0.116847    0.017578
H     -1.640110    0.029231    1.440692
H     -2.215359    0.582349    0.038868
C     -0.879293    1.537364    0.147691
H     -1.371486    2.067550    0.849949
H     -0.048235    1.333887   -0.444466
6

C     -1.733288    0.319304    0.029531
H     -1.571995   -0.806088   -0.021029
H     -2.655492    0.151703    0.188345
C     -0.724351    1.123210   -0.251459
H      0.102179    1.646168    0.137137
H     -1.349720    0.212087    1.133216
6

C     -0.986325    1.460577   -0.078870
H      0.127112    1.394284    0.224572
H     -1.035837    2.101085    0.743597
C     -1.729598    0.405919   -0.269783
H     -1.313790    0.346758    1.114148
H     -2.592013   -0.041395    0.316647
6

C     -1.645865    0.314148    0.134848
H     -2.829398    0.128409   -0.042296
H     -0.108390    0.831508    1.553942
C     -0.695460    1.280619    0.483886
H     -1.386994    2.123943    0.761466
H      0.419297    1.589157   -0.470332
6

C     -1.669908    0.234371    0.054782
H     -2.683466    0.399034    0.140378
H      0.046379    1.153756    1.847366
C     -0.565383    1.285891    0.354223
H     -1.453632    1.815575    0.568351
H      0.233969    1.701405   -0.250162
6

C     -1.760538    0.416583    0.085735
H     -2.858513   -0.251432   -0.083277
H     -0.894660    2.282950    0.761607
C     -0.842191    1.396122    0.276889
H     -1.825880    2.195814   -0.852673
H      0.217482    1.592054   -0.173381
6

C     -0.795509    1.314497    0.326260
H      0.143909    1.623915   -0.567694
H     -1.375550    1.988251    0.791606
C     -1.223521    0.073884    0.332233
H     -2.587051    0.562980   -0.016561
H     -1.692728    0.103701    1.184468
6

C     -0.979000    1.571236    0.155422
H     -1.137907    2.403355    1.012592
H     -0.130572    0.885247   -0.140100
C     -2.036919    0.646651    0.421473
H     -1.154287    0.333536    0.813325
H     -2.091765   -0.172798   -0.212401
6

C     -0.883312    1.363030    0.220179
H      0.153551    1.535245   -0.036779
H     -1.083778    2.250282    0.702992
C     -1.680674    0.185544   -0.221738
H     -2.644207    0.102176    0.202918
H     -0.325327   -0.723916   -2.057274
6

C     -0.889668    1.306531    0.159962
H      0.150224    1.513095   -0.052168
H     -1.184052    2.239316    0.742528
C     -1.601631    0.152549   -0.209965
H     -2.613292    0.224785    0.227216
H     -0.148631   -0.764785   -2.029293
6

C     -0.880303    1.415010    0.251842
H     -1.290163    2.269400    0.833827
H      0.118301    1.293527   -0.212854
C     -1.509310    0.272949   -0.141270
H      0.664713   -0.740598   -1.744757
H     -2.576944    0.185390    0.136027
6

C     -0.897660    1.382737    0.246316
H     -1.154613    2.323324    0.799502
H      0.074012    1.361845   -0.136996
C     -1.545954    0.257562   -0.176370
H      0.620957   -0.760287   -1.697712
H     -2.614205    0.110809    0.135121
6

C     -0.829027    1.398300    0.180492
H     -1.190846    2.211744    0.820892
H      0.118146    1.460152   -0.193711
C     -2.021909    1.719303   -1.386395
H     -1.030963    2.308580   -1.696333
H     -2.398604    2.595392   -0.863770
6

C     -0.879024    1.446657    0.281328
H     -1.317486    2.204188    0.768262
H      0.293609    1.394792   -0.188697
C     -1.632970    0.208103   -0.216879
H     -1.007985   -0.847299   -2.243654
H     -2.602548    0.182535    0.223559
6

C     -0.843769    1.426011    0.091775
H     -1.440288    2.009888    0.823039
H      0.026121    1.322725   -0.208857
C     -1.323818    0.185995    0.041930
H     -1.237576    0.290646    1.735301
H     -2.556666    0.491656    0.119686
6

C     -1.018974    1.703180    0.182870
H     -0.103273    1.165441   -0.130712
H     -0.645720    2.414265    1.037494
C     -2.209553    0.458399    0.406677
H     -1.332366    0.448748    0.870070
H     -2.220563   -0.522805   -0.316087
6

C     -0.840129    1.435632    0.177993
H      0.154072    1.470754   -0.082878
H     -1.145423    2.209564    0.753364
C     -1.587843    0.222222   -0.141748
H     -2.719097    0.098104    0.160842
H     -1.166464   -2.059067   -1.646078
6

C     -0.800592    1.435535    0.183307
H      0.283126    1.451424   -0.132507
H     -1.245738    2.212235    0.784988
C     -1.602233    0.278906   -0.159175
H     -2.772983    0.058176    0.190959
H     -1.225663   -2.105263   -1.928206
6

C     -0.825282    1.351492    0.199616
H      0.148448    1.491667   -0.097787
H     -1.238988    2.119305    0.707061
C     -1.567472    0.265031   -0.139380
H     -2.655126    0.208781    0.198061
H     -1.113931   -2.113207   -2.138031
6

C     -0.823981    1.394717    0.176174
H     -1.259494    2.253402    0.875433
H      0.181747    1.422078   -0.243934
C     62.510632   16.394247   15.704752
H     63.214881   15.939288   15.140127
H     61.833010   17.159575   16.356737
6

C     -1.597704    0.191162    0.012093
H     -2.615182    0.175663    0.059053
H     -1.415836    0.230206    1.171492
C     -2.922155    0.899576    3.508921
H     -2.771772    2.013309    3.471417
H     -2.898725   -0.163306    3.371504
6

C     -1.577816    0.189453   -0.053598
H     -2.594365    0.177456    0.105594
H     -1.456542    0.230122    1.190642
C      9.816124    1.304644   -1.395610
H     10.864589    1.005851   -0.986312
H      8.908379    1.370554   -1.884764
6

C     -1.572639    0.190937   -0.008614
H     -2.632697    0.175684    0.069130
H     -1.423387    0.230410    1.182122
C    -14.761176   13.004221   22.876973
H    -13.922279   13.601502   23.052975
H    -15.500638   12.173410   22.607661
6

C     -0.879014    1.340739    0.167974
H      0.117772    1.505548   -0.166572
H     -1.140486    2.223910    0.806271
C     -5.886699  -13.943942   31.591001
H     -6.226676  -14.487393   32.431080
H     -5.385130  -13.226315   30.872523
6

C     -0.852318    1.351584    0.162836
H      0.131144    1.478453   -0.188475
H     -1.180553    2.240160    0.833312
C     -2.445431   34.393217  -16.851993
H     -2.561731   35.411452  -16.965748
H     -2.124272   33.300726  -16.542925
6

C     -0.854943    1.358551    0.168115
H     -1.230550    2.262594    0.868337
H      0.183765    1.449052   -0.228779
C     12.691155  -37.075729   -6.700936
H     13.700496  -36.962942   -7.087316
H     11.746376  -37.406128   -6.213063
6

C     -1.535707    0.191064   -0.024340
H     -2.627753    0.177024    0.109630
H     -1.465263    0.228943    1.157348
C      2.771345   21.827041   50.167828
H      3.495297   22.568796   49.892603
H      2.161135   20.891100   50.317840
6

C     -1.536814    0.190322   -0.047651
H     -1.439438    0.230718    1.200630
H     -2.652471    0.175992    0.089658
C    -47.977698   18.420677   31.671218
H    -48.505533   17.601918   32.041392
H    -47.183786   19.162538   31.285810
6

C     -0.606249    1.285136    0.484156
H      0.101608    1.634298   -0.279666
H     -0.005524    0.893373    1.450520
C     -1.705021    0.429957    0.096345
H     -2.796195   -0.003602   -0.054694
H     -1.132563    2.090486    0.621432
6

C     -1.727915    0.342084    0.007732
H     -1.197729    0.275371    1.140481
H     -2.940512    0.050967    0.029238
C     -0.643046    1.228141    0.315920
H      0.229805    1.607298   -0.106845
H     -1.251054    2.163367    0.663786
6

C     -1.799553    0.284677    0.267101
H     -0.551829    0.391219    0.993522
H     -2.674498   -0.010479   -0.159697
C     -0.780995    1.465812    0.239089
H      0.285659    1.505533   -0.362869
H     -1.169033    2.190732    0.883948
6

C     -0.725005    1.191742    0.008980
H     -1.814176   -0.358431   -0.739041
H      0.349920    1.827593   -0.215989
C     -1.836041    0.140545    0.209780
H     -1.440137    0.116821    1.266256
H     -2.709409    0.175772   -0.032256
6

C     -1.602163    0.434235    0.147512
H     -1.289723    2.389606    0.990770
H     -2.672440   -0.046605   -0.140048
C     -0.665685    1.408505    0.283987
H     -0.374093    1.214923    1.189943
H      0.091591    1.250535   -0.414647
6

C     -0.828613    1.368313    0.161641
H      0.257729    1.534055   -0.128128
H     -1.255534    2.207263    0.779771
C     -1.643562    0.102483   -0.132653
H     -2.668441    0.224162    0.186943
H      0.086412   -1.153484   -0.962729
6

C     -0.896453    1.441983    0.253805
H     -0.981798    2.395091    0.804911
H      0.050702    1.431925   -0.115007
C     -1.541742    0.178717   -0.124013
H     -0.018626   -1.861353   -0.435345
H     -2.769130   -0.011440    0.047876
6

C     -0.878393    1.534295    0.182981
H     -1.338097    2.485185    0.978780
H      0.115293    1.294413   -0.571518
C     -1.259058    0.111416    0.176571
H     -1.838147   -0.149671    1.195269
H     -2.332048    0.391591    0.088229
6

C     -0.671425    1.186738   -0.223652
H      0.187524    1.766420    0.051660
H     -1.422033    0.160882    1.205998
C     -1.770890    0.120858    0.032608
H     -2.683849    0.217574    0.170158
H     -2.136854   -1.086878   -0.461775
6

C     -1.535283    0.131082    0.189904
H     -2.663414    0.029405   -0.308796
H     -1.271673    0.532259    1.134940
C     -0.987540    1.399764    0.344863
H     -0.152081    1.339421   -0.285889
H     -0.920459    2.235298    0.975288
6

C     -1.364052    0.066638    0.329907
H     -1.935881   -0.271388    1.372357
H     -2.077561    0.713241    0.019808
C     -0.815527    1.444527    0.204837
H     -1.309061    2.113866    0.735470
H     -0.028368    1.600344   -0.612068
6

C     -2.029012    0.468842    0.317025
H     -2.556697   -0.091513   -0.279412
H     -0.772277    0.373501    0.946093
C     -1.078093    1.507317    0.095299
H      0.070144    1.028559    0.060082
H     -1.164514    2.380523    0.911225
6

C     -2.061505    0.598114    0.549133
H     -1.170036    0.043404    1.002527
H     -2.512208   -0.112697   -0.291220
C     -0.856077    1.404824    0.284620
H     -1.199561    2.392046    0.798148
H      0.268937    1.341537   -0.292896
6

C     -1.897058    0.637942    0.111251
H      0.112917    1.038913    1.723618
H     -2.653969   -0.207320   -0.093128
C     -0.580964    1.206363    0.377513
H     -1.142650    2.274969    0.773760
H      0.136221    1.524322   -0.301825
6

C     -1.746928    0.347614    0.122264
H      0.230934    1.519147   -0.331874
H     -2.770194   -0.103975   -0.113492
C     -0.739525    1.340258    0.343478
H     -0.327812    1.110172    1.156765
H     -1.112707    2.333231    0.847197
6

C     -1.637331    0.228965    0.342623
H     -2.631984    0.184157   -0.215130
H     -0.378381    0.346432    0.956305
C     -0.839976    1.343992    0.302310
H     -1.215722    2.165109    0.873474
H      0.186593    1.514053   -0.435704
6

C     -1.536963    0.267606    0.168672
H     -2.691755    0.375980   -0.035414
H     -1.419557    1.982191    0.663822
C     -0.603134    1.207626    0.477935
H      0.112990    1.602873   -0.407442
H      0.019623    1.404260    1.315590
6

C     -1.445951   -0.087626    0.359253
H     -1.990704   -0.268765    1.400761
H     -2.208204    0.696541   -0.015268
C     -0.729499    1.307405    0.242864
H     -1.309195    2.198284    0.778411
H      0.153103    1.821389   -0.715710
6

C     -0.806312    1.544795    0.238396
H      0.239787    1.511200   -0.119219
H     -1.051095    2.432003    0.737441
C     -1.540401    0.141084   -0.097569
H     -1.646366    0.056980    0.974788
H     -2.726064   -0.018834    0.316474
6

C     -1.090520    1.751094    0.180780
H     -1.176079    2.269589    0.934950
H     -0.108828    0.862471   -0.217088
C     -1.497485    0.573244    0.128635
H     -2.501316   -0.002127   -0.218720
H     -1.156221    0.212957    1.241755
6

C     -1.258986    1.693900    0.209508
H     -0.940995    2.548880    0.998581
H     -0.065375    0.934349   -0.234590
C     -1.594383    0.460457    0.281938
H     -2.479236   -0.134075   -0.324825
H     -1.191474    0.163716    1.119698
6

C     -0.848534    1.366811    0.160074
H      0.119007    1.444521   -0.092223
H     -1.200753    2.268230    0.790736
C     -1.582885    0.167233   -0.172992
H     -2.625256    0.189482    0.181978
H     -1.098881   -1.933381   -1.676046
6

C     -0.821159    1.398079    0.140374
H      0.155930    1.405668   -0.116119
H     -1.258059    2.225856    0.807411
C     -1.579574    0.241254   -0.146795
H     -2.635558    0.165419    0.182702
H     -0.016209   -1.279077   -2.080373
6

C     -0.840828    1.371710    0.173406
H      0.313220    1.501145   -0.107975
H     -1.310000    2.115864    0.728559
C     -1.573376    0.259535   -0.186843
H     -2.727435    0.188021    0.260426
H      0.086864   -1.097255   -2.153758
6

C     -0.810721    1.322905    0.209621
H      0.127362    1.455254   -0.082928
H     -1.273949    2.224045    0.734965
C     -1.587313    0.186808   -0.251085
H     -2.593799    0.247264    0.256999
H     -0.299506   -0.654355   -2.134385
6

C     -0.859640    1.363945    0.212796
H     -1.164485    2.230074    0.746492
H      0.291936    1.576967   -0.117773
C     -1.639839    0.145813   -0.144210
H     -0.099412   -1.471525   -1.389888
H     -2.766392    0.119477    0.170267
6

C     -1.598176    0.140720   -0.175202
H     -2.567220    0.239694    0.173063
H      0.234067   -1.293381   -0.903548
C     -0.823946    1.322934    0.196560
H      0.059928    1.453965   -0.103102
H     -1.209006    2.278963    0.776254
6

C     -1.529117    0.270638   -0.165606
H     -2.505740    0.324553    0.226252
H      0.747245   -0.505918   -1.053813
C     -0.803619    1.399089    0.211476
H      0.090926    1.340635   -0.154664
H     -1.390870    2.101361    0.750115
6

C     -1.685101    0.155308   -0.178856
H     -2.665759    0.265028    0.277282
H     -1.415231   -2.009109   -2.016388
C     -0.843382    1.219205    0.114933
H      0.187108    1.740011    0.055727
H     -1.131286    2.056723    0.598486
6

C     -0.753766    1.483782    0.024662
H     -0.968661    2.168527    0.790896
H     -0.820450    1.654681   -1.165608
C     -1.957850    0.283867    0.107709
H     -2.785952   -0.182463    0.004567
H      0.327809    1.682563   -0.060263
6

C     -0.678865    1.478831    0.501541
H      0.297907    1.131778    1.250662
H     -1.348007    2.141313    0.791418
C     -1.629700    0.428796    0.109309
H     -2.812534   -0.015830   -0.065841
H      0.330687    1.403166   -0.468854
6

C     -0.517005    1.437320    0.506666
H     -0.979896    2.578549    0.871246
H     -0.096608    1.389231   -0.337968
C     -1.751916    0.287225    0.030025
H     -2.792995   -0.256049   -0.202396
H      0.239410    1.305291    1.907675
6

C     -0.683631    1.466309    0.230441
H     -1.043809    2.385732    0.920684
H     -1.205261    2.039364   -0.788584
C     -1.926443    0.190141    0.187194
H     -2.724013   -0.154566   -0.169023
H      0.239475    1.548659   -0.301723
6

C     -0.778112    1.633125   -0.012225
H     -1.053582    2.381099    0.991939
H     -0.587331    2.429060   -1.042062
C     -1.846778    0.416822    0.031246
H     -2.563392   -0.240949   -0.022080
H      0.103444    1.246179   -0.121309
6

C     -0.856362    1.445717    0.404718
H     -0.974995    2.336586    0.835596
H      0.100301    1.453834   -0.345129
C     -1.815560    0.308936    0.182222
H     -2.591804   -0.108796   -0.209835
H     -0.365282    1.247073    1.429193
6

C     -1.711021    0.089445   -0.140465
H     -2.854205    0.031752    0.157938
H     -0.234079   -1.395956   -1.110264
C     -0.787397    1.415273    0.174119
H      0.301282    1.643140   -0.068614
H     -1.087079    2.256666    0.744595
6

C     -1.721936    0.086406   -0.190910
H     -2.687029    0.267917    0.253897
H     -0.143182   -0.553073   -1.238966
C     -0.756428    1.305867    0.260835
H      0.289430    1.679069   -0.093264
H     -1.262458    2.097017    0.637015
6

C     -1.739124    0.240120   -0.223237
H     -2.647494    0.148918    0.255531
H     -0.466228    0.283395   -2.095805
C     -0.781595    1.330759    0.261606
H      0.315475    1.552148   -0.122621
H     -1.285682    2.164332    0.696293
6

C     -1.764169    0.215768   -0.216467
H     -2.733647    0.024156    0.217186
H     -0.498543    0.225400   -2.080557
C     -0.781831    1.408758    0.239174
H      0.313642    1.558927   -0.091276
H     -1.172415    2.228667    0.718956
6

C     -0.813207    1.375359    0.199803
H     -1.194919    2.350637    0.789294
H      0.225059    1.435392   -0.073886
C     -1.666888    0.239955   -0.296144
H     -1.760148   -0.589918   -2.577966
H     -2.688464    0.034934    0.248505
6

C     -0.362021    1.374526    0.370242
H      0.061504    1.688296   -0.447378
H     -1.302766    2.010312    0.602148
C     -1.541322    0.475898    0.290487
H     -0.688721   -0.746602    0.750320
H     -1.725511   -0.055999    1.198792
6

C     -0.484510    1.154712    0.094822
H     -1.179539    1.802032    0.966244
H     -0.119978    1.937768   -0.563878
C     -1.436075   -0.170185    0.340509
H     -2.037686    0.383122    1.184138
H     -2.272663    0.559778    0.028477
6

C     -0.691875    1.221653    0.473447
H      0.015218    1.733879   -0.692404
H     -1.375002    2.274202    0.669498
C     -1.485801   -0.082095    0.224651
H     -1.932083   -0.258827    1.309240
H     -2.060908    0.778417    0.065880
6

C     -1.685866    0.233234    0.286468
H     -2.550310    0.131757   -0.046072
H     -1.629353   -0.009944    1.223050
C     -0.725347    1.511467    0.172152
H      0.230203    1.585959   -0.398827
H     -0.966275    0.074020   -0.613665
6

C     -1.816806   -0.143168    0.113937
H     -1.286328    0.223555    1.478515
H     -1.462404   -1.266029   -0.360322
C     -0.574530    1.138450    0.159455
H      0.045913    1.849019   -0.275642
H     -2.728920    0.384617   -0.239494
6

C     -0.803539    1.411341    0.138818
H      0.217088    1.502798   -0.020149
H     -1.209438    2.177112    0.719467
C     -1.682380    0.218593   -0.245531
H     -2.660151    0.126432    0.274968
H     -1.068893   -0.758351   -2.412591
6

C     -0.817955    1.366020    0.232623
H      0.205498    1.421791   -0.146693
H     -1.259215    2.296180    0.796122
C     -1.619054    0.216290   -0.214852
H     -2.647695    0.135995    0.200372
H     -1.025520   -0.800839   -2.472999
6

C     -0.645629    1.386939    0.489571
H      0.161674    0.709770    1.146200
H     -1.248382    2.375845    0.860194
C     -1.737893    0.430687    0.033345
H      0.104899    1.317094   -0.420223
H     -2.611415   -0.074290   -0.095314
6

C     -1.052427    1.449203    0.211274
H     -1.218193    0.400727    1.094671
H     -0.862804    2.369565    0.922382
C     -1.787953    0.348519    0.115906
H      0.044406    1.317135   -0.105836
H     -2.653479   -0.217922   -0.188086
6

C     -1.050514    1.447660    0.237654
H     -1.219406    0.366545    1.093593
H     -0.858936    2.375792    0.885777
C     -1.803368    0.357050    0.115259
H      0.013144    1.315916   -0.099186
H     -2.611369   -0.195735   -0.182785
6

C     -0.764767    1.344328    0.379869
H     -2.255247    0.610937    0.068509
H     -0.133234    1.450765   -0.470390
C     -1.350241    0.028271    0.110531
H     -1.330187    2.289554    0.745187
H     -1.696774   -0.056627    1.216606
6

C     -0.670623    1.255034    0.284574
H     -2.706891    0.074715   -0.207542
H     -0.058442    0.157715    0.482940
C     -1.694988    0.246606    0.281682
H      0.152418    1.531520   -0.417796
H     -1.218337    2.328401    0.926655
6

C     -0.911132    1.123534    0.148547
H     -0.018750    1.668998   -0.303611
H     -1.564967    2.299659    0.861961
C     -1.547901   -0.008807    0.285993
H     -1.390186    0.141064    1.284175
H     -2.492703    0.527684   -0.178334
6

C     -0.842653    1.232434    0.198568
H      0.033482    1.631544   -0.257709
H     -1.071005    2.445817    0.765689
C     -1.480906    0.096575    0.049928
H     -1.439819   -0.015214    1.384021
H     -2.729548    0.276073   -0.090185
6

C     -0.975345    1.354796    0.310327
H      0.279768    1.563019   -0.309705
H     -1.036506    2.377493    0.845881
C     -1.647964    0.134568    0.098942
H     -1.373172    0.195589    1.228447
H     -2.777232    0.041762   -0.123580
6

C     -0.747145    1.415125    0.142208
H     -1.278944    2.020466    0.880338
H      0.734213    1.792264    0.302235
C     -1.561343    0.096473    0.065347
H     -2.729772    0.226599    0.041190
H     -1.352793    0.427772    1.111958
6

C     -1.537242    0.247663   -0.196038
H     -1.007466   -0.632249   -2.630570
H     -2.695150    0.155347    0.185726
C     -0.797231    1.375052    0.280084
H     -1.289377    2.258474    0.778134
H      0.180580    1.399739   -0.180334
6

C     -1.291653   -0.000405    0.329795
H     -2.470817    0.598913   -0.079299
H     -1.662377   -0.176209    1.265401
C     -0.808817    1.357071    0.282936
H     -1.176731    2.268681    0.678266
H     -0.120055    1.619177   -0.426786
6

C     -1.489322    0.106748   -0.139638
H      0.077645   -1.549965   -0.492613
H     -2.687954    0.214232    0.128858
C     -0.841000    1.413650    0.222793
H     -1.263052    2.323471    0.853331
H      0.142908    1.378175   -0.197771
6

C     -0.650810    1.391107    0.381242
H      0.103888    1.352721   -0.336807
H     -1.409284    2.096909    0.760861
C     -1.518443    0.409075    0.014873
H     -2.663771    0.186463    0.047403
H      0.224860    1.139047    1.434771
6

C     -1.713182   -0.000827    0.109933
H     -1.348737    0.621673    1.311853
H     -2.681088   -0.138110   -0.383922
C     -1.024622    1.470825    0.237751
H     -0.636885    2.178624    1.022701
H     -0.125937    1.535041   -0.248005
6

C     -1.866733    0.408209   -0.129335
H      0.240477    1.646825   -0.012294
H     -2.748706   -0.149901    0.150648
C     -0.758051    1.327081    0.185734
H     -1.074256    0.679484    1.824362
H     -1.005408    2.204062    0.672820
6

C     -1.521518    0.355707   -0.052785
H      0.035967    1.305478   -0.396859
H     -2.596018    0.204288    0.027860
C     -0.656440    1.355148    0.527038
H      0.854857    1.030929    1.599773
H     -1.400411    2.215655    0.762319
6

C     -0.656717    1.478393    0.270051
H     -1.176385    2.151793    0.813956
H     -0.218633    1.593572   -0.562240
C     -1.305439   -0.089340    0.298069
H     -2.203079    0.581230    0.022722
H     -1.970196   -0.048420    1.207754
6

C     -1.565218    0.006028    0.171051
H     -1.424863    0.195314    1.161742
H     -2.686496    0.015038   -0.146844
C     -1.180707    1.492106    0.105799
H     -0.789907   -0.778180   -0.711831
H     -0.812712    2.477949    0.949293
6

C     -1.324691   -0.022227    0.013360
H     -0.499319   -0.503803   -0.585859
H     -1.404657   -0.115148    1.045280
C     -0.974684    1.402614    0.449268
H     -2.766503    0.411036    0.149850
H     -1.199462    2.510159    0.583284
6

C     -0.818300    1.332179    0.249750
H     -1.187317    2.170930    0.643266
H      0.132063    1.558190   -0.024125
C     -1.606412    0.138703   -0.282770
H     -0.011669   -0.325595   -1.515810
H     -2.658454    0.236274    0.281452
6

C     -1.654352    0.350217    0.085461
H      0.280589    1.522732   -0.329631
H     -2.765772    0.129585    0.031098
C     -0.623504    1.388170    0.337681
H     -1.375381    2.045571    0.742963
H      0.009466    1.082488    1.154106
6

C     -2.034825    0.813975   -0.012796
H     -1.416664    0.272839    1.039389
H     -1.924667   -0.263534    0.075454
C     -0.982977    1.629662    0.128727
H     -1.114257    2.308762    0.951286
H     -0.057059    0.905524   -0.131749
6

C     -0.824191    1.271331    0.190462
H     -0.898584   -0.347506   -1.159810
H      0.092135    1.529022   -0.334298
C     -1.606109    0.374079    0.176672
H     -2.580816    0.170260   -0.126670
H     -1.441690    0.107781    1.330605
6

C     -1.171311    1.365671    0.239002
H     -1.164136    0.131295    1.342357
H     -1.105746    2.171577    0.703139
C     -1.576840    0.183108    0.145437
H     -0.847459   -0.351520   -1.557470
H     -2.651964    0.334784   -0.188893
6

C     -1.646584    0.001673   -0.058885
H     -1.276273    0.300241    1.226659
H     -2.702946    0.214157    0.069385
C     -0.947580    1.504261   -0.036365
H      0.200622    1.463554   -0.030610
H     -1.157690    2.183343    0.880127
6

C     -0.901609    1.285016    0.478464
H     -1.254993    2.230660    0.955043
H     -0.278316    1.245451   -0.634139
C     -1.485190    0.199875    0.147477
H     -2.357871    0.443407   -0.516338
H     -1.252471    0.262819    1.619805
6

C     -1.663939    0.330000    0.203643
H     -2.578747    0.349118   -0.021187
H     -1.268082   -0.076901    1.193880
C     -0.821297    1.277712    0.219122
H     -1.337932    2.306506    0.645583
H     -0.865192    0.747108   -1.212650
6

C     -1.649456    0.330066    0.400838
H     -2.676281    0.172794   -0.156490
H     -1.301488   -0.152518    1.144735
C     -0.919299    1.407559    0.156269
H     -1.123472    2.428533    0.695690
H     -2.249620    3.187987   -0.780074
6

C     -1.329515    0.029591    0.280667
H     -2.285091    0.637253   -0.013210
H     -1.649783   -0.332937    1.279898
C     -0.988484    1.439723    0.169611
H     -0.068173    1.462866   -0.375957
H     -1.209404    2.430732    0.709302
6

C     -1.963551    0.455488    0.100125
H     -1.215752    2.280730    0.819409
H     -2.805098   -0.197528   -0.041373
C     -0.576423    1.254909    0.312892
H      0.422405    1.642677   -0.323480
H     -0.147130    0.637214    1.008927
6

C     -1.941092    0.343334    0.106280
H     -0.230107    0.686905    1.227053
H     -2.954790   -0.236133   -0.079211
C     -0.539185    1.350510    0.415102
H     -1.028543    2.207248    0.681298
H      0.325189    1.771317   -0.255896
6

C     -1.154206    1.468400    0.112768
H     -0.101820    1.330627   -0.070530
H     -0.838051    2.234936    0.903648
C     -1.513737    0.225038   -0.041014
H     -1.427134    0.394948    1.149632
H     -2.495501    0.013279   -0.004193
6

C     -1.006972    1.604628    0.316980
H     -0.666088    2.375834    0.762139
H      0.009040    1.358733   -0.040026
C     -2.096117    0.482965    0.179022
H     -2.669560   -0.446382   -0.343867
H     -1.100754    0.291450    1.176062
6

C     -0.320799    2.219983   -1.856887
H     -0.384632    1.669880   -2.652212
H     -0.260883    2.533514   -0.774638
C     -1.514056    0.191001   -0.037987
H     -1.370295    0.233548    1.254668
H     -2.744371    0.172482    0.025957
6

C      1.686825    0.759514   -2.662334
H      1.933218   -0.250980   -3.059439
H      1.442907    1.572852   -2.189089
C     -1.495620    0.190262   -0.071659
H     -1.372472    0.234339    1.281302
H     -2.760630    0.172429    0.032996
6

C     -6.776643    0.901809   -0.824274
H     -7.320946    1.879547   -0.989902
H     -6.158978   -0.050122   -0.708748
C     -0.863938    1.313136    0.145029
H     -1.283477    2.326602    0.929340
H      0.245687    1.430458   -0.266696
6

C     -0.862996    1.354621    0.297855
H     -1.256882    2.295460    0.763758
H      0.147828    1.408455   -0.154447
C     -1.606447    0.155739   -0.250556
H     -0.361553   -0.750008   -1.931076
H     -2.559923    0.222001    0.210963
6

C     -0.898141    1.298308    0.084512
H      0.199537    1.508616   -0.043365
H     -1.241973    2.207677    0.768955
C     -1.642167    0.161555   -0.197103
H     -2.555675    0.260119    0.254574
H      0.332857   -0.385094   -1.189605
6

C     -0.888893    1.315178    0.231273
H      0.122230    1.591642   -0.096944
H     -1.070862    2.264336    0.730223
C     -1.565196    0.081779   -0.108327
H     -2.735699    0.183342    0.111349
H     -1.762717   -2.240925   -0.083031
6

C     -1.408551    0.039962    0.309526
H     -2.121515    0.650209    0.001506
H     -1.859752   -0.224411    1.341340
C     -0.863604    1.337050    0.119479
H     -0.088921    1.639458   -0.481117
H     -1.188108    2.224960    0.759578
6

C     -1.480180    0.020156    0.129332
H     -1.327161    0.343457    1.097735
H     -2.672216    0.173146   -0.100867
C     -1.031621    1.397486    0.144080
H     -1.029991    2.346218    0.955950
H      0.010720    1.386766   -0.175919
6

C     -1.384584    0.057935    0.214228
H     -1.626738   -0.027432    1.242179
H     -2.383917    0.563487    0.024905
C     -0.912661    1.381238    0.222478
H     -1.273138    2.150169    0.747267
H      0.050588    1.541831   -0.400745
6

C     -0.697514    1.460248    0.421747
H     -1.026061    2.504296    1.021783
H     -2.478768   -0.458941   -0.141634
C     -2.114906    0.474943    0.083716
H     -1.323437    0.468070    0.956239
H      0.110236    1.218611   -0.291540
6

C     -1.683687   -0.033880    0.058564
H     -1.126466   -0.643899   -0.323415
H     -0.801004    2.464963    0.899124
C     -1.132202    1.556934    0.211938
H     -1.370629    0.218772    1.230181
H     -2.682476   -0.020354   -0.158765
6

C     -1.564878    0.101750    0.094029
H     -1.413043    0.265484    1.152031
H     -1.027334    2.196930    0.837542
C     -1.195608    1.364066    0.165524
H     -2.469133    0.258205   -0.008084
H     -1.515244   -0.908955   -0.066996
6

C     -1.056643    1.487141    0.150320
H     -1.951026    1.814986   -0.625441
H     -2.671432   -0.124676   -0.268509
C     -1.718908    0.279905    0.331167
H     -0.840839    2.300844    0.914814
H      0.149401    1.493062   -0.260219
6

C     -1.829103    0.241539    0.208621
H     -1.100103   -0.496417    0.574146
H     -0.796865    2.264702    0.976592
C     -0.994976    1.491126    0.160503
H     -1.274757    0.450356    1.190148
H     -2.774296   -0.261288   -0.294822
6

C     -0.966954    1.558285    0.253299
H     -0.731170    2.466553    0.931247
H     -2.674941   -0.460195   -0.197790
C     -1.867713    0.452417    0.050458
H     -1.261003    0.394779    1.095884
H     -0.028669    1.255389   -0.082787
6

C     -1.138374    1.377154    0.246238
H     -1.030287    2.248493    0.887946
H      0.082485    1.521689   -0.348467
C     -1.533866   -0.074456    0.134844
H     -1.451526    0.236089    1.272303
H     -2.458881    0.358259   -0.142553
6

C     -1.173541    0.200990    0.255359
H     -2.377846    0.478347    0.070401
H     -1.708546   -0.051911    1.167850
C     -1.018702    1.559629    0.125900
H      0.132580    1.255044   -0.492723
H     -1.384395    2.225129    0.923524
6

C     -1.119111    1.954318    0.144123
H     -0.401615    0.968530   -0.060349
H     -0.569943    2.170683    0.928211
C     -1.904358    0.621000    0.192712
H     -2.175163   -0.446629   -0.294975
H     -1.360260    0.399326    1.140590
6

C     -1.994854    0.533228    0.401075
H     -1.074685    0.093916    1.105028
H     -2.478532   -0.061912   -0.316073
C     -0.992459    1.409971    0.239689
H     -1.187507    2.477846    0.873220
H      0.197587    1.214180   -0.252628
6

C     -0.898324    1.319237    0.423589
H      0.173619    1.346497   -0.295239
H     -1.082415    2.566047    0.821852
C     -1.969090    0.460644    0.422277
H     -1.076959    0.121911    1.059423
H     -2.677280   -0.147108   -0.381591
6

C     -1.642434    0.122724    0.226940
H     -1.482803    0.158817    1.318257
H     -2.673472    0.296571   -0.140876
C     -0.596509    1.077847    0.162955
H     -1.515957   -0.955931    0.076334
H      0.034546    1.796514   -0.330504
6

C     -0.517318    1.292965    0.124357
H     -1.131985    1.784970    0.975872
H     -0.310698    1.823394   -0.720128
C     -1.234775   -0.080716    0.578643
H     -2.109262    0.232786    1.265334
H     -2.226412    0.613828   -0.173766
6

C     -1.550311    0.025026   -0.008567
H     -1.614909    0.243302    1.116321
H     -2.628555   -0.031387    0.074547
C     -1.003798    1.589983    0.134856
H     -0.872424    2.359511    0.923884
H     -0.864626   -0.473561    0.492752
6

C     -0.734586    1.214586    0.416620
H     -0.601044    1.099554    1.702929
H      0.172686    1.639403   -0.382796
C     -1.769057    0.341691    0.254929
H     -2.685296    0.038420   -0.184374
H     -1.122166    2.202177    0.763193
6

C     -0.641297    1.312375    0.189397
H     -1.341802    2.035738    0.753764
H      0.217897    0.181947    1.066948
C     -1.841963    0.637074    0.055268
H     -2.645943   -0.054170    0.093115
H      0.332585    1.505258   -0.223971
6

C     -1.706506    0.289775    0.089139
H     -2.705847    0.148940   -0.016791
H     -1.272349    0.085914    1.147178
C     -0.707945    1.211180    0.250023
H     -1.277349    2.450626    0.771492
H     -0.940648    1.827471   -1.146420
6

C     -1.736262    0.301247    0.130914
H     -1.676931   -0.058576    1.186701
H     -2.613808   -0.307653   -0.023466
C     -0.879727    1.584247    0.003202
H     -0.011768    0.260367    0.340870
H     -0.763270    2.667169    0.943691
6

C     -1.087266    1.467918    0.524810
H     -0.218414    1.256725   -0.101193
H     -0.677033    2.580294    0.769728
C     -2.107672    0.298385    0.325420
H     -1.140247    0.297067    0.872862
H     -2.299817   -0.233160   -0.341316
6

C     -1.636556   -0.070888    0.073917
H     -2.736863    0.173420    0.007829
H     -1.315510    0.348620    1.100345
C     -0.850136    1.580438    0.073140
H      0.172326    1.435659   -0.127891
H     -1.163711    2.199978    0.922972
6

C     -0.816692    1.373583    0.091952
H     -1.212657    2.384059    0.840411
H      0.295718    1.744141   -0.362095
C     -1.477755   -0.205853    0.153607
H     -1.619002   -0.072956    1.295697
H     -2.700063    0.444254    0.030739
6

C     -0.794404    1.454359    0.189584
H     -1.353961    2.162793    0.854388
H      0.313760    1.672844   -0.465617
C     -1.592914   -0.228146    0.170639
H     -1.564126    0.062793    1.319029
H     -2.538805    0.542585   -0.017711
6

C     -1.540614    0.092344   -0.135230
H     -2.786603    0.148020    0.144627
H     -0.714585   -2.240435   -0.301394
C     -0.870253    1.339458    0.146753
H      0.193198    1.538793   -0.096140
H     -1.134148    2.317661    0.807563
6

C     -1.107910    1.582969    0.194077
H     -0.878549    2.271933    0.846197
H     -0.918361   -0.847149   -0.133655
C     -1.656227    0.056168    0.277692
H     -2.706729    0.042565   -0.207515
H     -1.320582    0.232798    1.130591
6

C     -0.837617    1.331975    0.188719
H      0.221178    1.485031   -0.148637
H     -1.238717    2.237233    0.790351
C     -1.588885    0.226387   -0.121055
H     -2.694378    0.155650    0.158195
H     -0.034004   -2.264308    0.213696
6

C     -1.580776    0.248791   -0.242253
H     -1.878766    0.528502   -2.414308
H     -2.593367    0.066910    0.167321
C     -0.933680    1.466139    0.276994
H     -1.266811    2.410781    0.891785
H      0.236213    1.243655   -0.226275
6

C     -1.770041    0.464757    0.252016
H     -1.121152    2.315084    0.870672
H     -2.813890   -0.256790   -0.272730
C     -0.585035    1.524555    0.499547
H     -0.747330    1.364481    1.636931
H      0.151697    1.388670   -0.481932
6

C     -1.068527    1.344358    0.316285
H     -2.660955    0.246113   -0.027405
H     -1.051710    2.644467    0.690842
C     -1.545293    0.087837    0.044765
H     -1.858121   -0.261571   -0.835460
H     -1.343512   -0.136341    1.216554
6

C     -0.717380    1.405294    0.120238
H     -2.722381    0.045098   -0.004333
H      0.151642    1.514944   -0.262346
C     -1.566297    0.395238    0.125690
H     -1.640775    0.543557   -0.942703
H     -1.506256    0.091898    1.257521
6

C     -2.045301    0.436419    0.422922
H     -1.051047    0.374605    0.923148
H     -2.386450   -0.212304   -0.372437
C     -1.061175    1.559886    0.293523
H     -0.871577    2.364343    0.881216
H     -0.114900    1.144279   -0.098061
6

C     -1.391729    0.007230    0.019498
H     -1.868354   -0.193220    1.282618
H     -2.676339    0.205766    0.165569
C     -0.712001    1.459413    0.173329
H     -1.116402    2.514061    0.819800
H      0.234375    1.673978   -0.410504
6

C     -1.115649    1.520405    0.200992
H     -2.640381   -0.048701   -0.233756
H     -0.838527    2.337975    0.827258
C     -1.765026    0.201743    0.221946
H     -1.310415    0.175012    1.224602
H     -1.420701   -0.781114    0.073785
6

C     -1.894962    0.442369    0.168173
H     -0.756770    2.186910   -0.622170
H     -2.733220   -0.260486   -0.097855
C     -0.563679    1.697521    0.149349
H      0.205566    1.361484   -0.253243
H     -1.152125    2.195388    0.901148
6

C    -21.102189    7.461512  -25.892245
H    -21.499614    6.994989  -25.012472
H    -20.472559    7.858507  -26.742636
C     -1.628825    0.191849    0.050887
H     -2.630350    0.173926    0.011266
H     -1.369548    0.231257    1.180485
6

C    -40.696933    1.652148  -12.661698
H    -40.036397    0.987108  -12.023648
H    -41.149130    2.217806  -13.392043
C     -1.548594    0.191728    0.003962
H     -2.674271    0.174450    0.051682
H     -1.405857    0.230853    1.186994
6

C    -41.902474  -11.945614   -0.567009
H    -41.324907  -11.051930   -0.428350
H    -42.644445  -12.751095   -0.644708
C     -1.529393    0.192333    0.013112
H     -2.650832    0.176002    0.089090
H     -1.448498    0.228697    1.140436
6

C    -13.481111   -6.134430   41.012774
H    -12.657184   -5.685263   40.699763
H    -14.551441   -6.421341   41.301152
C     -1.537497    0.191611   -0.005765
H     -1.495236    0.227109    1.114391
H     -2.595990    0.178311    0.134013
6

C    -42.860142   10.451865   29.825684
H    -43.165874   11.413887   29.739444
H    -42.588567    9.413478   30.170246
C     -1.555078    0.190220   -0.041106
H     -1.385371    0.232969    1.244096
H     -2.688274    0.173842    0.039648
6

C     -1.882649   -1.795916   -0.362752
H     -2.477244   -2.127143   -1.148940
H     -2.139724   -2.101342    0.716529
C     -1.516016    0.192003   -0.004688
H     -1.416477    0.230598    1.184473
H     -2.696229    0.174430    0.062854
6

C     -3.598900   -5.666698   -0.327432
H     -3.133314   -6.404458    0.368867
H     -4.033996   -5.156968   -1.136113
C     -0.882984    1.299451    0.145160
H      0.169864    1.488300   -0.199423
H     -1.188608    2.282445    0.861937
6

C      7.011485    6.048593  -12.650940
H      6.578917    6.910159  -13.144772
H      7.208248    5.126437  -12.158588
C     -1.549574    0.191026   -0.018129
H     -1.457372    0.229135    1.159307
H     -2.621776    0.176870    0.101460
6

C      6.464898   15.576740    1.342108
H      6.629274   15.644691    2.349195
H      6.474742   15.564607    0.201576
C     -1.551350    0.191060   -0.016078
H     -1.431073    0.230258    1.181349
H     -2.646301    0.175713    0.077367
6

C      6.777195    8.276706   14.341577
H      7.206670    7.457393   13.894362
H      6.086543    9.093979   14.741214
C     -1.535060    0.191228   -0.019401
H     -1.407070    0.231416    1.205736
H     -2.686593    0.174387    0.056304
6

C     11.213092  -12.264276  -18.718637
H     10.877817  -12.435183  -17.771625
H     11.756517  -11.912493  -19.696819
C     -0.846805    1.367714    0.170029
H      0.082906    1.498281   -0.155762
H     -1.137828    2.204201    0.793406
6

C      9.788235  -20.450241  -12.060916
H      9.183985  -19.636546  -12.291661
H     10.376145  -21.400556  -12.007763
C     -0.823966    1.380747    0.167865
H      0.076029    1.484513   -0.160960
H     -1.153790    2.204937    0.800768
6

C     22.994940  -18.154105    9.792411
H     23.254555  -18.683909    8.795380
H     22.955952  -17.677314   10.695196
C     -0.833243    1.361635    0.160533
H      0.076691    1.494448   -0.155344
H     -1.145175    2.214113    0.802484
6

C     -1.603942   -0.003865   -0.055813
H     -1.331181   -0.331377    1.042885
H     -2.200310    0.672228    0.400823
C     -1.038107    1.614956   -0.070126
H     -0.037892    1.276627    0.210884
H     -1.319020    2.438659    0.521658
6

C     -1.788922    0.433187   -0.083463
H     -1.250368    0.303528    1.248758
H     -2.762337   -0.323886   -0.094465
C     -0.953312    1.533964    0.134320
H      0.130095    1.295256   -0.074638
H     -0.905606    2.425178    0.919799
6

C     -1.939756    0.303922   -0.003163
H     -1.209893    0.356822    1.021236
H     -2.761612   -0.102109    0.056716
C     -0.701962    1.425938    0.308288
H      0.266081    1.474323   -0.078888
H     -1.183309    2.208332    0.746123
6

C     -0.732463    1.242279   -0.162324
H     -2.722675    0.017498    0.178652
H      0.211460    1.587145    0.107683
C     -1.800930    0.362880    0.030359
H     -1.565769   -0.530238   -0.603665
H     -1.316065    0.242670    1.082401
6

C     -0.678247    1.179497    0.081339
H     -2.755719    0.218267   -0.042083
H      0.216700    1.789258   -0.262164
C     -1.652284    0.132918    0.225714
H     -0.862793   -0.494644    0.019012
H     -1.491122    0.132533    1.233966
6

C     -0.891585    1.421735    0.256753
H      0.044386    1.299390   -0.100105
H     -1.050787    2.380913    0.780302
C     -2.016692    0.496532    0.502158
H     -0.997442    0.195268    0.960153
H     -2.618330   -0.126609   -0.348950
6

C     -0.917535    1.538124    0.037534
H      0.193362    1.276313    0.000371
H     -0.974769    2.088438    0.884449
C     -2.082475    0.750997    0.035549
H     -1.484482    0.436802    0.901135
H     -2.264550   -0.423446    0.191274
6

C     -0.556501    1.338999    0.395652
H     -1.369241    1.962481    0.641508
H      0.033022    1.203414    1.339346
C     -1.609143    0.316849    0.066129
H      0.183996    1.599712   -0.292279
H     -2.787531    0.218235    0.056562
6

C     -1.469705   -0.014199    0.165268
H     -2.624723    0.219119   -0.007170
H     -0.611694   -0.934273   -0.157508
C     -1.136035    1.524446    0.179283
H     -1.470606    0.104072    1.092014
H     -0.968927    2.352996    0.811646
6

C     -1.795804    0.239792   -0.216843
H     -2.667343    0.096617    0.312791
H     -1.231384    0.259299    1.111886
C     -0.897108    1.433284   -0.115623
H     -1.136039    2.148769    0.702210
H      0.197229    1.489467    0.255891
6

C     -1.672852    0.213180    0.158375
H     -2.701465   -0.042135   -0.342686
H     -1.187514    0.271603    1.286928
C     -1.153121    1.363123    0.250566
H     -0.870050    2.479139    0.933798
H      0.054553    1.382317   -0.236670
6

C     -0.943726    1.472716    0.035294
H     -0.025528    1.367201   -0.175126
H     -1.139604    2.202309    0.905920
C     -1.498168    0.119678    0.148752
H     -2.351885   -0.337946    1.804639
H     -2.531394    0.274372   -0.047267
6

C     -0.747273    1.235629    0.362898
H      0.372798    1.638833   -0.289350
H     -1.379270    2.035750    0.675771
C     -1.594074    0.283309   -0.007549
H     -1.061031    0.073007    1.704182
H     -2.790600    0.242755    0.125803
6

C     -0.826575    1.271839    0.444455
H     -1.098482    2.376599    0.867148
H     -0.426340    1.295264    1.771136
C     -1.696317    0.371915    0.195701
H      0.209461    1.493708   -0.434598
H     -2.726508   -0.077786   -0.205133
6

C     -1.533777    0.056867    0.147606
H     -2.699029    0.062967   -0.171809
H     -0.536678   -0.813106   -0.354013
C     -1.211966    1.467460    0.085674
H     -1.382870    0.175560    1.254739
H     -0.842354    2.423580    0.924832
6

C     -1.551966    0.339001    0.314315
H     -2.674136    0.369738   -0.117712
H     -1.594990   -0.040937    1.358822
C     -0.391901    1.322121    0.463080
H     -1.260282    1.868516    0.483989
H     -0.057174    1.808788   -0.452183
6

C     -1.667053    0.186588    0.120223
H     -1.744479   -0.818091   -0.254056
H     -1.488585    0.200518    1.250630
C     -0.598324    1.172624    0.162424
H     -2.821159    0.117494   -0.021362
H      0.214448    1.775249   -0.275143
6

C     -1.508554    0.082280    0.313128
H     -2.636093    0.378587   -0.122965
H     -2.278031    0.144788   -1.141194
C     -0.899324    1.335771    0.137458
H     -1.148686    2.028198    0.787547
H      0.054237    1.611440   -0.247596
6

C     -1.653080    0.418163    0.214240
H     -1.407530    0.069076    1.281463
H     -2.579553    0.113875   -0.101296
C     -0.879561    1.389460    0.114730
H     -2.620706    1.165773    1.295125
H      0.159052    1.461900   -0.272365
6

C     -1.481161    0.051685    0.061695
H     -2.546741    0.391546   -0.050076
H     -1.450760    0.097380    1.239998
C     -0.789866    1.239439    0.364910
H     -0.037913    1.504796   -0.352810
H     -1.224009    2.382381    0.786594
6

C     -0.469998    1.175992    0.380662
H     -0.018011    1.714473   -0.534715
H     -1.424934    1.980549    0.599984
C     -1.531258    0.377507    0.371148
H     -2.432336    0.510735   -0.068558
H     -1.653913   -0.092028    1.301790
6

C     -1.653946    0.325369    0.314017
H     -2.653888   -0.040626   -0.235089
H     -1.631991    1.427426   -0.455972
C     -0.909169    1.506529    0.190220
H     -1.058476    2.261970    0.945952
H      0.137058    1.383034   -0.347528
6

C     -1.750033    0.203818    0.398508
H     -2.578087    0.097424   -0.276530
H     -1.616599    1.356672   -1.139139
C     -0.904976    1.301130    0.187077
H     -0.960820    2.211316    0.852786
H      0.055496    1.622589   -0.294269
6

C     -1.044229    1.492674    0.145044
H     -1.127503    2.383422    0.966865
H      0.213514    1.243620   -0.239774
C     -1.646711    0.354091   -0.002646
H     -2.533491   -0.037531   -0.001917
H     -0.893864    0.401503    1.503835
6

C     -0.902239    1.416374    0.300217
H     -0.003250    1.315085   -0.111178
H     -1.095786    2.248698    0.665962
C     -2.002967    0.572056    0.319781
H     -1.122348    0.122058    1.080159
H     -2.403859   -0.007044   -0.204630
6

C     -0.777913    1.573647   -0.032430
H     -1.134534    2.442069    0.569428
H      0.256236    1.554700    0.283687
C     -1.846497    0.022567   -0.186813
H     -2.570862    0.150733    0.551900
H     -1.456880   -0.076488    0.864539
6

C     -0.929934    1.434369    0.062887
H     -0.934587    2.172944    1.030004
H      0.108587    1.487226   -0.116220
C     -1.640694    0.058622    0.129882
H     -2.929814   -0.080193   -0.215008
H     -1.204009    0.594259    1.158767
6

C     -2.115478    0.793684    0.104698
H     -2.108271   -0.426838   -0.066185
H     -1.609328    0.210560    1.066423
C     -0.714497    1.407797    0.463061
H     -0.003440    1.253625   -0.394779
H     -0.979437    2.428400    0.877093
6

C     -1.810506    0.485571    0.077576
H     -2.688889   -0.255230   -0.166865
H      0.239951    1.284498    1.484943
C     -0.749916    1.320245    0.476090
H      0.067108    1.464370   -0.316013
H     -0.956217    2.421320    0.796784
6

C     -1.564836    0.257253    0.079018
H     -2.695788    0.211565   -0.054269
H      0.641860    1.969105    1.481558
C     -0.629886    1.290771    0.485861
H      0.012489    1.516395   -0.349417
H     -1.260398    2.160291    0.706380
6

C     -1.748120    0.389605    0.124641
H     -2.733629   -0.105798   -0.163567
H     -0.933368    2.322836    0.708113
C     -0.729399    1.204112    0.468386
H     -0.290700    1.332190    1.538235
H      0.006095    1.625521   -0.270000
6

C     -1.494159   -0.207110    0.230163
H     -2.300828    0.505755    0.034693
H     -1.890599   -0.224170    1.255174
C     -0.713979    1.525642    0.264615
H      0.035773    1.647917   -0.533740
H     -1.166659    2.419193    0.799406
6

C     -1.848445    0.575460    0.116844
H     -2.592368   -0.135392   -0.223083
H     -1.147125    0.160455    1.268387
C     -0.929250    1.454435    0.255688
H      0.068897    1.237361   -0.183712
H     -1.082158    2.374909    0.816188
6

C     -1.474551    0.171816    0.041450
H     -1.765064   -0.015988    1.190711
H     -2.383652    0.389401    0.205656
C     -0.772698    1.284288    0.260016
H     -1.197904    2.183504    0.680342
H      0.063418    1.654207   -0.327863
6

C     -1.702783    0.363400   -0.099703
H     -1.199732    0.419034    1.121514
H     -2.731470   -0.056815    0.069550
C     -0.810243    1.521434    0.106957
H     -1.217608    2.170519    0.886011
H      0.131386    1.249656   -0.034018
6

C     -1.710484    0.175293    0.111754
H     -1.180315    0.440480    1.141573
H     -2.930910   -0.040205   -0.116043
C     -0.899671    1.351070    0.098301
H      0.197258    1.566362   -0.053292
H     -1.006327    2.174228    0.868019
6

C     -0.891905   -1.656176   -0.410319
H     -0.709198   -1.853043    0.677863
H     -1.930294   -1.911150   -0.186757
C     -1.652207    0.191913    0.065513
H     -2.596538    0.174709    0.018347
H     -1.379978    0.230409    1.158778
6

C     -2.346368    2.309664    1.250309
H     -2.601802    2.701034    0.197076
H     -1.717384    2.209062    2.096720
C     -1.475837    0.189805   -0.097004
H     -1.588291    0.225348    1.107645
H     -2.564595    0.181878    0.231998
6

C     -0.339630   -2.241703   -1.575954
H      0.395971   -1.568372   -1.214532
H     -0.917639   -3.105908   -1.673941
C     -1.560948    0.188176   -0.103785
H     -2.533922    0.180866    0.182949
H     -1.533853    0.227990    1.163474
6

C     -0.870270    1.375937    0.147858
H      0.240747    1.525453   -0.178364
H     -1.378315    1.976466    0.732337
C     -1.591323    0.132602   -0.005747
H     -2.539259    0.425818    0.171489
H      0.159842   -1.075862    0.607195
6

C     -1.054823    1.401651    0.161481
H     -1.020049    2.137877    1.038163
H      0.036961    1.459274   -0.301784
C     -1.529923   -0.073839    0.250667
H     -1.365519    0.521356    1.115206
H     -2.597097    0.220909   -0.213422
6

C     -0.613364    1.502541    0.391815
H     -0.980672    2.401965    0.700374
H     -0.027505    1.667455   -0.561690
C     -1.213661    0.250264    0.344744
H     -2.157413   -0.284126    1.049144
H     -2.537835    0.129129    0.125925
6

C     -1.057182    1.452669    0.154601
H     -1.166722    2.289886    0.658626
H     -0.070486    1.483560   -0.278204
C     -1.295765    0.038609    0.358879
H     -1.529066   -0.231924    1.205322
H     -2.411229    0.634428   -0.048912
6

C     -1.397549    0.405808    0.257425
H     -1.248293   -0.116015    1.095646
H     -2.478267    0.179748   -0.073622
C     -1.088236    1.781978   -0.019649
H     -1.129022    2.468356    0.821028
H     -0.189083    0.947353   -0.030516
6

C     -0.773269    1.081782    0.128349
H     -0.692646   -1.217628    0.817627
H      0.122016    1.807234   -0.327154
C     -1.614951    0.037562    0.292873
H     -1.531929    0.123380    1.222256
H     -2.562540    0.402515   -0.079554
6

C     -1.014774    1.499082    0.149980
H     -0.098284    0.015533   -0.438399
H     -1.069176    2.528894    0.646607
C     -1.586096    0.230046    0.144875
H     -1.399612   -0.320585    1.362808
H     -2.600339    0.248998   -0.063229
6

C     -0.613035    1.157486    0.189452
H     -1.497603    0.185334    1.239641
H      0.212916    1.782078   -0.316664
C     -1.625339    0.193768    0.184017
H     -2.837612    0.133807   -0.059675
H     -1.611040   -1.331681    0.130700
6

C     -0.678146    1.202412   -0.005144
H     -1.624718    0.024795    1.485085
H      0.148035    1.772865   -0.279953
C     -1.511739    0.176146   -0.007968
H     -2.694105    0.276254    0.044750
H     -1.745596   -1.000915    0.287528
6

C     -0.597639    1.165002    0.226102
H     -1.686395   -0.920398   -0.066918
H      0.219500    1.703293   -0.348226
C     -1.794973    0.423790    0.316843
H     -1.231917    0.182941    1.386573
H     -2.955643   -0.022554   -0.344521
6

C     -0.671473    1.370669    0.256391
H     -1.101747    2.197421    0.923300
H      0.054045    1.629275   -0.444612
C     -1.364956    0.044765    0.159801
H     -0.877241   -0.385410   -1.795159
H     -1.785985    0.250903    1.119410
6

C     -0.887936    1.280151    0.211736
H     -1.250876    2.184695    0.681775
H      0.213665    1.546464   -0.044913
C     -1.626025    0.137198   -0.291299
H     -0.364112   -0.297502   -2.026808
H     -2.587249    0.287768    0.310272
6

C     -1.494360    0.352307    0.214430
H     -1.710828   -0.014720    1.243269
H     -2.586320    0.454561    0.141869
C     -0.411249    1.400186    0.415957
H      0.101782    1.769109   -0.428754
H     -1.429475    1.705786    0.463541
6

C     -1.645895    0.348775    0.167341
H     -2.508323   -0.244760   -0.218947
H     -1.463793    0.219616    1.258239
C     -1.289029    1.660701    0.017464
H     -0.408669    2.251660    0.808047
H     -0.214741    1.431235    0.018167
6

C     -0.544718    1.284609    0.574323
H     -0.724977    1.414968   -0.549638
H     -0.870036    2.262468    0.994998
C     -1.379880   -0.018039    0.264740
H     -2.291888    0.207591   -0.319958
H     -1.718951    0.515631    1.085847
6

C     -0.560124    1.276307    0.421262
H     -0.996486    1.187107    1.798089
H     -1.190856    2.127511    0.688975
C     -1.847531    0.649850    0.092361
H     -2.655058   -0.135200   -0.046913
H      0.115149    1.517808   -0.288113
6

C     -0.866888    1.408446    0.278485
H     -1.795406    2.302861   -1.198177
H      0.266931    1.546278   -0.174903
C     -1.717725    0.258678   -0.048378
H     -2.783506   -0.074889    0.036995
H     -1.037232    2.297763    0.775374
6

C     -0.773942    1.418450    0.173462
H      0.175618    1.429269   -0.126714
H     -1.301299    2.147185    0.763529
C     -1.552944    0.249915   -0.142639
H     -0.514754   -1.620346   -2.155864
H     -2.685853    0.191458    0.199935
6

C     -0.832912    1.275036    0.246512
H      0.078630    1.545031   -0.063314
H     -1.189915    2.130247    0.650568
C     -1.596413    0.237621   -0.179049
H     -1.067710   -0.956716   -2.731811
H     -2.597810    0.248342    0.212855
6

C     -0.875388    1.397652    0.243911
H     -0.081042    0.547410    1.139879
H     -1.138705    2.314056    0.932370
C     -1.669287    0.495609    0.184978
H      0.212913    1.350273   -0.351203
H     -2.667953   -0.121313   -0.142483
6

C     -0.535937    1.193825    0.131309
H     -1.101690    1.867366    0.859038
H     -0.427916    1.839561   -0.603910
C     -1.254415   -0.048639    0.497814
H     -2.160053    0.120489    1.196965
H     -2.050439    0.694626   -0.030905
6

C     -0.986607    1.290929    0.130686
H     -0.886396    2.603576    0.774241
H      0.037232    1.432110    0.042145
C     -2.067148    0.362796    0.416409
H     -0.975045    0.106863    1.015982
H     -2.652487   -0.129046   -0.329151
6

C     -1.026218    1.573762    0.374227
H     -1.025165    2.307870    0.810338
H      0.032810    1.145862   -0.182264
C     -2.033534    0.529047    0.410568
H     -1.024529    0.278245    0.996464
H     -2.453814   -0.167557   -0.359022
6

C     -0.841839    1.362409    0.028729
H     -0.097700    1.619988   -0.470286
H     -1.096853    2.205807    0.892727
C     -1.175549    0.078453    0.396715
H     -2.375238    0.470266    0.005677
H     -1.943271   -0.069695    1.196749
6

C     -0.914499    1.444030    0.072529
H      0.322362    1.447826   -0.072536
H     -1.116115    2.251090    0.924277
C     -1.775953    0.193228    0.026311
H     -2.874730   -0.072023   -0.044756
H     -1.171515    0.403077    1.144487
6

C     -0.855291    1.326010    0.165678
H      0.184490    1.505730   -0.058674
H     -1.067933    2.314273    0.772644
C     -1.713526    0.332493   -0.161911
H     -2.686160   -0.042231    0.149835
H     -0.895606    0.394492    1.714316
6

C     -0.794454    1.232383    0.277830
H      0.158738    1.487234   -0.342767
H     -1.389380    2.182881    0.832680
C     -1.463696    0.150747    0.084633
H     -2.649628    0.383030    0.015197
H     -0.401189   -0.027990    1.658626
6

C     -0.822389    1.229024    0.252924
H      0.128546    1.578791   -0.303636
H     -1.241084    2.123773    0.788009
C     -1.519630    0.212001    0.195564
H     -2.683864    0.292686   -0.065288
H     -0.460765    0.216723    1.652688
6

C     -0.754278    1.354157    0.185426
H      0.262226    1.577182   -0.243033
H     -1.072639    2.306991    0.867897
C     -1.769958    0.307289    0.145580
H     -2.803772   -0.109344   -0.088297
H     -0.362527    0.863815    0.889701
6

C     -1.574326   -0.117166    0.061550
H     -1.604926    0.143473    1.079727
H     -2.641010   -0.041151    0.012710
C     -1.085412    1.684526    0.174565
H     -0.764323    2.516752    0.912490
H     -1.246876   -0.903928   -0.611712
6

C     -0.947940    1.420905    0.012654
H     -1.087524    2.225346    0.807529
H      0.261986    1.440417   -0.004447
C     -1.669869    0.421519   -0.140892
H     -2.695073   -0.071911    0.192729
H     -1.554256    1.951274   -1.438180
6

C     -0.811205    1.496898    0.179720
H     -1.102448    2.355527    0.884558
H      0.108655    1.324710   -0.172673
C     -1.734353    0.353429   -0.047124
H     -2.599069   -0.094288    0.023092
H     -1.959701    1.795180   -1.302084
6

C     -1.622673    0.124606   -0.146570
H     -2.602727    0.244014    0.191856
H      0.003152   -1.444397   -1.012553
C     -0.957196    1.358982    0.185612
H      0.317700    1.479849   -0.168198
H     -1.273525    2.228825    0.804873
6

C     -0.887263    1.383467    0.162415
H     -1.111003    2.326134    0.797681
H      0.018770    1.397728   -0.060722
C     -1.577241    0.186316   -0.187808
H      0.047412   -1.036739   -1.858777
H     -2.581683    0.142631    0.156007
6

C     -0.783736    1.360661    0.152598
H      0.104179    1.456666   -0.149156
H     -1.210452    2.292657    0.750462
C     -1.586886    0.320574   -0.146804
H     -2.644726    0.153976    0.110136
H     -1.408830    0.082694    1.333075
6

C     -1.457014    0.000642    0.034649
H     -2.529514    0.465510    0.284517
H     -1.856377    0.009440    1.287254
C     -0.689166    1.425094    0.070637
H      0.275576    1.825993   -0.333211
H     -1.273955    1.940550    0.706467
6

C     -0.638536    0.985213    0.384579
H     -1.229258    2.145839    0.521567
H      0.113910    1.619525   -0.027471
C     -1.849797    0.681636   -0.328160
H     -2.534740    0.004063    0.317058
H     -2.049102    1.710341   -1.497464
6

C     -1.554686    0.113669   -0.075045
H     -0.049171   -1.571689    0.163041
H     -2.481244    0.336868    0.126573
C     -0.890281    1.412815    0.159589
H     -1.328802    2.227597    0.861855
H      0.116593    1.345327   -0.205400
6

C     -0.741579    1.176805    0.084837
H      0.183289    1.631503   -0.388108
H     -1.644594    1.933461    0.810789
C     -1.423379   -0.081548    0.267611
H     -1.339630    0.150153    1.316724
H     -2.564557    0.856854   -0.041543
6

C     -0.770248    1.115219    0.151581
H     -0.127954    1.767268   -0.278341
H     -1.280551    1.932164    0.643831
C     -1.433125    0.017030    0.233725
H     -1.513582    0.084583    1.323716
H     -2.404989    0.750964   -0.024200
6

C     -1.524203    0.023757    0.007919
H     -1.507053    0.029388    1.315581
H     -2.999009    0.037436   -0.022933
C     -0.821842    1.329126    0.197228
H     -0.971856    2.495122    0.800292
H      0.293513    1.752399   -0.247776
6

C     -0.889184    1.289829    0.167718
H      0.146941    1.563749    0.001211
H     -1.237423    2.113918    0.649892
C     -1.575436    0.118245   -0.271083
H     -2.583319    0.350535    0.319834
H     -0.155076   -0.579491   -1.869042
6

C     -1.532293    0.182745   -0.207442
H     -0.418868   -1.444267   -1.625011
H     -2.554039    0.329323    0.272464
C     -0.870735    1.431890    0.158533
H     -1.322391    2.085866    0.722616
H      0.141037    1.406451   -0.078599
6

C     -1.533593    0.312463   -0.217496
H     -1.114701    0.219860   -2.860057
H     -2.724097    0.052815    0.205544
C     -0.870511    1.441322    0.194294
H     -1.156725    2.236040    0.753813
H      0.146507    1.393635   -0.068583
6

C     -1.630936    0.149535    0.482382
H     -0.020312   -0.350502   -0.685639
H     -2.638516    0.129992   -0.350243
C     -0.889610    1.404918    0.185859
H      0.028016    1.534885   -0.374107
H     -1.007375    2.216946    0.923682
6

C     -1.443129   -0.076066    0.172186
H     -2.067863    0.774584    0.050030
H     -1.828225   -0.156360    1.273619
C     -0.634357    1.137799    0.396731
H     -1.322429    2.328784    0.701495
H     -0.234447    1.658487   -0.543749
6

C     -1.829850    0.365727    0.139927
H     -2.886490   -0.071794   -0.031231
H      0.386288    1.738280   -0.269524
C     -0.598449    1.142194    0.207212
H     -0.395464    0.753668    1.079644
H     -1.209919    2.261869    0.821188
6

C     -1.716976    0.287147    0.096293
H     -2.856127   -0.072053   -0.071060
H     -1.020057    2.274827    0.758265
C     -0.726526    1.291352    0.301273
H      0.181267    1.655004   -0.217198
H     -0.211282    1.389067    1.496170
6

C     -0.626322    1.328739    0.043478
H      0.268290    1.650296   -0.186740
H     -2.858188   -0.028973   -0.092017
C     -1.800956    0.365869    0.182417
H     -1.343495    0.136542    1.289633
H     -1.359801   -0.387669   -0.330684
6

C     -0.635446    1.212035   -0.116691
H      0.354615    1.928833   -0.165491
H     -2.415593   -0.995548   -0.508708
C     -1.573419    0.015409    0.118511
H     -2.906137    0.238440    0.128051
H     -1.600286    0.057755    1.272392
6

C     -1.783136    0.298647    0.199258
H     -2.767801   -0.084905   -0.201626
H     -1.161491    2.237605    0.795352
C     -0.662780    1.494796    0.551110
H      0.236788    1.490132   -0.476522
H     -0.025021    1.926046    1.411748
6

C     -1.606877   -0.017582    0.207962
H     -1.849986   -0.880220    0.939674
H     -2.801784    0.282912   -0.171697
C     -0.942526    1.299049    0.261734
H     -1.105478    0.496339    1.062020
H     -1.213331    2.125716    0.881022
6

C     -0.755713    1.280683    0.226813
H     -1.466546    1.907518    0.641099
H      0.416147    1.660817   -0.183451
C     -1.657818    0.206073   -0.080946
H      0.444805    0.200981    1.209931
H     -2.674489    0.381184    0.264058
6

C     -0.572758    1.303086    0.168678
H     -1.193212    2.306868    0.824591
H     -0.680892    2.232068   -0.716859
C     -1.877698    0.480684   -0.049719
H      0.305527    1.552226   -0.160541
H     -2.800279   -0.206588    0.084564
6

C     -1.797760    0.141647    0.323883
H     -1.467573    0.065514    1.366434
H     -1.474247   -0.917962   -0.336898
C     -0.615596    1.151901    0.091890
H     -2.744215    0.210829   -0.188256
H      0.264471    1.882581   -0.357181
6

C     -1.681046    0.372518    0.055935
H     -0.092519    1.278601   -0.152182
H     -2.604739   -0.247043   -0.154321
C     -0.971813    1.586613    0.233173
H     -0.677715    2.227806   -0.551302
H     -0.788303    2.445587    0.884967
6

C     -1.749630    0.540161   -0.082486
H      0.040882    1.333071    0.961204
H     -2.666810   -0.178583   -0.007078
C     -0.818147    1.379663    0.564210
H      0.232394    1.377705   -0.347728
H     -1.136227    2.317330    0.740655
6

C     -1.541271    0.392179   -0.081867
H      0.027615    1.111791   -0.111373
H     -2.549501   -0.074901    0.055532
C     -0.993816    1.646418    0.042758
H     -0.543601    2.389877   -1.367359
H     -1.081446    2.360789    0.962522
6

C     -0.412972    1.450657    0.535167
H     -0.088437    1.507828   -0.402906
H     -1.355824    2.018573    0.489226
C     -1.461405    0.515045    0.301573
H     -2.592178    0.265476    0.052751
H     -1.619633   -0.090351    1.074501
6

C     -1.349529    0.059865    0.195721
H     -1.604390   -0.083150    1.352695
H     -2.572013    0.486166   -0.046674
C     -0.811493    1.203707    0.094042
H     -1.223120    2.363546    0.830488
H      0.030096    1.637093   -0.375961
6

C     -0.855119    1.473642    0.186235
H      0.023455    1.443120   -0.290215
H     -0.962942    2.266443    0.904116
C     -1.697720    0.320340    0.330284
H     -2.646094   -0.067269   -0.262848
H     -0.349700    0.510133    0.504302
6

C     -0.909924    1.357793    0.305989
H     -1.120142    2.255874    0.922770
H      0.179848    1.438305   -0.448946
C     -1.842056    0.368030    0.365626
H     -2.446146    0.016275   -0.277866
H     -1.631145    1.173008   -1.224678
6

C     -0.697429    1.463055    0.482700
H     -1.271020    2.326891    0.867945
H      0.333609    0.703594    1.240303
C     -1.784498    0.420109    0.053700
H     -2.757110   -0.157874   -0.078492
H      0.371638    1.384094   -0.458281
6

C     -1.900933    2.136965    0.246091
H     -1.039530    2.196369    0.681597
H     -2.944566    2.175911    0.679371
C     -1.648314    0.191466    0.049039
H     -1.380660    0.230814    1.172204
H     -2.599748    0.174751    0.021395
6

C     -0.873908    1.344892    0.114083
H     -1.207982    2.208518    0.786601
H      0.231273    1.540572   -0.098771
C     -1.631471    0.130235   -0.106105
H     -0.559366   -2.203065   -0.511111
H     -2.656332    0.212059    0.171765
6

C     -0.875793    1.386856    0.305745
H     -1.138838    2.251403    0.776693
H      0.172892    1.400406   -0.213818
C     -1.838804    0.432146    0.158678
H     -1.138672    0.230522    1.235395
H     -2.711235   -0.034106   -0.212380
6

C     -0.838135    1.375637    0.249755
H     -1.122490    2.235234    0.795754
H      0.118192    1.533419   -0.219260
C     -1.490286    0.127792    0.056941
H     -1.045270   -1.562549    1.383298
H     -2.805701    0.164195   -0.015618
6

C     -0.886667    1.411092    0.114678
H     -1.353342    2.282707    0.810754
H      0.256450    1.302239   -0.041377
C     -1.546828    0.278542   -0.400778
H     -1.765504   -0.101400   -2.576444
H     -2.608034    0.161695    0.384295
6

C     -1.573881    0.042209    0.113367
H     -2.725726   -0.082985   -0.082084
H     -1.445835    0.468298    1.043420
C     -1.094814    1.479676    0.180822
H     -0.331238   -0.789739   -0.153205
H     -0.829741    2.279236    0.985517
6

C     -1.619348    0.200710   -0.179583
H     -0.422662   -1.425903   -2.250547
H     -2.660319    0.155140    0.207304
C     -0.865630    1.315825    0.126696
H     -1.305348    2.323526    0.868168
H      0.312225    1.441074   -0.155013
6

C     -1.521587   -0.098022    0.302919
H     -2.595926    0.525414   -0.265267
H     -1.172571    0.400627    1.231958
C     -1.044110    1.298543    0.130490
H     -0.010361    1.514023   -0.237866
H     -1.185894    2.026643    0.888076
6

C     -1.688923    0.248911    0.358372
H     -0.370062    0.300297    0.561744
H     -2.681750    0.008704   -0.316938
C     -0.796028    1.319891    0.351746
H     -0.919212    2.269672    0.809409
H     -0.052506    1.589099   -0.335017
6

C     -1.079135    1.540893    0.195006
H     -2.525852   -0.226260   -0.042687
H     -0.750305    2.319427    0.859877
C     -1.759695    0.319342    0.050062
H     -1.555010    0.233033    1.178783
H     -1.023514   -0.378631    0.233741
6

C     -1.767809    0.394197   -0.113440
H     -0.609466    2.345527   -0.909549
H     -2.701196    0.044334    0.247326
C     -0.703303    1.492349    0.082557
H      0.414627    1.466316   -0.121530
H     -1.380739    2.039080    0.772659
6

C     -0.596674    1.290405    0.468667
H      0.133487    1.540360   -0.384275
H     -1.307449    2.158695    0.735098
C     -1.681560    0.290304    0.104750
H      0.741579    1.833512    1.030829
H     -2.686224    0.156512   -0.056666
6

C     -1.530005    0.159665    0.131430
H     -0.918630   -0.115440   -0.731260
H     -1.600047    0.042913    1.369518
C     -0.649368    1.257866    0.065123
H     -2.773732    0.222955   -0.010950
H      0.192480    1.769074   -0.318349
6

C     -0.882193    1.443495    0.155577
H     -1.193857    1.830835   -0.838466
H     -1.127495    2.113422    0.830769
C     -1.708159    0.471642    0.194325
H      0.125252    1.401171   -0.234277
H     -2.545824    0.006547   -0.078820
6

C     -0.886034    1.407945    0.129987
H      0.214872    1.457750   -0.036259
H     -1.222017    2.204443    0.750403
C     -1.610227    0.186439   -0.252581
H     -2.635014    0.179698    0.276023
H     -0.003520   -0.646614   -1.754319
6

C     -1.506431    0.153060   -0.175071
H      0.363758   -1.235805   -0.917594
H     -2.467679    0.416664    0.221046
C     -0.921122    1.302609    0.228230
H     -1.248197    2.103790    0.674678
H      0.005008    1.460153   -0.081311
6

C     -1.665974    0.317156   -0.158882
H     -2.940833   -0.246032    0.115879
H     -0.760011    1.687214   -1.799137
C     -0.858747    1.511031    0.154317
H      0.261631    1.509219   -0.028756
H     -0.934497    2.344903    0.785015
6

C     -1.640948    0.280314   -0.189919
H     -2.475884    0.223337    0.165925
H     -0.713637    1.802019   -1.421755
C     -0.829896    1.279174    0.351891
H      0.107475    1.389559   -0.213239
H     -1.299168    2.263892    0.752915
6

C     -1.509255   -0.130784    0.194290
H     -1.651807    0.484609    1.185590
H     -2.442416    0.086210   -0.309233
C     -0.803763    1.474247    0.448163
H     -0.799358    2.285540    1.042075
H     -0.323851    1.467406   -0.510573
6

C     -1.543996   -0.129028    0.205236
H     -1.624384    0.448248    1.237636
H     -2.579603    0.017854   -0.356329
C     -0.818737    1.469756    0.489137
H     -0.813490    2.337196    1.051743
H     -0.150239    1.523202   -0.577111
6

C     -2.018674    0.495850    0.292966
H     -2.399357   -0.319872   -0.339831
H     -1.118522    0.366673    0.943938
C     -0.943073    1.565620    0.419558
H     -0.936002    2.515944    0.944347
H     -0.114822    1.043012   -0.210668
6

C     -1.935137    0.450789   -0.136686
H     -2.775820   -0.296107    0.161324
H      0.475798    1.421677   -0.129885
C     -0.714563    1.590677    0.113058
H     -1.188698    2.269240    0.859761
H     -1.078628    1.861261   -1.001479
6

C     -0.518523    1.160913    0.164114
H      0.113901    1.817855   -0.267681
H     -1.443417    0.222426    1.325558
C     -1.625577    0.040452    0.089798
H     -1.005670   -1.024674    0.054413
H     -2.887058    0.210827   -0.075018
6

C     -1.379005   -0.029119    0.327786
H     -2.270829    0.688546   -0.040756
H     -1.801634   -0.416989    1.412827
C     -0.865732    1.410863    0.165657
H     -1.214880    2.352175    0.687936
H      0.001630    1.661751   -0.503139
6

C     -1.300349    0.109270    0.159368
H     -1.840593   -0.165610    1.179760
H     -2.620230    0.225299    0.106171
C     -0.835422    1.448801    0.227455
H      0.053178    1.645082   -0.346842
H     -0.987034    2.404385    0.724399
6

C     -1.463367    0.074671    0.137282
H     -1.528979    0.205261    1.113610
H     -2.562972    0.445301    0.110679
C     -0.817559    1.291252    0.221857
H      0.186111    1.588144   -0.316878
H     -1.343685    2.062599    0.783762
6

C     -0.838038    1.398154    0.206905
H     -0.990539    2.282349    0.802505
H      0.110345    1.427894   -0.011763
C     -1.699155    0.376427    0.051935
H     -2.812384   -0.187349    0.052376
H     -1.300679    0.369752    0.948354
6

C     -0.658449    1.316941    0.366090
H      0.273792    1.509190   -0.158130
H     -1.380375    2.138385    0.667223
C     -1.769431    0.294245   -0.009022
H     -2.790162    0.149782    0.086808
H     -1.205825    0.258686    1.097342
6

C     -1.281620    0.068443    0.160182
H     -2.332152    0.711625    0.058933
H     -1.407916   -0.235349    1.273848
C     -1.102674    1.505075   -0.002582
H     -1.308230    2.333366    0.708113
H     -0.097857    1.284069   -0.148183
6

C     -1.669290    0.322619    0.053289
H      0.388558    0.686211    1.343510
H     -2.726319    0.209370    0.039842
C     -0.681716    1.267443    0.502403
H      0.298410    1.621446   -0.367330
H     -1.359505    2.015399    0.639369
6

C     -1.736763    0.347962    0.051938
H     -0.043816    0.680495    1.216386
H     -2.861038   -0.082632   -0.039564
C     -0.644023    1.237150    0.357211
H      0.239548    1.626808   -0.277327
H     -1.136145    2.306988    0.775314
6

C     -1.585228    0.120044   -0.188082
H      0.069564   -1.178209   -1.220436
H     -2.598298    0.251725    0.191174
C     -0.854385    1.344558    0.219606
H     -1.175518    2.224129    0.722916
H      0.075010    1.495821   -0.078041
6

C     -1.573186    0.236119   -0.178761
H      0.323466   -0.438749   -1.856991
H     -2.636133    0.244707    0.252224
C     -0.844665    1.373884    0.154322
H     -1.366017    2.146046    0.778466
H      0.281581    1.435521   -0.138678
6

C     -0.639540    1.389089    0.317882
H     -1.509459    2.075386    0.631878
H      0.376804    1.484515   -0.080851
C     -1.724996    0.232451   -0.075066
H     -1.285108    0.251658    0.925282
H     -2.748151    0.234128    0.331187
6

C     -0.602278    1.214047    0.362903
H     -1.260074    2.204271    0.733466
H      0.488261    1.778774   -0.306229
C     -1.768778    0.247016    0.039914
H     -0.034121    0.721057    1.067841
H     -2.995551   -0.007832    0.037518
6

C     -1.069782    1.369085    0.142297
H     -0.935052    2.095062    1.084028
H     -0.135402    1.398139   -0.281829
C     -1.533532    0.004995    0.175369
H     -1.308276    0.632726    1.241619
H     -2.548407    0.167221   -0.311172
6

C     -0.691650    1.219673    0.206575
H      0.063777    1.693490   -0.344858
H     -1.571684   -0.807820    0.412515
C     -1.694626    0.097322    0.210260
H     -1.368177    0.152391    1.390422
H     -2.669995    0.289596   -0.225628
6

C     -1.892368    0.315155    0.087490
H     -2.721077   -0.168541   -0.182768
H      0.121869    1.522568   -0.427690
C     -0.572392    1.406310    0.642437
H     -1.074453    2.360784    0.748104
H     -0.093496    1.395721    1.645075
6

C     -1.534470    0.327584    0.269559
H     -1.600770   -0.208154    1.229059
H     -1.145676    2.417857    0.768288
C     -0.858815    1.325694    0.002361
H      0.269616    1.630053   -0.254977
H     -1.195687    1.095231   -1.049601
6

C     -1.613987    0.308667   -0.212584
H     -2.489108    0.139249    0.160037
H     -1.216910    2.287397    0.767356
C     -0.883163    1.385452    0.323285
H      0.064748    1.315511   -0.170522
H     -1.594529    2.140839   -1.400253
6

C     -1.198797    1.489414    0.224491
H     -0.933403    2.213657    0.810811
H     -1.389196    0.251687    1.138626
C     -1.590985    0.062148    0.141617
H     -2.557615    0.169528   -0.074503
H     -0.838182   -0.915728   -0.775289
6

C     -0.789337    1.300631   -0.126439
H      0.267140    1.548974    0.037615
H     -1.249955    1.983761   -0.954586
C     -1.821771    0.376809   -0.098462
H     -2.614969    0.007016    0.221947
H     -1.179484    2.202846    0.832912
6

C     -1.030402    1.441565    0.257299
H     -0.977681    2.368196    0.959846
H      0.214728    1.427567   -0.382172
C     -1.822649    0.280184    0.300648
H     -2.522416   -0.081236   -0.268049
H     -1.271514    1.279914   -1.167009
6

C     -0.984482    1.309113    0.327662
H     -1.136414    2.125800    0.647999
H      0.467154    0.519943    1.068149
C     -1.598384    0.246699   -0.132925
H     -2.471473    0.270831    0.147548
H      0.052332    1.483833   -0.122712
6

C     -0.946784    1.249627    0.269639
H     -1.196574    2.240589    0.729195
H      0.312085    0.470377    1.139802
C     -1.495882    0.249220   -0.181595
H     -2.583278    0.249298    0.178077
H      0.084099    1.447542   -0.127743
6

C     -1.680161    0.134218    0.326638
H     -1.434045    0.040293    1.243715
H     -2.769780    0.167934   -0.128748
C     -0.663299    1.474826    0.061269
H      0.186613    1.635202   -0.266102
H     -0.705904   -0.310925    0.031691
6

C     -0.737537    1.334184    0.424737
H     -1.333838    2.238163    0.343329
H      0.244364    1.471248    0.162077
C     -1.815160    0.469954   -0.222006
H     -2.583410    0.138359    0.536350
H     -1.304869    0.015321    0.805824
6

C     -0.728175    1.367320    0.356753
H     -1.240782    2.346106    0.580814
H      0.312801    1.534001   -0.070945
C     -1.753852    0.330519   -0.184122
H     -2.700380    0.042137    0.321994
H     -1.420062    0.047145    1.045818
6

C     -0.805568    1.410029    0.232879
H     -1.122826    2.404547    0.874825
H      0.188221    1.458172   -0.225363
C     -1.627363    0.171749   -0.028492
H     -2.804356    0.008712   -0.026314
H     -1.358558    0.214020    1.222777
6

C     -1.684553    0.002830   -0.016866
H     -2.830872    0.140199    0.120724
H     -1.286857    0.338998    1.120500
C     -0.872045    1.538364    0.007561
H     -1.142364    2.090702    0.811594
H      0.286240    1.556135    0.006799
6

C      0.039168    0.833032    2.488712
H      0.674345    1.616594    2.347340
H     -1.116905    2.192985    0.777661
C     -0.880021    1.363563    0.181975
H     -1.276231    0.227602   -0.160775
H      0.095198    1.513649   -0.151963
6

C     -1.630283    0.092725    0.148977
H     -0.780059   -1.295673    1.412027
H     -2.666517    0.034897   -0.172816
C     -0.886578    1.467194    0.259868
H     -1.005308    2.418448    0.926342
H      0.050266    1.423011   -0.294799
6

C     -1.524915   -0.017896    0.268467
H     -1.140655    0.268669    2.104340
H     -2.706924    0.444748   -0.092792
C     -0.691722    1.326726    0.233133
H     -1.399888    2.095844    0.855746
H      0.185029    1.586855   -0.396982
6

C     -1.696424    0.009452    0.192551
H     -1.439221    0.263875    2.015214
H     -2.380195    0.544219   -0.011564
C     -0.786699    1.191290    0.163626
H     -1.326300    2.060134    0.777540
H      0.051199    1.631180   -0.254581
6

C     -1.549930    0.116558    0.075085
H     -0.824789    0.663767    1.764945
H     -2.831011    0.299683    0.141015
C     -0.737843    1.317792   -0.049179
H     -1.373728    2.069888    0.845955
H      0.354092    1.632355   -0.145303
6

C     -0.904014    1.415592    0.152189
H     -1.164317    2.435594    0.793216
H      0.050695    1.582633   -0.535289
C     -1.262652    0.093422    0.392310
H     -1.890653   -0.358465    1.260056
H     -2.359509    0.498452   -0.012169
6

C     -0.802535    1.435022    0.434745
H     -1.281938    2.415203    0.926668
H      0.028309    1.205910    1.251386
C     -1.666621    0.495835   -0.026513
H     -2.595811   -0.107043   -0.043560
H      0.208484    1.197260   -0.423767
6

C     -0.782306    1.761176    0.321073
H     -0.048399    1.123488   -0.458572
H     -0.845404    2.421805    1.080462
C     -2.286366    0.581602    0.095115
H     -1.724388    0.286060    1.156551
H     -1.843587   -0.506902   -0.144318
6

C     -1.339751   -0.020168    0.107205
H     -1.292867   -0.199354    1.178736
H     -2.581506    0.706110    0.182353
C     -0.992393    1.537533   -0.036141
H      0.042072    1.403900    0.022665
H     -1.366005    2.239207    0.595493
6

C     -1.565061    0.166687    0.143612
H     -1.317083   -0.113993    1.105167
H     -2.594053    1.179970    0.619794
C     -0.950490    1.681909    0.093778
H      0.061536    1.307825   -0.033882
H     -1.099017    2.450605    0.705615
6

C     -0.283897    1.421881    0.428291
H      0.253015    1.838572   -0.628532
H     -1.518384    1.792763    0.659246
C     -1.582661    0.070344    0.286503
H     -1.670166    0.073984    1.346315
H     -2.728357    0.469685   -0.041510
6

C     -0.555059    1.048478    0.213903
H      0.094284    1.606647   -0.348766
H     -2.592940    0.210793   -0.103035
C     -1.714122    0.448677    0.284853
H     -2.561277    1.749531    1.464230
H     -1.370584    2.121680    0.820617
6

C     -2.212659    0.544173    0.216238
H     -2.220654   -0.440423   -0.074445
H     -1.444480    0.519109    0.908067
C     -0.739301    1.630661    0.151605
H     -1.029757    2.227166    1.082500
H      0.116401    1.186542   -0.233652
6

C     -0.911245    1.534999    0.253593
H     -1.113548    2.385949    1.002132
H     -0.016916    1.207025   -0.332893
C     -1.637604    0.203516    0.003116
H     -2.647249    0.038495   -0.299850
H     -1.203887    0.297245    1.424213
6

C     -0.628656    1.227029    0.335526
H     -1.657512    1.900367    0.666439
H      0.285723    1.517024   -0.309448
C     -1.552717    0.301591   -0.063172
H     -2.585258    0.490265    0.238229
H     -1.462513    0.767905    1.710396
6

C     -0.811990    1.152389    0.389313
H     -1.237281    2.170483    0.628014
H      0.041183    1.594020   -0.157175
C     -1.563602    0.147555   -0.164888
H     -2.566730    0.371829    0.172309
H     -1.430454    0.793525    2.252990
6

C     -0.906000    1.205113    0.323649
H     -1.101155    2.458199    0.811549
H      0.123307    1.507066   -0.191262
C     -1.589796    0.140219   -0.153009
H     -2.664776    0.125679    0.076646
H     -1.026724    0.803224    2.230273
6

C     -0.613066    1.353227    0.047527
H     -1.388343    0.113988    1.231491
H      0.319996    1.779011   -0.226197
C     -1.888481    0.092607    0.290222
H     -1.176032   -0.752324   -0.678846
H     -2.790778    0.113639   -0.106271
6

C     -1.769861    0.434837   -0.158767
H      0.211327    1.481300    0.156894
H     -2.801229   -0.177330    0.262182
C     -0.666395    1.468827   -0.254272
H     -1.112262    2.228641    0.861534
H     -0.762971    2.668708   -1.039248
6

C     -1.603588   -0.200530    0.304017
H     -1.828028   -0.156402    1.268382
H     -2.223738    0.698865    0.029111
C     -0.689878    1.318364    0.298633
H      0.054745    1.856544   -0.510930
H     -1.239963    2.150387    0.661099
6

C     -1.855144    0.423589   -0.087962
H     -1.240432    0.162525    1.246311
H     -2.898191   -0.278600   -0.026061
C     -0.770013    1.404214    0.174830
H      0.209542    1.486291   -0.033341
H     -0.976212    2.469211    0.776534
6

C     -0.853915    1.360343    0.371990
H      0.070241    1.513390   -0.326370
H     -0.914766    2.397809    0.853153
C     -1.742468    0.292854    0.212643
H     -2.697512   -0.128120   -0.243843
H     -0.596091    1.415257    1.479647
6

C     -1.427053    0.155709    0.118662
H     -1.190458   -0.453560   -0.857573
H     -1.363495   -0.164105    1.094645
C     -1.001621    1.389846    0.414523
H     -1.206139    2.407257    0.532727
H     -2.671689    0.397728    0.080484
6

C     -0.574884    1.179809    0.482388
H      0.110965    1.836067   -0.271873
H     -1.165508    1.931055    0.526691
C     -1.695823    0.285989    0.188023
H     -2.813171    0.203356   -0.057658
H     -0.074450    1.838406    1.434122
6

C     -1.748599    0.450611    0.138532
H     -2.583481   -0.179498   -0.094742
H     -0.965659    2.324323    0.939131
C     -0.935111    1.498020    0.029961
H     -1.135627    2.895142   -1.226953
H      0.094429    1.342819   -0.145310
6

C     -1.107683    1.546429    0.107637
H     -0.862012    2.209468    0.936443
H     -0.797248   -0.655822   -0.056682
C     -1.616002    0.091062    0.141028
H     -2.696848   -0.012838   -0.156636
H     -1.387452    0.352314    1.212570
6

C     -1.581556    0.100469   -0.182898
H     -2.756741    0.063698    0.134091
H     -1.081116   -1.951425   -1.349141
C     -0.928698    1.391319    0.197365
H      0.154144    1.509615   -0.069489
H     -1.025569    2.371175    0.788504
6

C     -1.520693    0.232185   -0.136972
H     -2.696567    0.160649    0.153687
H     -0.285908   -2.126566   -0.687345
C     -0.820132    1.414791    0.217912
H      0.195684    1.374783   -0.194031
H     -1.296712    2.253867    0.826977
6

C     -1.625788    0.274083   -0.102995
H     -2.545911    0.162274    0.139485
H      0.052911   -2.455553   -0.434101
C     -0.931030    1.377041    0.184225
H      0.145918    1.424869   -0.126636
H     -1.181610    2.198010    0.773494
6

C     -1.560921    0.243162   -0.145319
H     -2.745435    0.097594    0.166963
H      0.219364   -2.381606   -0.295647
C     -0.852944    1.335717    0.142613
H      0.163452    1.501855   -0.070597
H     -1.142572    2.257949    0.773912
6

C     -0.848312    1.340689    0.338647
H      0.186799    1.424512   -0.163561
H     -1.313171    2.227946    0.717109
C     -1.545797    0.188358   -0.277377
H     -2.617939    0.254771    0.252755
H     -0.101357   -0.422704   -1.882898
6

C     -0.884189    1.327254    0.326849
H      0.147421    1.417015   -0.186526
H     -1.284454    2.242226    0.743541
C     -1.569373    0.176732   -0.210760
H     -2.547825    0.273048    0.194470
H     -0.145195   -0.513330   -1.956885
6

C     -0.940790    1.264090    0.241976
H     -1.097818    2.303271    0.712620
H      0.049274    1.506805   -0.045866
C     -1.565449    0.135518   -0.244918
H      0.275785   -0.781726   -1.431151
H     -2.583636    0.226592    0.203759
6

C     -0.870964    1.391697    0.235737
H     -1.179671    2.368241    0.850270
H      0.103772    1.378097   -0.181263
C     -1.548670    0.157252   -0.134886
H      0.393485   -1.188068   -0.847741
H     -2.642887    0.140989    0.097714
6

C     -0.810393    1.384076    0.261593
H     -1.229033    2.311496    0.829857
H      0.147837    1.407605   -0.213728
C     -1.597686    0.198110   -0.101385
H      0.413848   -1.288832   -0.932286
H     -2.649145    0.134989    0.091237
6

C     -0.853670    1.443180    0.197671
H      0.206051    1.378243   -0.156020
H     -1.202724    2.322109    0.842438
C     -1.664204    0.232504   -0.160763
H     -2.623873    0.060240    0.144246
H     -0.406081   -1.453097   -1.898184
6

C     -1.035216    1.422945    0.178096
H     -0.054113    1.196226   -0.149158
H     -0.990437    2.241286    1.075850
C     -1.747965    0.252032    0.207895
H     -1.060647    0.654960    1.061572
H     -2.642074   -0.100222   -0.323944
6

C     -1.692735    0.241104    0.156720
H     -1.353092    0.164885    1.262355
H     -0.796873   -0.087952   -0.044018
C     -0.756677    1.386253    0.161320
H     -2.857312    0.052219   -0.090072
H      0.299144    1.608012   -0.253553
6

C     -0.981832    1.473918    0.119161
H     -1.853507    1.953218   -0.572370
H      0.205430    1.485761   -0.240551
C     -1.761182    0.319404    0.265182
H     -1.047750    2.127305    0.854610
H     -2.553086    0.029888   -0.130829
6

C     -1.534247    0.129154   -0.074793
H      0.390459   -0.957606   -0.394793
H     -2.672151    0.227102    0.105429
C     -0.883257    1.446944    0.265083
H     -1.195621    2.171197    0.750823
H      0.146856    1.461879   -0.178970
6

C     -1.577717    0.125352   -0.141493
H      0.420193   -1.116486   -0.422361
H     -2.666040    0.191058    0.128244
C     -0.863443    1.317068    0.257163
H     -1.272610    2.361616    0.854999
H      0.241390    1.441182   -0.231340
6

C     -1.531791    0.172401   -0.106486
H     -0.199811   -1.656848   -1.001400
H     -2.683055    0.263405    0.159996
C     -0.756533    1.456288    0.277106
H     -1.330191    2.106920    0.734739
H      0.163149    1.437262   -0.197781
6

C     -1.338451   -0.073401    0.488767
H     -2.149397    0.648901   -0.061660
H     -2.151511    0.131485    1.304403
C     -0.577718    1.200531    0.086817
H     -0.150951    1.922824   -0.693876
H     -1.162422    1.836888    0.925860
6

C     -1.089099    1.819674    0.104143
H     -0.456985    0.905717    0.011570
H     -0.690339    2.410780    0.926292
C     -1.787403    0.567043    0.139156
H     -2.174539   -0.308380   -0.181056
H     -1.332086    0.272394    1.050207
6

C     -0.520910    1.270333    0.487477
H      0.189626    1.496110   -0.376287
H     -1.534229    2.124350    0.531898
C     -1.693271    0.576851    0.257577
H     -2.616333    0.281014    0.009761
H     -1.355333   -0.081431    1.139885
6

C     -0.901317    1.444482    0.247295
H      0.122890    1.476241   -0.087470
H     -1.071078    2.251531    0.732058
C     -1.602479    0.170099   -0.163346
H     -2.686436    0.093923    0.139035
H      0.057023   -1.304086   -1.185379
6

C     -2.025757    0.594462    0.044867
H     -1.261310    0.523429    0.991839
H     -2.288952   -0.424896   -0.110527
C     -0.975488    1.622064    0.175375
H     -0.832702    2.290714    0.973553
H     -0.146242    1.061455   -0.024796
6

C     -1.865755    0.426995    0.171767
H     -1.097184    0.487360    0.979501
H     -2.728594   -0.283275   -0.161537
C     -0.991076    1.494193    0.131680
H     -1.031009    2.333620    0.998824
H      0.183169    1.208335   -0.069924
6

C     -1.456395    0.044031    0.087026
H     -2.286111    0.446881   -0.116284
H     -1.407609    0.107515    1.256608
C     -1.100006    1.364745    0.273530
H     -0.178554    1.306593   -0.297431
H     -1.101775    2.397463    0.846863
6

C     -1.547498    0.530347    0.076731
H     -0.334480    1.227510    1.522653
H     -2.666384   -0.014957   -0.086763
C     -0.752131    1.373747    0.457259
H     -1.170918    2.209062    0.759447
H     -0.001489    1.338077   -0.339103
6

C     -1.599881    0.038463    0.085267
H     -1.424649    0.444209    1.242557
H     -2.571416   -0.081656   -0.349720
C     -0.715292    1.607900    0.440550
H     -0.269883    1.201420   -0.467674
H     -0.949330    2.456891    1.099330
6

C     -1.640323    0.103408    0.159408
H     -1.227136    0.476074    1.124764
H     -2.627875    0.463810   -0.051734
C     -0.656987    1.166463    0.308305
H      0.111431    1.548580   -0.302143
H     -1.489561    1.908893    0.811711
6

C     -1.623170    0.052776    0.147026
H     -1.267444    0.464913    1.020996
H     -2.690830    0.369316   -0.013736
C     -0.635274    1.130670    0.313364
H      0.107504    1.552499   -0.273237
H     -1.421237    2.097054    0.855898
6

C     -1.703826    0.073034   -0.066454
H     -1.439798    0.062581    1.329563
H     -2.779406    0.057380   -0.030770
C     -0.774145    1.250212    0.250585
H      0.161143    1.690981   -0.214059
H     -0.994419    2.533040    0.781446
6

C     -0.851099    1.380377    0.238399
H     -1.298299    2.272907    0.805900
H      0.226745    1.437756   -0.181569
C     -1.601006    0.098988   -0.184977
H      0.094538   -0.962516   -1.073645
H     -2.614762    0.246248    0.189819
6

C     -0.811637    1.346552    0.223718
H     -1.162472    2.203621    0.715779
H      0.129903    1.541988   -0.091634
C     -1.610988    0.163349   -0.145911
H      0.253093   -1.166546   -1.175159
H     -2.683225    0.180765    0.165620
6

C     -1.586738    0.106163    0.191013
H     -2.684601    0.067312   -0.195939
H     -1.337446    0.409589    1.109636
C     -1.010535    1.384563    0.331963
H      0.056818    1.467301   -0.282542
H     -0.967948    2.232301    0.896180
6

C     -1.252757    0.001106    0.300144
H     -2.517216    0.678396   -0.065539
H     -1.691163   -0.009781    1.362709
C     -0.732303    1.243957    0.185907
H     -0.157131    1.791672   -0.394029
H     -1.179880    1.961879    0.661120
6

C     -2.010527    0.709717    0.196228
H     -1.354221    0.008999    1.124698
H     -2.572508   -0.314065   -0.043237
C     -0.882911    1.393471    0.135591
H     -1.043844    2.450135    0.786072
H      0.333561    1.418971   -0.149041
6

C     -1.782734    0.226301   -0.060466
H     -1.242754    0.276354    1.007485
H     -2.840104    0.172934    0.282139
C     -0.669759    1.382282    0.178821
H     -1.496230    2.072638    0.708335
H      0.501131    1.536719   -0.066002
6

C     -1.880782    0.449966    0.033004
H     -0.126846    0.899609    1.507390
H     -2.662271   -0.214444   -0.078778
C     -0.570887    1.604817    0.469397
H     -1.363480    2.361214    0.939928
H      0.339000    1.234723   -0.495978
6

C     -1.397502   -0.098715    0.230610
H     -1.792385    0.532069    1.174207
H     -2.289850    0.146071   -0.354171
C     -0.567827    1.335835    0.500064
H     -0.750178    1.475268   -0.548133
H     -0.732708    2.276700    1.047735
6

C     -1.422491   -0.135723    0.231870
H     -1.872187    0.601219    1.223377
H     -2.213908    0.228213   -0.334969
C     -0.532064    1.288354    0.488176
H     -0.747655    1.596644   -0.586462
H     -0.742146    2.088520    1.028319
6

C     -1.635710    0.138610   -0.036407
H     -1.320925    0.224803    1.257754
H     -2.727335    0.066118   -0.035879
C     -0.868436    1.508011    0.170407
H     -1.139341    2.345672    0.892231
H      0.161296    1.384014   -0.197795
6

C     -1.617716    0.470115   -0.243801
H     -1.915265    1.924300   -0.769380
H     -2.474280    0.074986    0.159267
C     -0.814674    1.257089    0.387104
H      0.131115    1.223233   -0.285978
H     -1.362866    2.410854    0.850982
6

C     -1.751055    0.391282    0.054010
H     -2.900966   -0.228507   -0.128508
H      0.570127    1.234561    1.357366
C     -0.596526    1.253595    0.464682
H      0.010993    1.652400   -0.217592
H     -0.900867    2.367505    0.694980
6

C     -1.707180    0.541466    0.111292
H     -2.657017   -0.108454   -0.151335
H     -1.186924    2.391424    0.846927
C     -0.656172    1.207866    0.476180
H     -0.069760    0.741765    1.607982
H      0.068873    1.403974   -0.415492
6

C     -1.951337    0.211634    0.119675
H     -3.028234   -0.191352   -0.051929
H     -0.391791    0.820030    1.500408
C     -0.624511    1.328255    0.329862
H      0.480353    1.884530   -0.229509
H     -1.014690    2.203209    0.699474
6

C     -0.644451    1.227591    0.247536
H      0.408489    1.789598   -0.293063
H     -1.394804    0.261308    1.160668
C     -1.805446    0.173148    0.185150
H     -2.924460    0.000827   -0.063518
H     -1.724971   -0.929708    0.384664
6

C     -0.426480    1.339968    0.575051
H     -1.163224    1.908198    0.455233
H      0.008646    1.814950   -0.440436
C     -1.698983    0.405858    0.325714
H     -1.555616    0.007459    1.279698
H     -2.694792    0.190795   -0.144949
6

C     -0.288780    1.260727    0.271745
H     -1.532590    1.912338    0.633436
H      0.139824    1.791127   -0.481568
C     -1.573118    0.256482    0.231473
H     -1.657816   -0.036999    1.342068
H     -2.617971    0.483554    0.053157
6

C     -1.868242    0.558832    0.214173
H     -1.202006    0.119826    1.194931
H     -2.449683   -0.170113   -0.370017
C     -0.918483    1.337662    0.534065
H     -0.901088    2.578527    0.767940
H     -0.190947    1.242494   -0.290780
6

C     -1.442281    0.049910    0.099030
H     -2.454282    0.109706   -0.118862
H     -1.493228    0.437865    1.108363
C     -1.137700    1.508355    0.239095
H     -0.174963    1.340115   -0.231402
H     -0.827997    2.221277    0.954088
6

C     -0.834832    1.337996    0.244089
H     -1.330993    2.221548    0.830673
H      0.071037    1.463615   -0.420844
C     -1.367139    0.132953    0.120431
H     -1.531545    0.064376    1.294122
H     -2.536977    0.446741   -0.018159
6

C     -0.910415    1.340714   -0.041345
H     -1.213542    1.907230    0.987726
H      0.312745    1.611203   -0.164430
C     -1.637626    0.021592    0.116726
H     -1.237657    0.575114    1.237464
H     -2.843955    0.211375   -0.085829
6

C     -0.763858    1.323470    0.175121
H     -2.230804    2.652903   -0.200140
H      0.355092    1.657860   -0.226384
C     -1.775627    0.202836    0.070330
H     -1.387638    0.224236    1.215464
H     -2.788641    0.044071    0.002241
6

C     -0.759588    1.419262    0.203117
H     -2.398432    2.530137   -0.463336
H      0.148140    1.554851   -0.345844
C     -1.545853    0.221455    0.182185
H     -1.520885    0.088700    1.258923
H     -2.682487    0.168205   -0.061609
6

C     -1.598463    0.075374   -0.092592
H     -2.817132    0.171114    0.308032
H     -1.421518    0.228065    1.070337
C     -0.879031    1.384020   -0.050507
H      0.309217    1.671399    0.088912
H     -1.123524    2.137256    0.726129
6

C     -1.573297    0.089270   -0.273185
H     -2.599673    0.286211    0.283289
H     -0.036372   -0.611118   -1.458443
C     -0.852927    1.397155    0.171879
H      0.162223    1.447428   -0.062701
H     -1.274745    2.216211    0.748289
6

C     -0.932058    1.522061   -0.036804
H      0.254930    1.469802    0.046476
H     -0.760137    2.562321   -1.144383
C     -1.766199    0.371206   -0.116525
H     -2.696193   -0.138919    0.171244
H     -0.998900    2.212127    0.803182
6

C     -1.554173    0.028969    0.352489
H     -1.548044   -0.227972    1.464437
H     -2.178928    0.842762   -0.132710
C     -0.872006    1.217504    0.164648
H      0.093287    1.627312   -0.535872
H     -1.470587    2.178653    0.737319
6

C     -1.253205    0.096157    0.240190
H     -2.044695   -0.338421    1.265570
H     -2.345422    0.401028    0.095398
C     -0.773671    1.430282    0.213106
H      0.061660    1.579695   -0.601505
H     -1.175117    2.498487    0.837553
6

C     -1.686708    0.061402    0.123591
H     -1.246076    0.496440    1.298105
H     -2.622256    0.273486   -0.202126
C     -0.776451    1.226609    0.112973
H      0.086429    1.490895   -0.314714
H     -1.285388    2.118396    1.032482
6

C     -1.631163    0.164881    0.003227
H     -1.362125    0.248124    1.207664
H     -2.885216   -0.035463   -0.030693
C     -0.860406    1.440599    0.238527
H      0.292700    1.518488   -0.228853
H     -1.084240    2.330599    0.860439
6

C     -1.697166    0.202302   -0.191353
H     -1.062677   -0.369756   -2.550370
H     -2.632010    0.117925    0.199171
C     -0.910487    1.358837    0.222955
H     -1.191080    2.251763    0.759729
H      0.292323    1.505449   -0.122930
6

C     -0.893099    1.397695    0.317128
H     -1.185180    2.135247    0.593820
H     -0.078293    1.636948   -0.444319
C     -1.344299    0.057375    0.270116
H     -1.708289   -0.218436    1.342585
H     -2.321291    0.658399   -0.029019
6

C     -0.767956    1.349409    0.298538
H     -1.081872    2.653301    0.815792
H      0.044855    1.522570   -0.353250
C     -1.398861    0.087681    0.144164
H     -1.666280   -0.119928    1.109047
H     -2.657126    1.049623   -0.746842
6

C     -0.984492    1.473857    0.582636
H     -1.041845    2.479263    0.205355
H      0.168785    1.501504    0.088829
C     -1.632616    0.401003   -0.204777
H     -1.605240   -0.325605    0.782458
H     -2.435042    0.137206    0.595811
6

C     -1.539645    0.266474    0.091659
H     -1.253531    2.154661    0.875814
H     -2.607702    0.195521   -0.195988
C     -0.881710    1.424399    0.403714
H      0.057071    1.312941   -0.424497
H     -1.304933    0.313232    1.299609
6

C     -0.348358    1.460052    0.516072
H      0.105791    1.637196   -0.394161
H     -1.483891    1.960052    0.460768
C     -1.573079    0.306849    0.171538
H     -2.766197    0.384976    0.033902
H     -1.464716   -0.081896    1.262193
6

C     -1.225893    1.533229    0.240197
H     -0.898555    2.576349    0.689849
H     -1.413897   -0.191432    1.310215
C     -1.560800    0.044377    0.076070
H     -2.570853    0.223912   -0.075290
H     -0.607343   -0.934616   -0.406752
6

C     -1.611620    0.263510   -0.097730
H     -2.751989   -0.044648    0.004165
H     -0.905581    2.348051    0.688875
C     -0.836216    1.335020    0.393424
H      0.112886    0.229392    1.735335
H     -0.033013    1.534343   -0.121161
6

C     -0.620446    1.215295    0.026853
H      0.104896    1.693219   -0.235914
H     -1.150410   -0.426339   -0.288321
C     -1.688124    0.301572    0.109958
H     -2.660154    0.153700   -0.037864
H     -1.496844    0.088686    1.373737
6

C     -1.644963    0.310430    0.100451
H     -2.518266   -0.108525   -0.174695
H      0.081681    1.301516   -0.271898
C     -1.228086    1.550465    0.350241
H     -0.828787    2.382390    0.863473
H     -1.047832    1.953807   -0.812281
6

C     -1.923061    0.585080    0.058031
H     -2.693436   -0.276581   -0.056620
H      0.023976    1.366656    1.236670
C     -0.653943    1.377051    0.357440
H     -1.070489    2.249203    0.757623
H      0.202509    1.501523   -0.248901
6

C     -1.593006    0.142782   -0.102965
H     -0.141279   -1.821666   -0.094945
H     -2.633411    0.186458    0.121558
C     -0.869456    1.408043    0.199376
H     -1.191780    2.250073    0.800008
H      0.149233    1.448920   -0.150405
6

C     -1.559129    0.049761   -0.028314
H     -2.619558    0.464056    0.195160
H     -0.037766   -1.632920    0.113841
C     -0.796927    1.300412    0.100712
H      0.212559    1.604612   -0.133012
H     -1.375365    2.017436    0.733027
6

C     -1.596620    0.162253   -0.224030
H     -2.790389    0.138077    0.251886
H      0.206402   -0.468676   -1.276941
C     -0.796551    1.419876    0.185850
H      0.297647    1.517451   -0.089991
H     -1.252506    2.198619    0.743858
6

C     -1.520752    0.197900   -0.210785
H     -2.700197    0.129522    0.185749
H      0.162516   -0.267948   -1.963530
C     -0.943838    1.373833    0.218313
H      0.160072    1.443117   -0.091639
H     -1.133705    2.291904    0.765934
6

C     -1.605863    0.183526   -0.163864
H     -2.730156    0.042757    0.128242
H      0.375625   -0.770817   -1.379957
C     -0.902275    1.403285    0.225974
H      0.266211    1.425187   -0.176527
H     -1.166337    2.381520    0.853748
6

C     -1.540788    0.160488   -0.151973
H      0.095691   -1.467745   -1.231060
H     -2.601947    0.273034    0.190205
C     -0.857755    1.346553    0.165530
H     -1.286399    2.226007    0.798783
H      0.148468    1.430195   -0.134972
6

C     -1.653972    0.216711   -0.227830
H     -2.620016    0.106708    0.215250
H      0.017194    0.126308   -1.747878
C     -0.812461    1.398476    0.157529
H      0.165259    1.411029   -0.083829
H     -1.217230    2.303352    0.806453
6

C     -1.697833    0.025207    0.249107
H     -0.903652   -0.727431   -0.316443
H     -1.354306    0.191013    1.255871
C     -0.716238    1.189931    0.145392
H      0.105517    1.732114   -0.258851
H     -2.697812    0.314207   -0.154748
6

C     -1.482261   -0.038202    0.128461
H     -2.770517    0.354453   -0.074354
H     -0.906088   -1.062663    0.023485
C     -0.596047    1.045385    0.309352
H     -0.065835    1.754052   -0.295841
H     -1.446011    0.336784    1.169153
6

C     -0.571071    1.494167    0.277377
H     -1.289323    2.269070    0.836568
H      0.219833    1.333838   -0.241606
C     -1.816643    0.500059   -0.087646
H     -2.681215   -0.160859    0.082880
H     -0.908686    2.118932   -0.614849
6

C     -0.701899    1.402917    0.374409
H      0.188049    1.390262   -0.390823
H     -1.350427    2.157679    0.818808
C     -1.594110    0.363487    0.104434
H     -2.680034    0.121932   -0.039256
H      0.030858    1.627445    1.406819
6

C     -0.616865    1.285486    0.482499
H      0.401118    1.042969    1.009426
H      0.015932    1.463461   -0.331051
C     -1.745367    0.481215    0.071819
H     -2.601410   -0.003845   -0.075443
H     -1.190711    2.209959    0.719749
6

C     -1.594307    0.183710   -0.112888
H     -0.326254   -2.114292   -0.434673
H     -2.702241    0.050806    0.078454
C     -0.917660    1.420391    0.242493
H     -1.056742    2.327409    0.794278
H      0.132529    1.453960   -0.134764
6

C     -1.626841    0.192767   -0.104262
H     -0.312108   -2.393455   -0.379903
H     -2.638124    0.199702    0.145801
C     -0.850481    1.292569    0.206534
H     -1.199230    2.213118    0.750972
H      0.176256    1.538121   -0.131472
6

C     -0.937743    1.486900    0.205326
H     -1.035868    2.450404    0.844085
H      0.416615    1.401255   -0.230306
C     -2.182716    0.579480    0.342555
H     -1.401911    0.069287    0.954639
H     -2.388827   -0.320097   -0.065988
6

C     -1.843600    0.272301    0.052946
H     -1.446791    0.289092    1.073977
H     -1.280303   -1.230631    0.006800
C     -0.491682    1.269396    0.099864
H     -2.924291   -0.125132    0.126167
H      0.345691    1.746816   -0.116183
6

C     -1.576383    0.202003   -0.152209
H      0.354599   -1.660618   -0.656540
H     -2.657067    0.165750    0.181018
C     -0.875869    1.373938    0.142602
H     -1.194951    2.237094    0.786877
H      0.165849    1.457491   -0.090715
6

C     -1.611275    0.058230    0.172866
H     -2.753971    0.304147   -0.140777
H     -1.317267   -0.933518    0.237020
C     -0.754608    1.027693    0.281462
H      0.245287    1.868176   -0.426492
H     -1.486106    0.194227    1.349713
6

C     -0.896345    1.318759    0.162431
H     -1.563373    0.707844   -0.324905
H     -1.195209    2.270153    0.857496
C      1.107217    0.138028    1.074963
H      1.056407   -0.911694    1.212874
H      0.189827    1.481285   -0.212254
6

C     -0.522642    1.252145    0.485002
H      0.299446    1.033574    1.521608
H      0.250701    1.502536   -0.475956
C     -1.502432    0.333400    0.098010
H     -2.971574    0.055775   -0.075843
H     -1.392473    2.292420    0.836360
6

C     -0.621974    1.355218    0.467660
H      0.158423    0.737175    1.409049
H      0.005826    1.401729   -0.369273
C     -1.651911    0.493757    0.128175
H     -2.543911    0.150152   -0.056821
H     -1.326450    2.035419    0.697830
6

C     -1.106165    1.668564    0.348323
H     -0.473426    1.334222   -0.435373
H     -0.483580    2.036191    1.070797
C     -1.307671    0.132963    0.216319
H     -1.886184    0.632244    1.078812
H     -2.273425   -0.136957   -0.228567
6

C     -0.838854    1.285431    0.030974
H     -1.313198    1.863763    0.791898
H      0.088024    1.626629   -0.231242
C     -1.430124    0.103053    0.132616
H     -1.631284    0.261666    1.129124
H     -2.405015    0.526686    0.196942
6

C     -0.820548    1.254506   -0.014257
H     -1.294721    1.730931    0.723793
H      0.336608    1.827571   -0.167121
C     -1.458298    0.127165    0.092021
H     -1.654567    0.298897    1.114351
H     -2.638924    0.428158    0.301524
6

C     -0.955416    1.470926    0.393140
H     -0.888686    2.490690    0.920286
H      0.063727    1.407523   -0.320815
C     -1.544855    0.133223    0.034299
H     -1.429565    0.276221    1.183585
H     -2.775655   -0.111357   -0.160184
6

C     -0.932032    1.471460   -0.126624
H     -1.297974    2.024519    0.776418
H      0.293987    1.400538    0.066585
C     -1.643976    0.377695   -0.207493
H     -0.863724    2.101033   -1.732328
H     -2.558424    0.162064    0.358687
6

C     -1.453261    0.228195    0.351855
H      0.130876    2.009052   -0.444292
H     -1.603691    0.071699    1.358776
C     -0.405430    1.084306    0.271692
H     -2.848105    0.480678   -0.074620
H     -1.350839    1.793298    0.586900
6

C     -1.757287    0.201877    0.170048
H     -2.871801    0.129665    0.043908
H     -1.402958   -0.799295   -0.584996
C     -0.671548    1.128036   -0.139076
H     -1.345316    0.183272    1.184136
H      0.285280    1.809623   -0.022245
6

C     -1.443859    0.096159    0.187469
H     -2.484526    0.123659   -0.258393
H     -1.663044    0.477948    1.163060
C     -0.368640    1.341164    0.528518
H     -0.643495    1.491308   -0.458302
H     -0.926886    2.136990    0.887959
6

C     -0.788706    1.356700    0.208397
H     -1.463230    0.110256    1.192033
H      0.140787    1.564650   -0.339341
C     -1.564764    0.235766    0.293683
H     -2.684760    0.185101   -0.118000
H     -0.919381   -0.011651   -0.383950
6

C     -1.957165    0.561007   -0.137287
H     -1.132518    2.292953    0.680137
H     -2.603747   -0.190327    0.078737
C     -0.680866    1.237020    0.473166
H     -1.058921    0.169544    1.531896
H      0.235875    1.535623   -0.227180
6

C     -1.758900    0.378177    0.286174
H     -1.084299    2.395458    0.907118
H     -2.586268   -0.080964   -0.309809
C     -0.628059    1.357589    0.423021
H     -0.630916    0.652105    1.786231
H     -0.080894    1.386016   -0.438931
6

C     -0.740372    1.267218    0.542229
H     -1.226930    2.340712    0.383703
H      0.251394    1.519688    0.074208
C     -1.789549    0.469831   -0.160748
H     -2.743676    0.009386    0.391637
H     -1.281318    0.060393    0.819282
6

C     -0.727252    1.310047    0.497265
H     -1.018687    2.392240    0.756592
H      0.049585    1.454842   -0.287992
C     -1.823175    0.453172   -0.012366
H     -2.618890   -0.174024   -0.085926
H      0.488871    1.499647    1.188258
6

C     -1.428743    0.001277    0.103651
H     -2.782119    0.106431   -0.025311
H     -1.457593   -0.008092    1.115718
C     -1.107986    1.532252    0.281126
H     -0.893557    2.554567    0.765857
H     -0.298880   -0.374156   -0.474466
6

C     -0.743209    1.342397    0.394117
H     -2.796104   -0.157659   -0.329982
H      0.082645    1.546118   -0.405945
C     -1.732332    0.300128    0.321374
H     -0.499618    0.153296    1.148144
H     -0.949420    2.405292    0.888008
6

C     -0.730040    1.238486    0.235208
H      0.095089    1.533841   -0.247312
H     -1.276974    2.189863    0.776436
C     -1.630420    0.247338   -0.013916
H     -1.292512    0.207071    1.361876
H     -2.695593    0.250629   -0.061981
6

C     -0.760138    1.369860    0.147548
H     -0.021409    1.960789   -0.483957
H     -0.913639    2.313994    0.669738
C     -1.322576   -0.106351    0.326864
H     -2.106679   -0.360416    1.343039
H     -2.406010    0.489352    0.047079
6

C     -1.433228    0.049923    0.042101
H     -2.893517    0.324214   -0.000408
H     -1.372492    0.192732    1.263360
C     -0.701974    1.317365    0.231813
H     -1.335295    2.202316    0.811750
H      0.206057    1.580678   -0.298306
6

C     -1.799640    0.397878    0.159262
H     -1.335303    2.439731    0.953650
H     -2.745862   -0.119817   -0.179048
C     -0.535411    1.308173    0.475378
H     -0.426849    0.976024    1.550350
H      0.277796    1.410311   -0.541670
6

C     -1.836745    0.249833    0.209875
H      0.441224    1.700829   -0.290378
H     -2.900699   -0.146048   -0.124973
C     -0.787607    1.319109    0.194664
H     -1.054593    2.312553    0.878385
H     -0.068863    1.162699    1.593057
6

C     -1.679884    0.301775    0.124781
H      0.046544    0.885530    1.326065
H     -2.803462    0.010856   -0.135922
C     -0.725832    1.176535    0.525778
H      0.209810    1.624257   -0.409208
H     -1.139052    2.322854    0.762143
6

C     -1.834185    0.274236    0.223088
H      0.258741    1.692199   -0.336546
H     -2.808804   -0.138362   -0.209261
C     -0.810781    1.296937    0.411054
H     -0.943391    2.311266    0.779237
H     -0.245084    0.803493    1.553902
6

C     -1.222221    1.390317    0.081266
H     -1.393883    0.294247    1.210568
H     -0.928437    2.263583    0.928739
C     -1.478766    0.092229    0.125769
H     -0.786026   -0.489986   -0.334652
H     -2.646689    0.146059   -0.105301
6

C     -1.730541    0.135617   -0.089920
H      0.307321    1.514635   -0.127170
H     -1.202807    0.126283    1.487845
C     -0.789902    1.378358    0.054204
H     -1.125038    2.459855    0.940930
H     -2.800259   -0.052188    0.089529
6

C     -1.621457    0.390967   -0.193784
H     -1.479263    0.137657    0.963453
H     -2.654066   -0.086756    0.294421
C     -0.779476    1.498380    0.425607
H      0.057888    1.380327   -0.038892
H     -1.054076    2.346653    0.599507
6

C     -0.896637    1.387404    0.177260
H     -1.010136    2.337698    0.787072
H      0.117597    1.424626   -0.057487
C     -1.685735    0.391293   -0.154469
H     -2.663508   -0.104745    0.115196
H      0.019434    0.618663    1.217027
6

C     -0.818074    1.338781    0.071276
H     -1.137983    2.223857    0.802264
H      0.198186    1.525562   -0.075274
C     -1.748971    0.309802   -0.051580
H     -2.631578    0.038273    0.120886
H     -0.289563    0.473738    1.492741
6

C     -0.690114    1.351798    0.192555
H     -1.407026    1.936313    0.708340
H      0.375331    1.617877   -0.226984
C     -1.615219    0.296223    0.055331
H     -2.801392    0.234065    0.138330
H     -0.849117    0.514889    1.785565
6

C     -0.744811    1.345216    0.305518
H     -1.444850    2.002329    0.659460
H      0.229085    1.432338   -0.181281
C     -1.581111    0.388048   -0.186354
H     -2.596734    0.268345    0.270229
H     -1.281962    0.479172    1.811751
6

C     -1.516494    0.168424   -0.017326
H     -0.634550   -0.667755    0.218842
H     -1.616415    0.155717    1.266065
C     -1.025268    1.632657    0.075581
H     -2.696661   -0.110349    0.016454
H     -0.815160    2.339986    0.900266
6

C     -1.491994   -0.056554    0.250569
H     -1.577100   -0.119396    1.261464
H     -2.295020    0.650012   -0.009834
C     -0.994696    1.327028    0.179390
H      0.065938    1.597745   -0.362316
H     -1.237578    2.268391    0.731037
6

C     -0.880176    1.453696    0.209648
H      0.021463    1.169823   -0.432989
H     -1.404502    2.192962    1.091820
C     -1.517745    0.083025    0.113693
H     -1.307253    0.421706    1.231068
H     -2.442238    0.346015   -0.162928
6

C     -1.818064    0.269930   -0.111004
H     -1.912293    1.581141   -1.140303
H     -2.855154   -0.102140    0.122900
C     -0.757612    1.365672    0.274183
H     -1.092425    2.243845    0.716910
H      0.384835    1.658969   -0.135416
6

C     -2.109030    0.460796    0.470036
H     -1.172915    0.314390    0.807962
H     -2.422715   -0.241218   -0.282507
C     -0.847025    1.502956    0.439810
H      0.040445    1.236817   -0.230302
H     -1.019211    2.393487    0.845313
6

C     -1.690395    0.291383    0.118276
H      0.371401    1.707404   -0.256555
H     -2.809446    0.126690    0.024941
C     -0.766907    1.206528    0.236630
H     -1.243073    2.104271    0.744282
H     -0.023507    1.067296    0.994750
6

C     -1.623398    0.349986   -0.146321
H     -1.258933    2.179402    0.809299
H     -2.618828    0.129930    0.236254
C     -0.896766    1.330432    0.023329
H      0.259506    1.446527   -0.054988
H     -0.955986    2.382507   -1.075230
6

C     -1.910490    0.404814   -0.162217
H     -1.288731    2.179297    0.883654
H     -2.781343   -0.197263    0.270096
C     -0.642928    1.615873   -0.107015
H      0.485073    1.433554   -0.016944
H     -0.713638    3.246582   -0.444459
6

C     -1.315325    1.759813    0.103826
H     -0.771098    2.355282    0.858071
H     -0.234631    1.125751   -0.138348
C     -1.494878    0.271714    0.225676
H     -1.274704    0.080370    1.321107
H     -2.439814    0.074297   -0.320022
6

C     -1.565527    0.191789    0.014999
H     -2.697638    0.172873    0.013480
H     -1.365557    0.232369    1.214160
C     -0.801832   -1.528768   -0.767787
H     -0.682175   -1.781918    0.288749
H     -1.796682   -1.908690   -0.602985
6

C     -0.653285    3.529940   -1.472581
H     -1.637844    3.773822   -1.426774
H      0.067395    3.034810   -1.892293
C     -0.845908    1.372547    0.172513
H      0.133468    1.468262   -0.195540
H     -1.189287    2.229388    0.830701
6

C     -1.736935   -0.058780   -0.111615
H     -0.940605   -0.049882    0.949600
H     -2.645468    0.618482    0.430141
C     -0.783917    1.639037   -0.175992
H     -1.424384    2.155037    0.420043
H      0.000858    1.363334    0.538134
6

C     -1.448306    0.312647    1.726185
H     -0.275530   -0.150323    2.124353
H     -1.255561    1.397266    2.294140
C     -0.838293    1.407098    0.189741
H      0.114770    1.465985   -0.188780
H     -1.178205    2.197113    0.806712
6

C     -0.600369    1.245129    0.262370
H     -1.050767    2.099236    0.871872
H     -0.189005    1.824756   -0.670318
C     -1.176557   -0.000386    0.487595
H     -2.223231    0.032398    1.075443
H     -2.290521    0.466094    0.023349
6

C     -1.644698    0.174743    0.260836
H     -1.344281    0.246644    1.253934
H     -2.752410    0.225823   -0.220479
C     -0.689713    1.108994    0.287945
H      0.070430    1.696269   -0.345464
H     -1.434371   -0.870452   -0.089845
6

C     -0.604369    1.528103    0.147643
H     -1.366330    2.097619    0.890514
H      0.287630    1.333457   -0.308744
C     -1.730240    0.582092    0.150726
H     -2.725111   -0.104996   -0.012566
H     -0.853993    1.919309   -0.875952
6

C     -0.653712    1.092655    0.203952
H      0.417334    1.924073   -0.365299
H     -1.540669    0.180871    1.231630
C     -1.656067    0.137802    0.201525
H     -2.927559    0.117071   -0.035036
H     -1.510585   -0.727071   -0.706458
6

C     -0.809124    1.512519    0.038392
H     -0.093952    2.846513    0.327665
H     -2.618016    0.172401    0.069959
C     -1.551543    0.224859    0.133669
H     -0.586689   -0.691569    0.131429
H     -1.521536    0.061900    1.185482
6

C     -1.800276    0.357127    0.246475
H     -2.650916   -0.065926   -0.139338
H     -1.132639    2.270922    0.941940
C     -0.800645    1.393624    0.108628
H      0.246055    1.480527   -0.290133
H     -1.044630    1.859822   -0.761960
6

C     -0.676439    1.048562    0.201088
H      0.161355    1.881328   -0.355072
H     -2.508235    0.363561    0.120768
C     -1.624747   -0.025465   -0.018478
H     -1.397345   -1.060547    0.308768
H     -1.712607    0.184486    1.288465
6

C     -1.102032    1.404866    0.340145
H     -1.109678    2.505352    0.664522
H     -1.318887   -0.073782    1.205339
C     -1.558404   -0.039073    0.034722
H     -2.580997    0.389071   -0.003687
H     -1.809736   -0.896917   -0.432694
6

C     -1.675096    0.116656    0.176949
H     -1.169328    0.411885    1.257016
H     -1.100924    2.313631    0.986416
C     -0.885113    1.327301    0.246472
H     -0.009029    1.384468   -0.292966
H     -2.690959    0.113286   -0.323576
6

C     -1.804049    0.239531    0.249902
H      0.055238    0.321778    1.168287
H     -2.738420   -0.143973   -0.270634
C     -0.841919    1.266363    0.338413
H     -0.789002    2.403190    0.804816
H      0.034970    1.671164   -0.254924
6

C     -1.809274    0.406651    0.051736
H     -1.232001    2.400563    0.864866
H     -2.734982   -0.086151   -0.049031
C     -0.601592    1.170616    0.334371
H      0.239429    1.544598   -0.334370
H      0.079160    1.270298    1.128293
6

C     -1.939179    0.581274   -0.172960
H     -1.453932    0.728906    1.147544
H     -2.638463   -0.236088    0.105678
C     -0.805588    1.228813    0.457748
H     -1.028899    2.285451    0.640547
H      0.273709    1.576826   -0.163440
6

C     -1.816121    0.493023    0.178658
H     -1.252088    2.208153    0.832891
H     -2.700080   -0.126881   -0.134092
C     -0.656221    1.431218    0.429804
H      0.286091    1.430763   -0.439688
H      0.377517    0.948633    1.033914
6

C     -1.682389    0.510473    0.192589
H     -1.160514    2.217023    0.782531
H     -2.628243   -0.020666   -0.163427
C     -0.662629    1.292148    0.419539
H     -0.004645    1.437298   -0.363659
H      0.452368    0.626677    1.105569
6

C     -0.754831    1.386798    0.293547
H      0.194785    1.450876   -0.191739
H     -1.287438    2.177708    0.741215
C     -1.594743    0.274044   -0.133143
H     -2.696193    0.146850    0.157693
H     -0.072791   -1.299136   -2.035371
6

C     -0.646747    1.289539    0.371670
H      0.169284    1.469593   -0.297750
H      0.134671    0.617672    1.076290
C     -1.887981    0.583181    0.065571
H     -2.588273   -0.142352   -0.044649
H     -1.184703    2.236316    0.772731
6

C     -0.675419    1.335365    0.498927
H     -1.180998    2.287767    0.806687
H      0.131743    1.487987   -0.433979
C     -1.680273    0.322656    0.164994
H     -2.733473    0.002501   -0.169056
H      0.034969    1.464428    1.213287
6

C     -0.535424    1.497835    0.226871
H     -1.258686    2.093112    0.730872
H     -1.053204    2.199257   -0.468756
C     -1.888412    0.512233   -0.051078
H      0.295668    1.493004   -0.162654
H     -2.751567   -0.159908    0.123561
6

C     -0.801841    1.431127    0.087789
H      0.279933    1.305672   -0.160149
H     -1.471481    2.160501    0.855146
C     -1.563489    0.304234   -0.188479
H     -1.834778    2.143190   -1.431569
H     -2.581542    0.234740    0.273265
6

C     -0.634608    1.312697    0.433126
H     -0.102296    1.323496   -0.450752
H     -0.291296    0.514470    1.696776
C     -1.680575    0.356389    0.208385
H     -1.079963    2.565448    0.977991
H     -2.640978   -0.121753   -0.301177
6

C     -0.843633    1.504867    0.109425
H     -1.132983    2.273704    0.878520
H     -1.681563    2.466680   -1.042414
C     -1.930531    0.501364   -0.035982
H      0.362914    1.387161   -0.158805
H     -2.594187   -0.230820    0.074415
6

C     -1.580596    0.224537   -0.191799
H      0.272732   -0.072384   -1.863101
H     -2.631985    0.209814    0.225107
C     -0.889079    1.325895    0.191278
H     -1.211804    2.179693    0.719956
H      0.175043    1.496337   -0.076969
6

C     -1.564647    0.232604   -0.170570
H      0.315676   -0.089185   -1.838535
H     -2.630946    0.211842    0.206179
C     -0.875758    1.341946    0.195899
H     -1.216654    2.172926    0.726147
H      0.149585    1.476959   -0.090083
6

C     -1.663778    0.062201   -0.140214
H     -2.614342    0.189603    0.136702
H      0.108343   -1.236233   -0.714343
C     -0.917054    1.323802    0.191528
H      0.124192    1.570868   -0.069524
H     -1.067439    2.289803    0.749081
6

C     -1.360033    0.088439    0.013020
H     -1.597540    0.031291    1.404509
H     -2.733598    0.387133    0.067965
C     -0.747207    1.408679    0.147915
H     -1.348062    2.155931    0.822477
H      0.255990    1.595755   -0.405575
6

C     -0.535013    1.225861    0.049518
H      0.297228    1.900084   -0.246629
H     -1.645815    0.128146    1.195228
C     -1.756503    0.021171    0.123767
H     -1.408097   -1.095756   -0.385027
H     -2.720569    0.177211    0.114887
6

C     -1.683497    0.226475    0.130993
H     -3.007319    0.057202   -0.032685
H      0.360164    1.642427    1.299592
C     -0.613690    1.337611    0.467922
H     -1.320979    2.102130    0.721182
H      0.487065    1.712857   -0.419840
6

C     -0.858257    1.351512    0.177430
H      0.029939    1.513045   -0.372056
H     -0.699418    0.057708    0.184304
C     -1.584817    0.254079    0.368418
H     -2.500367    0.297579   -0.207444
H     -1.447170    0.036258    1.270423
6

C     -1.689245    0.271913    0.323410
H     -2.691579   -0.079190   -0.285746
H     -1.664141    1.910823   -0.885153
C     -0.867910    1.389484    0.211705
H      0.161154    1.422496   -0.401795
H     -1.050839    2.431572    1.019999
6

C     -0.929104    1.345508    0.208371
H      0.542847    1.260067   -0.217939
H     -0.992444    2.408018    0.773864
C     -1.963040    0.437407    0.236853
H     -2.649912   -0.076452   -0.329830
H     -1.135497    0.071953    1.351784
6

C     -0.852823    1.262655    0.234020
H      0.223034    1.797835   -0.401753
H     -1.140571    2.220714    0.704517
C     -1.466112    0.065884    0.175667
H     -2.486340    0.396828    0.131856
H     -1.807638   -0.076689    1.206004
6

C     -0.869958    1.493771    0.217832
H     -1.291614    2.309758    0.774692
H     -0.112506    1.397032   -0.502263
C     -1.268230    0.094760    0.284919
H     -1.789375   -0.248503    1.254876
H     -2.198767    0.620410    0.020256
6

C     -0.603925    1.199836    0.185501
H     -1.310858    2.025164    0.814318
H     -0.073420    1.809044   -0.624044
C     -1.240676   -0.041442    0.490695
H     -1.926884   -0.037272    1.234722
H     -2.374688    0.711899   -0.050880
6

C     -0.662392    1.233771    0.331246
H      0.251447    1.695978   -0.206237
H     -1.293928    2.020791    0.629079
C     -1.736200    0.265406   -0.005944
H     -2.697347    0.220330    0.119428
H      0.222109    0.889747    1.402278
6

C     -1.595995    0.193276   -0.248301
H     -0.266398    0.060442   -2.297073
H     -2.778834    0.095120    0.238975
C     -0.849494    1.319567    0.193319
H     -1.203164    2.307476    0.772746
H      0.289067    1.520837   -0.089166
6

C     -1.637032    0.207280   -0.289411
H     -0.455261    0.349641   -2.120145
H     -2.710870    0.146000    0.277573
C     -0.819073    1.303338    0.264737
H     -1.216748    2.230357    0.685583
H      0.245303    1.549300   -0.070909
6

C     -1.457234    0.360171    0.030184
H     -1.864374   -0.106152    0.965914
H     -2.545440   -0.061882    0.365982
C     -0.815835    1.595955    0.065588
H      0.117737    1.485730   -0.106032
H     -0.965304    2.393404    0.728676
6

C     -1.654759    0.485534   -0.001537
H     -1.075377    2.480020    0.753066
H     -2.775811   -0.163094   -0.148941
C     -0.582726    1.179413    0.660024
H      0.038320    0.528729    1.710607
H     -0.049747    1.454403   -0.395039
6

C     -1.725391    0.238982    0.355275
H     -0.204922    0.564082    0.584473
H     -2.701372   -0.175710   -0.373175
C     -1.003216    1.465007    0.328975
H      0.103196    1.475597   -0.381110
H     -0.811637    2.432400    0.937607
6

C     -1.613200    0.223343    0.074101
H     -1.234700    0.269119    1.340285
H     -2.647828    0.097869   -0.248199
C     -0.950638    1.433047    0.265021
H      0.043283    1.300642   -0.319221
H     -1.127366    2.343208    0.938325
6

C     -1.789457    0.326441   -0.022951
H     -1.295953    0.405358    0.949066
H     -2.808790   -0.285408    0.074267
C     -0.863284    1.506776    0.195486
H      0.162373    1.395822    0.018502
H     -0.935341    2.318238    0.835941
6

C     -0.842320    1.412286    0.208472
H      0.148389    1.548737   -0.424603
H     -1.270669    2.084989    0.893037
C     -1.629211   -0.015103    0.410070
H     -2.544609    0.405367   -0.219404
H     -1.469561    0.757778    1.873748
6

C     -0.744382    1.463985    0.378297
H      0.173944    1.352323   -0.268133
H     -1.199181    2.494398    0.790643
C     -1.457811    0.301683   -0.025729
H     -2.611907   -0.007946    0.305939
H     -1.691113    0.062786    0.869294
6

C     -0.426771    1.016047    0.399997
H     -0.159112    1.726049   -0.444106
H     -1.326514    2.182103    0.614088
C     -1.541474    0.363677    0.315480
H     -2.472193    0.440426   -0.076154
H     -1.604386   -0.061073    1.241006
6

C     -2.067955    0.611363    0.353493
H     -2.284749   -0.209102   -0.275493
H     -1.176736    0.060884    1.054072
C     -1.007670    1.482373    0.209593
H     -0.057392    1.167022   -0.119886
H     -0.935949    2.554688    0.828533
6

C     -0.910193    1.395718    0.163446
H      0.248930    1.378403   -0.218338
H     -1.141472    2.394817    0.961967
C     -1.673403    0.243750    0.049628
H     -1.260426    0.297463    1.190621
H     -2.793885   -0.042922   -0.097013
6

C     -0.831163    1.373730    0.166818
H      0.093979    1.480667   -0.171034
H     -1.164543    2.215799    0.811889
C      0.123913    0.507118    1.929503
H     -0.248554    1.045852    2.907330
H      1.264116    0.874990    1.793826
6

C     -0.730572   -1.155463   -1.667330
H     -1.500066   -1.218748   -2.290893
H     -0.608374   -1.902145   -1.097670
C     -1.546045    0.192007    0.011559
H     -1.352105    0.233057    1.229075
H     -2.730572    0.171968    0.002004
6

C     -1.969949    0.489463    0.500860
H     -1.021486    0.160037    0.998532
H     -2.463155    0.101247   -0.318293
C     -0.898769    1.339610    0.337685
H      0.037112    1.300381   -0.195621
H     -1.214203    2.276490    0.727149
6

C     -0.503046    1.137403    0.583233
H      0.124662    1.926497   -0.551855
H     -1.132826    2.262826    0.490847
C     -1.724768    0.358667    0.428835
H     -1.681087   -0.239548    1.259848
H     -2.613384    0.221382   -0.160597
6

C     -1.369087   -0.027806    0.291773
H     -1.860730   -0.035626    1.092790
H     -2.366479    0.426227    0.106944
C     -0.927698    1.311715    0.062267
H      0.050647    1.686420   -0.350638
H     -1.057103    2.306298    0.847175
6

C     -1.251647    0.322072    0.338727
H     -2.517690    0.109614    0.202509
H     -2.189133   -0.231760    1.104693
C     -0.695387    1.494920    0.098263
H     -1.055233    2.281798    0.822919
H      0.178639    1.690584   -0.516799
6

C     -0.606892    1.357424    0.547902
H     -1.436159    2.016149    0.349719
H      0.208715    1.593326   -0.044684
C     -1.715184    0.236382   -0.092537
H     -1.227134    0.100769    0.998691
H     -2.753796    0.363178    0.291220
6

C     -0.717880    1.384384    0.517887
H     -1.223743    2.299567    0.825300
H      0.009781    1.273497   -0.431322
C     -1.708805    0.504592    0.090588
H      0.249562    1.663868    1.660809
H     -2.497773   -0.025764   -0.134881
6

C     -1.528254    0.143608    0.100760
H     -2.661572    0.018095   -0.075911
H     -1.484332    0.070087    1.234060
C     -1.171153    1.549025    0.161765
H     -0.201356   -0.375696   -0.319798
H     -0.824686    2.405620    0.820367
6

C     -0.679536    1.334159    0.592159
H     -0.058763    1.003009    1.597585
H     -0.972866    2.350991    0.699250
C     -1.672345    0.395915    0.035546
H     -0.203155    1.420425   -0.301567
H     -2.610518   -0.065214   -0.157815
6

C     -0.890209    1.729970    0.129101
H     -0.129980    1.096944   -0.259756
H     -0.742920    2.404162    1.175357
C     -2.268169    0.476440    0.141598
H     -1.515006    0.487616    1.091043
H     -1.984165   -0.527904   -0.227032
6

C     -0.862794    1.335153    0.335834
H     -1.185439    2.346723    0.764898
H      0.084479    1.505358   -0.422292
C     -1.286781    0.231645    0.147922
H     -2.624804    0.286421    0.031169
H     -1.655112   -0.038072    1.192781
6

C     -0.784656    1.366011    0.264865
H     -1.495620    1.959850    0.841994
H      0.019306    1.267787   -0.323061
C     -1.543309    0.311336    0.066928
H     -2.467609    0.410886   -0.044507
H     -1.258561    0.351357    1.244093
6

C     -0.872265    1.392054    0.172449
H     -1.084885    2.259197    0.767924
H     -0.020441    1.451896   -0.072451
C     -1.532701    0.143515   -0.104656
H      0.388250   -1.273878   -0.263505
H     -2.628128    0.189614    0.104306
6

C     -0.877010    1.383697    0.177697
H     -1.087326    2.278852    0.769768
H      0.015738    1.454512   -0.069603
C     -1.543334    0.157107   -0.133058
H      0.393741   -1.276916   -0.275582
H     -2.646488    0.162107    0.122769
6

C     -0.944870    1.281137    0.192890
H     -1.138085    2.161305    0.842777
H      0.005351    1.570384   -0.303818
C     -1.519419    0.005866    0.302623
H     -0.069646   -0.210347    1.108964
H     -2.541396    0.417584   -0.166900
6

C     -0.974286    1.267195    0.224308
H     -1.190760    2.138191    0.834427
H      0.181377    1.615123   -0.342680
C     -1.550388    0.025035    0.284339
H     -0.057371   -0.171686    1.127907
H     -2.604363    0.390733   -0.132822
6

C     -1.713668    0.325473    0.268659
H     -1.512216   -0.154506    1.149048
H     -0.775649    0.491456   -0.321249
C     -0.677988    1.410022    0.276261
H     -1.218737    2.256493    0.592206
H      0.252495    1.655551   -0.271883
6

C     -1.549552    0.221843    0.041529
H     -2.486398    0.316898    0.092572
H     -1.402721    0.264566    1.064529
C     -0.791541    1.329486    0.330811
H      0.040873    1.376264   -0.259362
H     -1.341111    2.158170    0.780233
6

C     -1.542884    0.228785   -0.152648
H     -2.674153    0.015206    0.063041
H     -2.373832   -0.855352    0.638130
C     -0.906971    1.450849    0.295111
H     -1.081310    2.414233    0.841197
H      0.066898    1.327202   -0.179128
6

C     -1.258234    0.323585    0.098513
H     -2.405422    0.288440    0.187488
H     -1.862806   -0.279705    1.253146
C     -0.965701    1.492005    0.127628
H     -1.085365    2.367772    0.713497
H      0.047078    1.475130   -0.329960
6

C     -0.670643    1.275286    0.601652
H     -1.198219    2.258289    0.739182
H     -0.123066    1.361090    1.565555
C     -1.752254    0.367092    0.123083
H      0.235255    1.562208   -0.460046
H     -2.752559   -0.026600   -0.136299
6

C     -1.654864    0.048002    0.359547
H     -1.195081   -0.533559   -0.428264
H     -1.468456    0.036820    1.311912
C     -0.640301    1.292932    0.069800
H     -2.702494    0.316908   -0.182895
H      0.105444    1.757810   -0.321593
6

C     -1.399913    0.226619   -0.202996
H     -2.768324    0.306538    0.276005
H     -1.490810   -2.113454    0.672953
C     -0.792609    1.318497    0.175489
H      0.213026    1.458923   -0.122368
H     -1.390600    2.125699    0.741443
6

C     -1.455939    0.212663   -0.116523
H     -2.655367    0.340100    0.220753
H     -1.609758   -1.948540    1.019492
C     -0.829799    1.383804    0.153067
H      0.184691    1.428182   -0.147005
H     -1.382006    2.071527    0.757281
6

C     -1.522198    0.038564    0.001277
H     -0.975828   -1.070221    0.000225
H     -1.652509    0.320847    1.041696
C     -1.077746    1.458515    0.095283
H     -2.612063   -0.103941    0.076690
H     -0.805481    2.472449    1.026095
6

C     -1.722187    0.324816    0.191243
H     -1.416342    0.251181    1.200301
H     -2.707161   -0.161715   -0.148061
C     -0.951543    1.588781    0.152937
H     -1.073417   -0.619836    0.587084
H     -0.872764    2.183372    0.844621
6

C     -0.634477    1.174190    0.532505
H      0.075936    1.657401   -0.325629
H     -1.228261    2.119885    0.624187
C     -1.681458    0.270977    0.064077
H      0.158156    1.074862    1.435711
H     -2.670160    0.213823   -0.027567
6

C     -0.761385    1.361710    0.478888
H     -1.074495    2.347452    0.837941
H      0.088439    0.605493    0.733300
C     -1.739895    0.323293    0.196702
H     -2.654910   -0.057275   -0.224329
H      0.092265    1.461097   -0.421629
6

C     -0.799890    1.393073    0.247296
H     -1.331974    2.160953    0.742504
H      0.077696    1.387587   -0.147905
C     -1.457889    0.177559   -0.186983
H      0.248336   -0.928023   -1.451456
H     -2.626362    0.317104    0.212661
6

C     -0.848871    1.310681    0.235308
H     -1.289909    2.181066    0.740647
H      0.219863    1.500487   -0.151465
C     -1.604263    0.188173   -0.160105
H      0.173139   -1.010353   -1.633147
H     -2.615241    0.255869    0.203187
6

C     -0.936297    1.430510    0.209194
H      0.091089    1.267006   -0.151248
H     -1.140593    2.459092    0.896617
C     -1.610024    0.240135   -0.209942
H     -2.542594    0.039532    0.122952
H      0.117594   -0.291758   -2.113736
6

C     -0.899272    1.441092    0.216787
H      0.087259    1.259826   -0.171212
H     -1.131975    2.500996    0.922356
C     -1.593052    0.236488   -0.194425
H     -2.601380   -0.002125    0.094066
H      0.125104   -0.323253   -2.133472
6

C     -1.487020    0.087017   -0.022300
H     -2.515222    0.533856    0.106783
H     -0.600623   -1.944609    0.139384
C     -0.719293    1.305611    0.394039
H      0.085658    1.441769   -0.343967
H     -1.502544    2.068023    0.733018
6

C     -1.425754    0.064294    0.078211
H     -2.599406    0.610261    0.086239
H     -0.403022   -1.812887    0.443077
C     -0.721877    1.370079    0.406300
H      0.073453    1.552052   -0.315292
H     -1.464836    1.839590    0.612115
6

C     -0.991620    1.689655    0.136608
H     -0.156687    1.125293   -0.171871
H     -0.806608    2.143056    1.027160
C     -2.214633    0.527257    0.007441
H     -1.702930    0.511694    0.958678
H     -1.657971   -0.329728    0.092296
6

C     -0.972062    1.598070   -0.125698
H     -0.012232    1.134710    0.469629
H     -1.559190    2.502861    0.363370
C     -1.736442    0.106790   -0.177966
H     -2.027308    0.783568    0.725674
H     -1.223217   -0.458771    0.795302
6

C     -1.607842    0.172248   -0.222064
H     -0.007291   -0.956171   -1.479609
H     -2.517013    0.110940    0.168905
C     -0.973314    1.495438    0.154153
H     -1.089473    2.341241    0.823358
H      0.049222    1.316408   -0.056780
6

C     -1.551156    0.164749   -0.224208
H      0.170921   -0.869524   -1.614411
H     -2.664415    0.120636    0.217127
C     -1.021800    1.430467    0.107002
H     -1.092954    2.287232    0.792273
H      0.191905    1.433192   -0.024622
6

C     -1.580817    0.291394   -0.044713
H     -1.302014    0.364817    1.021537
H     -2.802663    0.072218    0.142378
C     -0.703191    1.476700    0.299659
H     -1.386772    2.141811    0.825028
H      0.245008    1.320288   -0.193578
6

C     -1.663515    0.378075    0.027083
H     -1.189314    0.303997    1.218801
H     -2.906090   -0.131767   -0.172121
C     -0.718467    1.404953    0.347579
H     -1.202830    2.409574    0.912257
H      0.149766    1.302395   -0.283287
6

C     -1.819904    0.402259    0.122561
H     -1.155917    0.173575    1.321022
H     -2.698934   -0.104311   -0.320806
C     -0.894398    1.381015    0.386297
H     -0.985538    2.438798    0.794137
H      0.024242    1.375891   -0.252900
6

C     -0.838008    1.358677    0.280691
H      0.077629    1.349976   -0.321470
H     -1.297040    2.201923    0.905586
C     -1.456171    0.185993    0.127593
H     -1.293463    0.331630    1.164332
H     -2.723397    0.239029   -0.106421
6

C     -1.884582    0.448585   -0.029169
H     -2.607546   -0.220739    0.042355
H     -1.625438    2.272493   -1.051341
C     -0.907499    1.428319    0.094961
H     -0.797357    2.219007    0.704990
H      0.058565    1.561104    0.054436
6

C     -1.774942    0.192572    0.265270
H     -2.623723    0.011371   -0.215137
H     -1.512008    1.896356   -0.450541
C     -0.895533    1.283136    0.209137
H     -0.867989    2.302631    0.817154
H      0.023767    1.646566   -0.208851
6

C     -1.725710    0.066624    0.178944
H     -1.172432    0.367033    1.364162
H     -2.802344    0.208980   -0.287571
C     -0.869968    1.283927    0.200654
H      0.196752    1.611558   -0.292047
H     -1.156749    2.129107    0.886169
6

C     -1.654162    0.168939   -0.012885
H     -1.231980    0.367154    1.268821
H     -2.825931    0.167928    0.016750
C     -0.881488    1.374592    0.024094
H      0.283800    1.551001   -0.088302
H     -1.220689    2.037613    0.841833
6

C     -1.560550    0.381439   -0.195868
H     -1.521403    0.183797    0.840333
H     -2.422450    0.122038    0.551455
C     -0.881661    1.530528   -0.030876
H      0.134760    1.246823    0.140112
H     -1.279147    2.202602    0.745156
6

C     -0.765815    1.501091    0.118682
H     -1.361857    1.872623    0.769415
H     -0.017715    1.611050   -0.471094
C     -1.383509   -0.076376    0.321194
H     -1.688625    0.014823    1.345516
H     -2.312928    0.744017   -0.033402
6

C     -0.867465    1.554970    0.408424
H      0.179832    1.482946   -0.473711
H     -1.021481    2.548133    0.769842
C     -1.319582    0.226431    0.023779
H     -2.768338    0.031986    0.005345
H     -1.733416   -0.177238    1.316632
6

C     -0.641910    1.244204    0.651141
H     -1.195612    2.240724    0.669736
H     -0.122938    1.436327   -0.388020
C     -1.482714    0.377057    0.028589
H     -2.695245    0.137965   -0.093874
H      0.380819    1.352714    1.804270
6

C     -0.797671    1.436366    0.444673
H     -1.011211    2.373227    0.774778
H     -0.081113    1.283629   -0.250526
C     -1.780223    0.515871    0.094846
H     -2.732719   -0.164546   -0.333095
H     -1.127513    0.222680    1.319637
6

C     -0.887871    1.378530    0.178988
H     -0.159764    1.441261   -0.374644
H     -1.383592    2.060958    0.704483
C     -1.475050    0.066290    0.183021
H     -1.556802   -0.072974    1.359753
H     -2.067370    0.793163   -0.001288
6

C     -0.858460    1.518339    0.257190
H     -0.041930    1.492700   -0.316226
H     -0.995788    2.377080    0.716106
C     -1.268274    0.234700    0.071641
H     -1.705662   -0.129786    1.285580
H     -2.825507    0.103194    0.005779
6

C     -1.609946    0.061663    0.222283
H     -2.504141    0.366236   -0.419099
H     -1.207307    0.410705    1.378036
C     -0.898017    1.235865    0.384229
H     -0.192384    1.452779   -0.412583
H     -1.118656    2.139980    0.897444
6

C     -1.808904    0.246664    0.057483
H     -2.786530   -0.152844   -0.172010
H     -0.127436    1.590995   -0.260112
C     -0.479892    1.325693    0.513771
H     -0.935658    2.425769    0.728440
H      0.216740    1.309505    1.300146
6

C     -1.090924    1.560130    0.236338
H     -0.801289    2.320309    0.814664
H     -2.746494   -0.122678   -0.201674
C     -1.674757    0.233929    0.201648
H     -0.933294   -0.615693   -0.015856
H     -1.356533    0.194745    1.190066
6

C     -1.571111   -0.025228    0.130194
H     -2.341889    0.578068   -0.055012
H     -1.485423    0.117904    1.366989
C     -0.929500    1.290650    0.143959
H      0.151505    1.540716   -0.420680
H     -1.354031    2.165118    0.884861
6

C     -0.975626    1.427547    0.445875
H     -0.986469    2.404733    0.824265
H      0.009039    1.296195   -0.315052
C     -1.716201    0.412657    0.054845
H     -1.328013    0.214731    1.232690
H     -2.533180   -0.088636   -0.192311
6

C     -0.939821    1.543866    0.271667
H     -0.908798    2.425939    1.014115
H     -0.133357    1.097234   -0.135094
C     -1.739453    0.396068    0.075394
H     -1.200568    0.496689    1.033169
H     -2.608454   -0.292569   -0.208939
6

C     -0.835643    1.320410    0.326147
H      0.099648    1.559538   -0.108361
H     -1.079393    2.270700    0.688158
C     -1.647890    0.161659   -0.170720
H     -2.675142    0.123968    0.132348
H     -1.750410   -0.191547    1.363429
6

C     -1.486757   -0.141872    0.062276
H     -1.445193   -0.301568    1.161851
H     -2.532499    0.521540    0.118846
C     -1.017210    1.540458    0.306413
H     -1.188338    2.567877    0.591656
H     -1.656593   -1.272058   -0.396003
6

C     -1.400829    0.017229    0.322565
H     -1.383091   -0.285202    1.531512
H     -2.492923    0.793110   -0.201976
C     -0.974221    1.373117    0.193932
H      0.064499    1.606217   -0.407653
H     -1.343885    2.162755    0.611931
6

C     -2.060663    0.384073    0.508298
H     -2.451282    0.010250   -0.384815
H     -1.007471    0.164079    0.927177
C     -0.996397    1.384494    0.549845
H     -1.138727    2.455511    0.747519
H      0.124090    1.268820   -0.297712
6

C     -1.748375    0.211680    0.076575
H     -2.776980    0.013875   -0.094138
H     -1.030647    2.402223    0.768558
C     -0.629851    1.096584    0.348836
H      0.047432    1.711915   -0.232258
H     -0.200228    1.340659    1.247642
6

C     -1.794910    0.373189    0.057137
H     -2.908271   -0.091995    0.015338
H      0.178489    1.262631    1.199106
C     -0.641478    1.220518    0.283832
H     -0.985487    2.118170    0.609184
H      0.191725    1.816394   -0.097918
6

C     -1.607577    0.128013    0.344422
H     -1.945993    0.164161    1.447156
H     -2.561171    0.309678   -0.144610
C     -0.192933    1.312194    0.334678
H     -1.114822    1.698728    0.686980
H     -0.107953    2.054454   -0.618314
6

C     -1.016547    1.750071    0.163621
H     -0.723681    2.387393    1.061946
H     -0.129786    1.111805   -0.276187
C     -2.261271    0.514247   -0.021408
H     -1.749350    0.315039    1.136219
H     -1.649816   -0.411327   -0.013879
6

C     -0.882031    1.372536    0.424874
H      0.056079    1.424348   -0.216678
H     -0.879067    2.413715    0.712060
C     -2.139055    0.619356    0.368675
H     -2.279641   -0.285350   -0.148697
H     -1.406735    0.122623    0.910078
6

C     -0.799463    1.602685    0.166136
H      0.086400    1.254081   -0.128288
H     -0.999331    2.334181    0.843269
C     -2.186721    0.622227    0.130101
H     -2.332988   -0.330940   -0.119480
H     -1.298347    0.184993    1.158573
6

C     -0.862237    1.451057    0.221094
H     -1.084238    2.332152    0.795028
H      0.067787    1.403080   -0.100469
C     -1.588811    0.189672   -0.165821
H      0.248696   -1.192756   -1.160280
H     -2.670921    0.060316    0.117740
6

C     -0.858228    1.410932    0.330491
H     -1.220370    2.237890    0.755716
H      0.135599    1.409606   -0.201786
C     -1.525772    0.199592   -0.142584
H      0.270216   -1.207221   -1.117292
H     -2.669649    0.178256    0.125735
6

C     -0.863803    1.240205    0.289528
H     -1.173775    2.340119    0.790362
H      0.339365    1.620956   -0.213371
C     -1.709876    0.119000   -0.100607
H      0.317030   -0.999669   -0.901835
H     -2.730331    0.115996    0.101661
6

C     -0.866635    1.224669    0.280890
H     -1.184521    2.349815    0.791672
H      0.342332    1.612936   -0.201859
C     -1.716222    0.132130   -0.126534
H      0.309950   -0.987557   -0.954592
H     -2.713374    0.116727    0.123404
6

C     -0.924326    1.269952    0.243898
H      0.281333    1.522271   -0.184872
H     -1.162565    2.422577    0.844176
C     -1.678282    0.096068   -0.161401
H     -2.654581    0.125408    0.125771
H      0.269688   -0.702525   -1.077430
6

C     -0.896483    1.276028    0.264722
H      0.249758    1.426099   -0.141734
H     -1.376521    2.283869    0.764016
C     -1.512051    0.117906   -0.341864
H     -2.603123    0.332375    0.322432
H     -1.095876   -0.918123   -2.263818
6

C     -0.914061    1.346100    0.171255
H      0.074852    1.484882   -0.074899
H     -1.116683    2.249075    0.759489
C     -1.520183    0.156990   -0.133385
H     -2.662345    0.199229    0.145113
H      0.419150   -1.543576   -0.421576
6

C     -0.799382    1.306717    0.124070
H     -1.279074    2.143208    0.731056
H      0.222267    1.566617   -0.068372
C     -1.486515    0.155981   -0.165226
H      0.513676   -1.499708   -0.334893
H     -2.795716    0.263752    0.246045
6

C     -1.640878    0.234284   -0.153916
H     -2.665396    0.160052    0.206996
H     -0.364887   -0.895564   -2.298011
C     -0.779424    1.404805    0.170614
H      0.244290    1.460766   -0.130683
H     -1.297011    2.176369    0.774562
6

C     -1.492747    0.235141   -0.306321
H     -2.579150    0.200402    0.295390
H      0.056474   -0.032768   -1.975598
C     -0.919449    1.443279    0.113927
H      0.102986    1.303987   -0.029404
H     -1.250060    2.253468    0.793981
6

C     -1.600884    0.202243   -0.285794
H     -2.422300    0.375532    0.343053
H     -2.397466   -1.007236   -2.097756
C     -0.889823    1.341740    0.129377
H      0.153066    1.391812   -0.052852
H     -1.378480    2.124949    0.733788
6

C     -1.472764    0.212769   -0.117635
H     -2.753214    0.269703    0.302316
H     -1.584547    0.000409    1.178835
C     -0.675750    1.369682    0.298963
H      0.319919    1.607687   -0.252120
H     -1.364094    2.206979    0.639954
6

C     -1.594119    0.223934   -0.084474
H     -2.501115    0.009127    0.141335
H     -1.594227    0.017141    1.143414
C     -0.890551    1.444024    0.195760
H      0.070521    1.387306   -0.192402
H     -1.020959    2.585696    0.846678
6

C     -0.964343    1.344683    0.332770
H     -1.101644    2.299567    0.794114
H      0.173392    1.421121   -0.260175
C     -1.838544    0.375197    0.277328
H     -2.730601    0.010638   -0.347031
H     -1.068710    0.216021    1.253305
6

C     -1.634659    0.136533    0.119356
H     -1.502375   -1.005367   -0.003632
H     -2.716061    0.217523   -0.119217
C     -0.690810    1.022839    0.396366
H      0.079472    1.719035   -0.357689
H     -1.398613    0.356543    1.197956
6

C     -1.618716    0.173182    0.163494
H     -1.512980   -1.011135    0.168959
H     -2.674088    0.213091   -0.106009
C     -0.661249    1.046684    0.371187
H      0.063894    1.719072   -0.381661
H     -1.470514    0.300444    1.189761
6

C     -0.949227    1.453185    0.318884
H      0.137181    1.280759   -0.244083
H     -1.091909    2.385311    0.861450
C     -1.677719    0.400431   -0.078549
H     -2.556745   -0.083410    0.009871
H     -1.416608    1.940027   -1.292856
6

C     -1.675810    0.304964    0.314155
H     -0.918694   -0.391268   -0.073456
H     -2.565342    0.191505   -0.154898
C     -0.785608    1.341943    0.130034
H      0.077644    1.532490   -0.291582
H     -1.411557    0.081571    1.239063
6

C     -0.694157    1.184570    0.539738
H     -0.054855    1.601202   -0.263706
H      0.221420    0.995821    1.643116
C     -1.612772    0.337248    0.022677
H     -2.599851    0.239886   -0.000662
H     -1.176785    2.073372    0.569525
6

C     -0.606196    1.221672    0.395205
H     -1.291612    2.040139    0.680462
H      0.018662    1.560164   -0.314953
C     -1.665147    0.396729    0.155939
H     -2.594126    0.217572   -0.049081
H      0.515784    1.612344    0.957016
6

C     -1.654213    0.169862    0.155991
H     -1.765580   -0.768760   -0.288144
H     -2.907476    0.171269   -0.139835
C     -0.573261    1.072885    0.143410
H     -1.444405    0.161749    1.404903
H      0.218683    1.876708   -0.327698
6

C     -1.440943   -0.004355    0.137945
H     -1.044668   -0.928891   -0.217965
H     -2.757650    0.252414   -0.100479
C     -1.163610    1.423705    0.259612
H     -1.317824    0.028393    1.180964
H     -0.989969    2.486276    0.763000
6

C     -0.833196    1.696250    0.195973
H      0.287743    1.258759   -0.191448
H     -1.021114    2.376124    0.915827
C     -1.731218    0.511148   -0.050628
H     -1.122839    2.789463   -0.674458
H     -2.840634   -0.406005   -0.002152
6

C     -0.679908    1.222508    0.544092
H     -1.356381    2.109209    0.743706
H      0.240006    1.592138   -0.514888
C     -1.468849    0.284234    0.234617
H     -0.360687    1.454186    1.718933
H     -2.873288    0.228187   -0.139955
6

C     -1.673461    0.268343   -0.172456
H     -1.437203    0.186810    1.051893
H     -2.637616    0.041248    0.322044
C     -0.801618    1.423629    0.024461
H      0.143584    1.470494    0.083933
H     -1.124136    2.276705    0.740436
6

C     -1.708884    0.242591   -0.063616
H     -1.141346    2.247161    0.758417
H     -2.713121    0.080477    0.108100
C     -0.759277    1.260134    0.175172
H     -0.942692    0.844191    1.965809
H      0.184208    1.605914   -0.110501
6

C     -0.732581    1.369451    0.160111
H      0.127745    1.668020   -0.378598
H     -1.107611    2.196797    0.764819
C     -1.427977    0.291704    0.055709
H     -1.729690   -0.032940    1.412250
H     -0.690237   -0.483317    1.214581
6

C     -0.746449    1.424318    0.260538
H      0.069182    1.580398   -0.382557
H     -1.112945    2.212987    0.741182
C     -1.377340    0.289391    0.074151
H     -1.702563   -0.014062    1.320977
H     -0.559598   -0.302608    1.439808
6

C     -0.902901    1.369176    0.432576
H     -1.188822    2.306876    0.922943
H      0.037889    1.276966   -0.387504
C     -1.551509    0.264858    0.179252
H     -1.275726    0.358461    1.114119
H     -2.649382    0.090890   -0.211074
6

C     -1.624624    0.236714   -0.236949
H     -2.663782    0.054422    0.193276
H     -0.897999   -1.176810   -2.125076
C     -0.863793    1.469844    0.255215
H      0.114910    1.425487   -0.062373
H     -1.101130    2.249809    0.718404
6

C     -1.672664    0.225082   -0.199839
H     -2.632418   -0.022276    0.114580
H     -1.002538   -1.418821   -2.426487
C     -0.885591    1.366673    0.204149
H      0.178921    1.361508   -0.157088
H     -1.126667    2.505289    0.905771
6

C     -1.621252    0.331820    0.063717
H     -2.692712    0.036463   -0.024810
H     -0.934477    3.056638    1.112092
C     -0.800211    1.426985    0.276020
H      0.145533    1.426253   -0.260894
H      0.256850    0.104050    1.009383
6

C     -0.837426    1.317330    0.158390
H      0.245524    1.397992   -0.155854
H     -1.246626    2.444176    0.901214
C     -1.516647    0.206658   -0.216359
H     -2.783245    0.070120    0.180181
H     -0.018354   -1.608675   -1.862457
6

C     -0.817332    1.197593    0.210823
H     -1.405608    2.154985    0.696335
H      0.403150    1.661625   -0.113133
C     -1.529086    0.033728   -0.275617
H      0.187362   -0.415903   -1.335424
H     -2.789544    0.388345    0.349165
6

C     -0.687127    1.324011    0.593422
H     -1.146351    2.269962    0.784520
H     -0.467717    0.801085    1.605771
C     -1.816375    0.446446    0.229779
H     -2.700744   -0.117843   -0.235591
H      0.212177    1.513701   -0.504557
6

C     -0.709063    1.358911    0.355383
H      0.130517    1.496040   -0.332966
H     -1.089051    2.320636    0.839692
C     -1.722974    0.351455    0.157647
H     -2.747848   -0.090766   -0.152183
H     -0.189259    0.603304    0.801861
6

C     -1.635456    0.142737    0.184072
H     -2.658565    0.203246    0.061882
H     -1.583389   -0.923402    0.189729
C     -0.515274    1.166805    0.093725
H      0.122343    1.822985   -0.292332
H     -1.673721    0.116699    1.189424
6

C     -0.812171    1.336819    0.133536
H     -1.063923    1.949176    0.931714
H      0.077046    1.656018   -0.422791
C     -1.253918    0.205561    0.187858
H     -1.817148    0.345458    1.183974
H     -2.429896    1.815483   -0.531692
6

C     -0.830056    1.341443    0.149068
H     -1.096807    2.021316    0.927970
H      0.056813    1.573768   -0.380634
C     -1.262057    0.222535    0.212880
H     -1.738007    0.333972    1.105006
H     -2.410117    1.916717   -0.366409
6

C     -0.239714   -0.022574    2.282162
H     -1.158205    0.790297    2.696383
H      0.312015   -0.725933    1.700512
C     -0.838181    1.380812    0.174072
H      0.129348    1.463730   -0.196445
H     -1.192894    2.225654    0.830047
6

C     -0.260446    1.214883    3.378487
H     -0.884734    1.807271    2.982424
H      0.522708    0.638477    4.089734
C     -0.856973    1.364465    0.172510
H      0.113074    1.488634   -0.174585
H     -1.157829    2.217098    0.809748
6

C     -3.928603   -3.025253    0.509625
H     -3.611653   -2.061243    0.030990
H     -4.046145   -4.202749    1.122043
C     -1.581177    0.191892    0.026716
H     -1.390450    0.230949    1.181789
H     -2.657096    0.174190    0.034133
6

C     -4.199405   -3.651665    0.862610
H     -3.809548   -2.698577    0.139641
H     -4.726527   -4.482141    1.396286
C     -1.555784    0.191028   -0.014715
H     -1.456445    0.229088    1.157287
H     -2.616493    0.176915    0.100067
6

C     -2.111339    4.793394    3.002918
H     -1.526859    4.002713    2.183941
H     -2.644608    5.378825    3.508570
C     -1.527866    0.192229    0.008958
H     -2.639947    0.176551    0.100930
H     -1.460909    0.228251    1.132750
6

C     -1.627547    0.091544   -0.087848
H     -1.376328    0.297751    1.001090
H     -2.619951    0.190470    0.286521
C     -0.919042    1.520522    0.003088
H     -1.174114    2.124146    0.779023
H      0.186531    1.442795    0.068437
6

C     -0.601380    1.341463    0.264855
H      0.184300    1.455436   -0.395380
H     -1.383668    2.074119    0.840736
C     -1.644430    0.454861    0.258150
H     -2.693242    0.110396   -0.100789
H     -0.364408    0.433047    0.689904
6

C     -1.584589    0.088844    0.221524
H     -1.462911    0.089277    1.082309
H     -2.642142    0.001118   -0.104653
C     -1.166150    1.496403    0.184135
H     -0.814206    2.510792    0.857726
H     -1.601073   -1.009800   -0.362618
6

C     -1.562406    0.085672    0.391405
H     -2.042143    1.210921    0.870381
H     -2.546016    0.115587   -0.344133
C     -1.070662    1.508367    0.190253
H     -0.843792    2.304954    0.925666
H     -0.115543    1.421696   -0.295618
6

C     -1.590421    0.067436   -0.059843
H      0.147079   -1.357654   -0.263111
H     -2.637021    0.224249    0.053043
C     -0.843466    1.336846    0.280734
H     -1.199024    2.328090    0.825488
H      0.131512    1.479655   -0.231849
6

C     -1.485361    0.321687   -0.133661
H     -2.635329    0.158488    0.168854
H      0.570860   -1.128110    0.673954
C     -0.835726    1.528918    0.195943
H      0.186958    1.238987   -0.214225
H     -1.368962    2.188196    0.850662
6

C     -1.598672    0.208735   -0.120778
H      0.454024   -0.478935   -1.234453
H     -2.713915    0.072914    0.073515
C     -0.851548    1.370181    0.362329
H     -1.209924    2.361388    0.823908
H      0.235640    1.423057   -0.271402
6

C     -0.832302    1.346944    0.156714
H      0.273548    1.545944   -0.096283
H     -1.348989    2.087245    0.714089
C     -1.703251    0.110155   -0.186643
H     -2.527426    0.345988    0.279695
H     -0.056950   -0.726685   -1.208081
6

C     -0.787716    1.429671    0.047437
H      0.059124    1.608760   -0.380886
H     -1.080140    1.907697    0.972164
C     -1.270876    0.165821    0.201444
H     -1.790506    0.381083    1.174130
H     -1.326296   -0.840692   -2.172759
6

C     -1.685185    0.377989    0.070510
H     -2.604926   -0.039784   -0.156012
H      0.367671    1.962605    1.270344
C     -0.607142    1.439890    0.553944
H     -1.154382    2.339021    0.798676
H     -0.086786    1.319160   -0.399545
6

C     -1.715389    0.359677    0.201655
H     -2.746155    0.012518   -0.127191
H     -1.829849    1.901171   -0.688344
C     -0.713111    1.221324    0.314286
H      0.164676    1.616606   -0.311323
H     -1.128442    2.226152    0.790146
6

C     -1.723616    0.350440    0.027819
H     -2.780851   -0.053496   -0.000431
H     -1.744433    2.210311   -0.707914
C     -0.728176    1.258320    0.250708
H      0.216780    1.577402   -0.213680
H     -1.122557    2.303610    0.803158
6

C     -1.001650    1.537291    0.088454
H     -0.978537    2.416938    0.824071
H     -1.224059   -1.174711    0.535032
C     -1.510939    0.133802    0.101708
H     -2.593306    0.108072    0.060630
H     -1.585564   -0.009668    1.166178
6

C     -0.912079    1.461123    0.179666
H     -1.177656    2.206518    0.798920
H      0.411966    1.449344   -0.152887
C     -1.780249    0.407006   -0.111114
H     -2.680402   -0.087714    0.152988
H     -1.438333    2.698939   -0.819966
6

C     -1.520297    0.013821    0.060461
H     -1.486485    0.178577    1.363748
H     -2.604926    0.409658   -0.062970
C     -0.707154    1.147688    0.165647
H     -0.041810    1.702729   -0.290114
H     -0.741271   -0.532680   -0.484126
6

C     -0.626575    1.450339    0.502951
H     -1.071048    2.415257    0.899521
H      0.437683    1.445429    1.352593
C     -1.904162    0.420048    0.242493
H     -2.795621   -0.317360   -0.285212
H      0.258985    1.467993   -0.492180
6

C     -1.715537    0.241194    0.259368
H     -1.430945    0.108248    1.275646
H     -2.723831    0.180686   -0.094494
C     -0.667540    1.172684    0.026775
H      0.177181    1.749662   -0.230523
H     -1.712986   -0.555757   -0.368638
6

C     -0.851130    1.433606    0.149337
H     -1.146097    2.098092    0.841709
H      0.107459    1.486320    1.031757
C     -1.741322    0.420240    0.252685
H     -2.722826   -0.043025   -0.098068
H      0.322955    1.527363   -0.278090
6

C     -0.920850    1.300697    0.274796
H      0.396307    1.632495   -0.177208
H     -1.180559    2.282270    0.757726
C     -1.619882    0.063073   -0.150444
H     -2.813436    0.157742    0.162703
H     -0.285514   -1.775816   -0.852286
6

C     -0.921306    1.358895    0.207603
H     -0.025963    1.403741   -0.114461
H     -1.198502    2.266891    0.781114
C     -1.521696    0.037371   -0.159493
H     -2.470954    0.369378    0.152809
H     -0.750426   -1.910020   -0.776525
6

C     -0.923338    1.353763    0.400015
H     -0.668139    0.616076    1.599517
H     -0.870984    2.228211    0.781787
C     -1.751696    0.302446    0.375288
H     -0.016474    1.565787   -0.353720
H     -2.575928   -0.013931   -0.335797
6

C     -1.455066   -0.085486    0.012629
H     -2.427333    0.650510    0.265031
H     -1.369881   -0.260114    1.153756
C     -1.041217    1.536189   -0.093083
H     -1.240784    2.408483    0.606775
H      0.003830    1.417645    0.105205
6

C     -2.034785    0.619576   -0.141325
H     -1.687496    0.403057    0.975307
H     -2.018032   -0.448471    0.149369
C     -0.923544    1.539925    0.332143
H     -0.010617    1.168793   -0.229842
H     -0.855976    2.384347    0.964659
6

C     -0.799638    1.285576    0.418202
H     -1.784694    1.693533   -0.034222
H      0.068462    1.459975   -0.515015
C     -1.711913    0.178989    0.337056
H     -1.089901    2.473438    0.975657
H     -2.605430    0.038297   -0.348326
6

C     -0.550492    1.219011    0.292712
H     -1.274238    2.124150    0.714707
H      0.227074    1.646883   -0.238382
C     -1.766291    0.405568    0.057856
H      0.177428    0.335466    0.915198
H     -2.774473    0.040665    0.040680
6

C     -0.765350    1.473216    0.284392
H     -1.261399    2.157194    0.869125
H     -1.106579    2.262009   -0.493184
C     -1.829071    0.487168    0.191750
H      0.253707    1.364557   -0.376851
H     -2.536307   -0.045858   -0.100843
6

C     -0.459403    1.191457    0.621479
H     -1.212783    2.091789    0.476021
H     -0.100100    1.748615   -0.443199
C     -1.502612    0.358729    0.266976
H     -2.509421    0.317474    0.071882
H     -1.746130   -0.040836    1.057152
6

C     -1.938159    0.459614    0.204689
H     -1.136621    0.416807    1.030433
H     -2.589234   -0.318000   -0.297056
C     -0.887502    1.513063    0.369338
H     -0.095668    1.206931   -0.145543
H     -0.883265    2.388813    0.888449
6

C     -1.714341    0.383853    0.100139
H     -1.094533    2.349802    0.840809
H     -2.804275   -0.107739   -0.083494
C     -0.808402    1.244793    0.314486
H     -0.069699    0.906022    1.372983
H      0.283131    1.565566   -0.304368
6

C     -0.515142    1.029146    0.124892
H     -1.709672    0.148431    1.227462
H      0.163643    1.976098   -0.335127
C     -1.660020   -0.015059    0.152293
H     -2.639482    0.313857    0.067252
H     -1.637440   -1.203037   -0.111428
6

C     -1.026594    1.388079    0.391752
H     -1.697722   -0.618016   -0.992181
H     -1.170817    2.489963    0.597682
C     -1.457992    0.041913    0.049376
H     -1.504680   -0.135114    1.001009
H     -2.509913    0.401592    0.201222
6

C     -1.794784    0.414806    0.232097
H     -0.387847    0.986187    1.282283
H     -2.959471   -0.234272   -0.193545
C     -0.708725    1.327996    0.432179
H      0.375911    1.662363   -0.393835
H     -1.051351    2.265383    0.790677
6

C     -1.583665    0.304604    0.043161
H     -1.425489    2.000557    0.678088
H     -2.852572    0.228947    0.094375
C     -0.539750    1.271824    0.341374
H      0.186773    0.879113    1.197217
H      0.263056    1.630345   -0.289425
6

C     -1.536512    0.269676    0.139508
H      0.037943    1.594716   -0.375445
H     -2.680930    0.416217    0.003437
C     -0.504256    1.276386    0.506728
H     -1.454665    1.879281    0.593345
H      0.259775    1.489625    1.346050
6

C     -1.870655    0.183736   -0.106637
H     -2.516711    0.532126    0.583387
H     -1.262254    0.111649    0.946748
C     -0.692947    1.283524   -0.156131
H     -1.477524    1.834431    0.425505
H      0.289641    1.721763    0.357439
6

C     -0.657398    1.212810    0.361912
H     -1.415100    2.212094    0.719099
H     -0.157530    1.583408   -0.477695
C     -1.482331   -0.088717    0.151467
H     -1.670425   -0.033616    1.243706
H     -2.147665    0.781249    0.051822
6

C     -1.769753    0.284839    0.080135
H     -0.924453    2.259641    0.662030
H     -2.868621   -0.135676   -0.115311
C     -0.554491    1.356356    0.430997
H      0.146963    1.295367    1.183223
H     -0.021102    1.671116   -0.190279
6

C     -0.665689    1.411783   -0.102476
H     -1.384208    1.972048    0.541248
H      0.392236    1.693804    0.280232
C     -1.907373    0.117765   -0.052889
H     -1.145874    0.173444    1.007189
H     -2.819542    0.298384    0.377007
6

C     -0.795943    1.332079    0.001665
H     -1.180838    2.198589    0.799812
H      0.086420    1.743921   -0.242976
C     -1.544801   -0.170712    0.072317
H     -1.566230    0.030646    1.384978
H     -2.529058    0.532705    0.034515
6

C     -0.632242    1.106649    0.272361
H     -1.147504   -1.163934    0.604057
H      0.042717    1.717098   -0.398514
C     -1.731140    0.232892    0.391538
H     -1.449662    0.174198    1.198567
H     -2.590345    0.221636   -0.227181
6

C     -1.416931    0.058344    0.038670
H     -1.453639    0.046318    1.435881
H     -2.416687    0.553092   -0.027657
C     -0.966271    1.398428    0.073771
H     -1.304937    2.186488    0.847153
H      0.028015    1.424558   -0.317507
6

C     -0.815266    1.389766    0.169450
H     -1.260291    2.258378    0.878736
H      0.173829    1.422053   -0.240513
C      1.342374    1.955830    2.158344
H      1.419813    1.090992    1.519969
H      1.290356    2.605709    3.057064
6

C     -1.617508    0.192401    0.062602
H     -2.632640    0.174092    0.017833
H     -1.378574    0.230538    1.162203
C     -3.366517   -2.823624    1.098522
H     -2.376966   -2.881811    0.699661
H     -4.283181   -2.908118    1.607165
6

C     -1.555574    0.191435   -0.001726
H     -1.459887    0.228589    1.143072
H     -2.613262    0.177007    0.101293
C      0.981821    3.713834    0.305861
H      1.542500    2.885178   -0.247154
H      0.373848    4.457940    0.835394
6

C     -0.842715    1.398129    0.186330
H     -1.254160    2.246258    0.868873
H      0.195148    1.425809   -0.247530
C     -5.302314   -0.266538    1.851733
H     -5.876590    0.730718    1.519927
H     -4.821582   -1.220041    2.258313
6

C     -1.581500    0.191205    0.004771
H     -2.628168    0.175575    0.063182
H     -1.419055    0.230251    1.174684
C     -4.071147    1.915012   -4.952476
H     -5.160531    1.691071   -4.870930
H     -3.012253    2.060813   -4.947467
6

C     -0.939018    1.427716    0.203726
H      0.213724    1.406519   -0.012110
H     -1.032760    2.409790    0.777060
C     -1.814658    0.296646   -0.342296
H     -2.565708   -0.104394    0.241192
H     -2.316600    0.396699   -2.416319
6

C     -0.913447    1.362131    0.332096
H     -0.857606    2.401371    0.876967
H     -0.075023    1.451981   -0.314996
C     -1.752373    0.310039    0.279675
H     -2.539971   -0.089246   -0.306170
H      0.029305    0.565650    0.931510
6

C     -0.686776    1.313404    0.453047
H     -0.032666    1.563741   -0.286650
H      0.130330    1.537675    1.355139
C     -1.659445    0.444226    0.187652
H     -2.730482   -0.023507   -0.157969
H     -1.029052    2.138412    0.671493
6

C     -0.675540    1.247648    0.542351
H     -1.213832    2.108370    0.656039
H     -0.091853    1.441698   -0.348131
C     -1.558326    0.504190    0.100583
H     -2.598870    0.134370   -0.083269
H      0.040905    1.168280    1.748459
6

C     -1.570202    0.190449   -0.025648
H     -1.412595    0.231345    1.206415
H     -2.645926    0.175238    0.061871
C     -1.558018   -2.244389   -0.510665
H     -1.655510   -1.755815   -1.336916
H     -1.030154    0.138335   -0.807834
6

C     -0.834817    1.391377    0.178891
H     -1.726238    0.658217    0.167965
H      0.121834    1.463377   -0.193395
C      0.362097   -0.133188    1.902170
H      0.349922    0.453521    2.692108
H     -1.188744    2.215442    0.822177
6

C     -1.802989    0.028054    0.206460
H     -1.164199   -0.504536   -0.258912
H     -2.578262   -0.104790   -0.239043
C     -1.186438    1.588579    0.125958
H     -0.732316    2.288730    0.978817
H     -1.369992    0.385861    1.168850
6

C     -0.745244    1.365705    0.043780
H     -1.037667    1.711781   -0.963032
H     -1.144225    2.506629    0.963766
C     -1.905668    0.416982   -0.160853
H     -2.640904   -0.241457    0.127494
H      0.297621    1.388417   -0.106615
6

C     -0.513657    1.288996    0.395567
H      0.203782    1.949438    0.959823
H      0.027953    1.562309   -0.376410
C     -1.562998    0.232040    0.200382
H     -2.596598    0.469828   -0.016998
H     -1.493121    1.883103    0.665033
6

C     -0.769444    1.611464    0.144209
H      0.262984    1.321029   -0.114440
H     -0.958075    1.844315   -1.100930
C     -1.929838    0.472047   -0.126452
H     -2.602836   -0.277874    0.104843
H     -1.099286    2.309610    0.859413
6

C     -1.490136   -0.093268    0.130199
H     -1.572483    0.185373    1.234243
H     -2.680089    0.424978    0.009994
C     -0.619278    1.120946    0.136045
H      0.001313    1.814444   -0.273710
H     -1.289748   -1.096237    0.170855
6

C     -1.581196    0.193130    0.066574
H     -2.638139    0.174858    0.045463
H     -1.409388    0.229043    1.130601
C     -0.814036   -1.539166   -0.617157
H     -1.337290   -2.093322    0.589194
H     -1.843270   -1.732148   -1.153866
6

C     -0.547050   -2.511458   -0.654472
H     -1.051565   -2.663977    0.176406
H     -0.114735   -2.029549   -1.491081
C     -1.598298    0.190960    0.005901
H     -2.563926    0.177968    0.105753
H     -1.466498    0.228103    1.130984
6

C     -0.575382    1.100161    0.202920
H     -1.802477   -1.289842    0.271282
H      0.043609    1.809233   -0.332013
C     -1.680858    0.041894    0.152039
H     -1.448825    0.198668    1.361184
H     -2.699216    0.302517   -0.147357
6

C     -1.715993    0.134039    0.270974
H     -2.023264    1.814184   -0.027518
H     -2.582863   -0.023715   -0.296213
C     -1.056247    1.394765    0.310978
H     -0.859941    2.449435    0.927606
H      0.076624    1.481753   -0.345771
6

C     -1.796849    0.391071    0.191122
H      0.085141    1.419337   -0.452995
H     -2.634524   -0.069883   -0.204370
C     -0.577591    1.321058    0.442948
H     -1.214597    2.374693    0.890868
H     -0.646529    0.922836    1.434116
6

C     -0.605316    1.268781    0.160240
H      0.432133    1.650824   -0.175496
H     -1.349698    2.115154    0.753227
C     -1.718277    0.370811   -0.044021
H     -0.094354    0.763764    0.760960
H     -2.897261    0.030705    0.173622
6

C     -0.787348    1.538711    0.160601
H      0.377537    1.546032   -0.299760
H     -1.423572    2.093215   -0.410644
C     -1.860113    0.305070    0.259559
H     -1.100298    2.181143    0.886821
H     -2.768198   -0.134680   -0.139647
6

C     -0.400002    1.206654    0.046716
H     -0.849458   -1.339090    0.477282
H      0.202101    1.976677   -0.292195
C     -1.526896   -0.067736    0.181605
H     -1.736655    0.091062    1.198861
H     -2.899220    0.245816    0.101785
6

C     -1.835001    0.538763    0.060835
H     -0.804323    2.314533   -0.853829
H     -2.693523   -0.300946   -0.043008
C     -0.825674    1.562653    0.184344
H     -1.124244    2.321496    0.934576
H      0.340023    1.314309   -0.269175
6

C     -1.741905    0.362522    0.042607
H      0.079567    1.535914   -0.344701
H     -2.612936   -0.042230   -0.127058
C     -0.875430    1.240885    0.596273
H     -0.987716    2.339186    0.700452
H     -0.407280    1.285875    1.719505
6

C     -1.072012    1.473227    0.206366
H     -1.402486   -0.006886    1.196670
H     -0.898213    2.431718    0.754468
C     -1.496677    0.299048    0.208624
H     -2.800609   -0.010673   -0.125087
H     -0.791566   -0.501898    0.169423
6

C     -1.710284    0.271527    0.300239
H     -0.042606    0.445977    0.732777
H     -2.641230   -0.028487   -0.304524
C     -0.866823    1.273364    0.394263
H      0.028239    1.534397   -0.387741
H     -0.948322    2.385476    0.865336
6

C     -1.895523    0.576161   -0.038757
H     -1.167422    2.226517    0.863241
H     -2.609671   -0.198122    0.124358
C     -0.771904    1.405631   -0.000784
H     -0.087584    1.436928    0.870796
H      0.306100    1.426089   -0.080486
6

C     -1.607862    0.300904    0.033677
H     -1.333458    1.971647    0.675265
H     -2.845694    0.197603    0.132522
C     -0.722743    1.294365    0.235646
H      0.174938    1.503678    1.230377
H      0.371337    1.671758   -0.209536
6

C     -1.832774    0.416606    0.096589
H     -0.087241    1.122875    1.361316
H     -2.666259   -0.113025   -0.062338
C     -0.909784    1.307560    0.319302
H      0.327783    1.563319   -0.278584
H     -1.057386    2.261816    0.792605
6

C     -1.774267    0.350864    0.278635
H      0.274305    1.374616    0.774735
H     -2.711995   -0.130480   -0.221800
C     -0.824898    1.335622    0.194690
H      0.091036    1.575774   -0.242496
H     -0.918296    2.304496    0.858544
6

C     -1.843891    0.318008    0.132428
H     -0.143478    1.005409    1.431757
H     -2.643238   -0.194282   -0.153803
C     -0.755539    1.541911    0.249044
H      0.194914    1.343621   -0.334688
H     -1.090665    2.427017    0.974592
6

C     -1.831077    0.350603    0.154258
H     -0.924903    2.342606    0.770526
H     -2.690476   -0.193441   -0.218208
C     -0.767439    1.427283    0.502266
H      0.070129    1.505891    1.410635
H      0.075475    1.509224   -0.341269
6

C     -1.670164    0.535680    0.141539
H     -1.347619    2.234190    0.911236
H     -2.714307   -0.090913   -0.087594
C     -0.658222    1.462323    0.330418
H      0.337152    0.918384    0.779507
H      0.251892    1.294997   -0.428026
6

C     -1.839884    0.773420   -0.093258
H     -2.535203    0.017637    0.211438
H     -3.231218    2.416301   -0.841397
C     -0.666359    1.074387    0.288797
H      0.256153    1.566686   -0.154394
H     -1.353128    2.004146    0.614990
6

C     -0.875513    1.304357    0.144833
H     -1.198138    2.284605    0.867355
H      0.171923    1.481235   -0.204515
C      0.040151    3.159952   -1.011244
H      0.311461    2.880059   -2.028966
H     -0.159873    3.997556   -0.304856
