12
Properties=species:S:1:pos:R:3 pbc="F F F"
C        0.32880169      -1.04544866      -0.31879502
C        1.66593829      -0.94597078       0.28311456
C        2.46144434       0.22368842      -0.04163677
C        1.78151415       1.41895667      -0.23361018
C        0.40204099       1.36903078       0.01347322
C       -0.20700997       0.10988936       0.42129650
H       -0.07673589      -1.66436593      -0.85313911
H        1.96620875      -1.61896783       0.98801521
H        3.50992893       0.14856337      -0.08215037
H        2.26298825       2.31994027      -0.49831635
H       -0.19959839       2.20288616      -0.07267430
H       -0.94043968       0.02336460       1.10805841
