12
Properties=species:S:1:pos:R:3 pbc="F F F"
C        0.24544669      -1.14417526      -0.27302124
C        1.60350785      -0.97044659       0.41016176
C        2.39802340       0.15647819      -0.01379390
C        1.68402951       1.37251733      -0.29175473
C        0.30140560       1.43728517       0.05582297
C       -0.34511838       0.09535259       0.41230854
H        0.06977352      -1.50737123      -1.29633077
H        1.63714299      -1.37515702       1.46291940
H        3.55751284       0.28379247       0.06267269
H        2.31430824       2.15984391      -0.82425649
H       -0.25631893       2.28221204      -0.24683689
H       -1.35530273      -0.03039197       1.11369853
