12
Properties=species:S:1:pos:R:3 pbc="F F F"
C        0.14613424      -1.20457264      -0.30296975
C        1.45166422      -0.94002122       0.40782318
C        2.39402913       0.30645174      -0.07155396
C        1.72442426       1.51953284      -0.55172929
C        0.41838529       1.34302812      -0.16888251
C       -0.11463258       0.05338576       0.17566838
H       -0.42123900      -1.87463756      -0.66919440
H        1.70345137      -1.57572552       1.17327680
H        3.36249362       0.47253738       0.35992013
H        2.30237437       2.45562032      -0.65116139
H       -0.22239180       2.22107936       0.11538867
H       -0.89028254      -0.01673896       0.75500403
