12
Properties=species:S:1:pos:R:3 pbc="F F F"
C        0.35782600      -0.95345526      -0.52757558
C        1.54095779      -0.93658233       0.36428326
C        2.41648965       0.23678022       0.13568686
C        1.66743702       1.57734262      -0.17687902
C        0.28982707       1.49060023       0.00296143
C       -0.21848462       0.16114317       0.34759038
H       -0.24684239      -1.78918553      -0.73576238
H        1.79439814      -1.51585992       1.19061075
H        3.48286390      -0.05384476      -0.02284628
H        2.18405480       2.34484584      -0.63410430
H       -0.27416158       2.29893826      -0.21254680
H       -1.13995518      -0.10078292       0.84017156
