12
Properties=species:S:1:pos:R:3 pbc="F F F"
C        0.30235215      -1.02706955      -0.48501522
C        1.35856058      -0.71762117       0.47073122
C        2.31642289       0.18566756      -0.04629453
C        1.69005246       1.42917321      -0.41705289
C        0.37738868       1.41468112      -0.01974677
C       -0.30947720       0.11271714       0.12425834
H       -0.28137950      -1.92423749      -0.73577852
H        1.81404807      -1.48294285       1.21190062
H        3.40106614       0.33273836       0.29035647
H        2.16844265       2.25085135      -0.71645351
H        0.01292809       2.42533072       0.10906512
H       -0.99599442      -0.23934879       0.78561956
