12
Properties=species:S:1:pos:R:3 pbc="F F F"
C        0.17515726      -1.18059468      -0.34000604
C        1.45820817      -0.93148914       0.24710704
C        2.35915987       0.31708582      -0.06080245
C        1.76633167       1.54236669      -0.15149097
C        0.39008207       1.41110623      -0.19326534
C       -0.25128815       0.07635391       0.13813299
H       -0.12085690      -2.09243204      -0.69842762
H        1.86021313      -1.38173260       1.28523528
H        3.29935807       0.06462314      -0.11321797
H        2.30091438       2.49636707      -0.17445357
H       -0.23634882       2.23928891      -0.34204312
H       -1.14652017       0.19899631       0.97482166
