12
Properties=species:S:1:pos:R:3 pbc="F F F"
C        0.48762613      -1.10544020      -0.30715948
C        1.59531474      -0.86336675       0.54438061
C        2.39929531       0.17443446       0.00363956
C        1.85662560       1.51812269      -0.07516452
C        0.50548094       1.41369370       0.22464432
C       -0.20260701       0.12773581       0.01240984
H       -0.01853665      -2.02203192      -0.57051734
H        1.56560956      -1.19488098       1.61387286
H        3.12505065      -0.05619154      -0.78166712
H        2.22288497       2.51974823      -0.57094712
H       -0.20303629       2.10155172       0.37402157
H       -1.47929737       0.14656440       0.10407671
