12
Properties=species:S:1:pos:R:3 pbc="F F F"
C        0.45835975      -1.18157361      -0.24090208
C        1.73160838      -1.11505515       0.64642334
C        2.49572075       0.11652192       0.09056103
C        1.77005952       1.54094888       0.03781332
C        0.37711922       1.36043095       0.01749605
C       -0.34938795       0.23750063       0.02073255
H        0.16063509      -2.12746829      -0.71969231
H        1.78619322      -1.27093963       1.64121124
H        2.81334888       0.02957525      -0.90347544
H        2.32894945       2.45675270      -0.32745608
H       -0.30844856       2.30029264       0.00395380
H       -1.40974716       0.41295331       0.30492447
