12
Properties=species:S:1:pos:R:3 pbc="F F F"
C        0.30977151      -1.19729059      -0.43240947
C        1.57646271      -0.92856367       0.48043904
C        2.29492293       0.23627720      -0.04826538
C        1.71549224       1.43867196      -0.19367190
C        0.41116050       1.38392452      -0.01803291
C       -0.32152915       0.05864981       0.16592908
H       -0.26957610      -1.89364130      -0.78358933
H        1.79528050      -1.49155085       1.31783958
H        3.52622145       0.18589779      -0.09116127
H        2.04924317       2.41777416      -0.48401353
H       -0.16797174       2.41057629      -0.24839276
H       -1.06506744       0.13921431       0.90691872
