12
Properties=species:S:1:pos:R:3 pbc="F F F"
C        0.19823876      -1.18270130      -0.56567404
C        1.54202107      -0.80485963       0.20639877
C        2.48282933       0.23329521       0.00166551
C        1.80835568       1.40220261      -0.23303442
C        0.41450568       1.34220161      -0.06525928
C       -0.29620077       0.02655321       0.16353721
H       -0.13863689      -2.09422779      -0.35023487
H        1.53186032      -1.29502253       1.18845687
H        3.68001986       0.12501074      -0.21040121
H        2.04302855       2.41787329      -0.34163113
H       -0.23230503       2.37984115       0.01858705
H       -1.17930597       0.20977306       0.75917943
