12
Properties=species:S:1:pos:R:3 pbc="F F F"
C        0.32863189      -1.14276699       0.12333534
C        1.62917826      -0.94574715       0.71741961
C        2.43620744       0.17154086       0.07789403
C        1.74462746       1.39531238       0.02178713
C        0.42475831       1.40212076       0.03862672
C       -0.17867922       0.16165827       0.09842607
H        0.04543612      -1.65719691      -0.91111219
H        1.93097525      -1.36364700       1.69593452
H        2.69324469       0.14123577      -0.97928041
H        2.15489052       2.21881197      -0.32664276
H       -0.16171583       2.33919602      -0.05294318
H       -1.19314429       0.03942162       0.06814499
