12
Properties=species:S:1:pos:R:3 pbc="F F F"
C        0.46237245      -1.14014452       0.07375506
C        1.71094794      -0.97048536       0.65230263
C        2.41323241       0.28713303       0.33161118
C        1.73020704       1.62006813       0.10205346
C        0.34437446       1.50560588       0.03416145
C       -0.21913017       0.10366767      -0.16304831
H        0.03523529      -1.94395819      -0.30872004
H        2.26823936      -1.74273789       1.28110468
H        2.12296123       0.08593932      -0.78759963
H        2.51612687       2.32231772      -0.31265537
H       -0.24674371       2.44348103      -0.03536759
H       -1.28341258       0.18905280      -0.29600765
