12
Properties=species:S:1:pos:R:3 pbc="F F F"
C        0.46104012      -1.10993831       0.03051835
C        1.73275429      -0.95042282       0.59385513
C        2.39819554       0.27548174       0.26747018
C        1.76675550       1.62575770       0.11990555
C        0.39089232       1.52454199       0.05410961
C       -0.16760798       0.12837176      -0.21700562
H        0.07258162      -2.01522774      -0.26850420
H        2.16889337      -1.74683425       1.31723537
H        2.15890249       0.09886556      -0.78707505
H        2.48406765       2.34235052      -0.26007351
H       -0.25862401       2.32449211      -0.10462190
H       -1.35344032       0.26250136      -0.17422401
