12
Properties=species:S:1:pos:R:3 pbc="F F F"
C        0.47439239      -1.04647905      -0.23606151
C        1.65914446      -0.89883379       0.54489849
C        2.33870051       0.15384810      -0.11539886
C        1.82230355       1.52426216      -0.21490358
C        0.43320819       1.38044153       0.05505766
C       -0.21319148       0.12337551      -0.01717815
H       -0.06780278      -1.76135707      -0.75982440
H        1.78538325      -1.06264920       1.70442513
H        2.96729219      -0.35172100      -0.75981190
H        2.34656843       2.49774772      -0.11958788
H       -0.44958792       2.17918699       0.18133024
H       -1.24200021       0.02211773       0.30864465
