12
Properties=species:S:1:pos:R:3 pbc="F F F"
C        0.44867610      -1.02049580       0.17750623
C        1.78508950      -1.01189074       0.64354574
C        2.62701700       0.26563742       0.12082778
C        1.78941715       1.53459334       0.13395433
C        0.42514933       1.49722601      -0.16120130
C       -0.21004231       0.27396732      -0.10130120
H       -0.22358828      -1.82582193      -0.11358399
H        2.16326577      -1.86100774       1.33369323
H        2.20514555       0.07199656      -0.92897422
H        2.25741988       2.56133230      -0.00370370
H       -0.17235321       2.34993142      -0.15307245
H       -1.24078591      -0.07552855      -0.37610055
