12
Properties=species:S:1:pos:R:3 pbc="F F F"
C        0.21258502      -1.09939269      -0.28258151
C        1.46441187      -0.96859429       0.45975369
C        2.31215993       0.15759950      -0.11474322
C        1.69312626       1.39474240      -0.32532333
C        0.38347001       1.40288880       0.04757051
C       -0.25364338       0.14282986       0.32337549
H        0.14026891      -1.86608134      -1.02859318
H        1.67030918      -1.52464240       1.51040907
H        3.40157895       0.23207139      -0.06529394
H        2.19020402       2.39209342      -0.67133895
H       -0.29878615       2.15947375      -0.14591800
H       -1.06127404       0.33695121       0.86427325
