12
Properties=species:S:1:pos:R:3 pbc="F F F"
C        0.45364636      -1.10165269      -0.08192700
C        1.64135946      -0.81415177       0.68001502
C        2.27057787       0.17746028      -0.20538172
C        1.65657992       1.54182726      -0.13045507
C        0.33068553       1.47058064      -0.08867456
C       -0.34212828       0.19899702       0.09133108
H        0.19384106      -2.03962766      -0.54676039
H        2.05588436      -1.31339129       1.55673896
H        2.88660348      -0.31568098      -0.97838288
H        2.31308195       2.34788731       0.23175083
H       -0.16851865       2.42318562       0.01732657
H       -1.43720245       0.18450588       0.02600905
