12
Properties=species:S:1:pos:R:3 pbc="F F F"
C        0.36853205      -1.04195522      -0.17240085
C        1.74655210      -0.92193791       0.51125459
C        2.56409490       0.24044927       0.24807307
C        1.80273761       1.46934866       0.25739109
C        0.44893198       1.36045684       0.04777799
C       -0.23544054       0.22320845      -0.28749182
H       -0.02038950      -2.05740054       0.02890810
H        2.11105833      -1.50564406       1.28474469
H        2.31430554       0.07731509      -0.92462615
H        2.15584761       2.43014609      -0.09619009
H        0.00867330       2.33188091      -0.07915716
H       -1.41049279       0.15407204      -0.24669357
