12
Properties=species:S:1:pos:R:3 pbc="F F F"
C        0.35694874      -1.16253539      -0.39882188
C        1.48159400      -0.84340251       0.37987058
C        2.36367737       0.24712756      -0.17213466
C        1.75447197       1.43050862       0.00448706
C        0.41154733       1.34255484       0.15243813
C       -0.31744476       0.07902263       0.00683409
H       -0.09514380      -2.17761884      -0.49138546
H        1.69700603      -0.87305856       1.48936223
H        3.32796806      -0.02437850      -0.63472790
H        2.38378631       2.37029319      -0.31370223
H       -0.21288571       2.22928740       0.27274600
H       -1.29711495       0.14213917       0.27662393
