12
Properties=species:S:1:pos:R:3 pbc="F F F"
C        0.35442760      -1.17787031      -0.46384041
C        1.60587745      -0.93836892       0.53143700
C        2.35955460       0.28439782       0.00023254
C        1.82412665       1.56811955      -0.16553837
C        0.45842156       1.48983680       0.12681742
C       -0.19079435       0.09398307      -0.06476711
H       -0.07612820      -2.15522348      -0.35369445
H        1.42216171      -1.41205729       1.50108610
H        3.22122070       0.27535511      -0.71588996
H        2.39357844       2.36526895      -0.40274600
H       -0.27840501       2.32997119       0.12426676
H       -1.23963056       0.03652713       0.45422635
