12
Properties=species:S:1:pos:R:3 pbc="F F F"
C        0.24927960      -1.11591796      -0.32380729
C        1.47800383      -1.07011804       0.63070980
C        2.17390700       0.10086893      -0.10689646
C        1.58189091       1.27900060      -0.36199904
C        0.30339003       1.46234393      -0.02619779
C       -0.55808009       0.02135202       0.18910734
H        0.60353251      -1.21924893      -1.27468934
H        1.59089166      -1.24822342       1.65792940
H        3.34833501       0.04149290      -0.19231082
H        2.17505896       2.17114208      -0.69561468
H       -0.00289111       2.41442929       0.04713148
H       -1.08890773      -0.07718177       1.02822730
