12
Properties=species:S:1:pos:R:3 pbc="F F F"
C        0.46635266      -1.08728138      -0.08038712
C        1.78665897      -0.95892404       0.44202559
C        2.51070689       0.21357340       0.21949014
C        1.75699345       1.53463440       0.09630574
C        0.38891305       1.45498033       0.08378217
C       -0.18104770       0.18232797      -0.33618678
H       -0.02329808      -2.03650242       0.12575706
H        2.02464468      -1.57868286       1.21150526
H        2.27329659       0.11413987      -0.79098593
H        2.33070544       2.40432207      -0.13885374
H       -0.09700659       2.42471753       0.06547185
H       -1.38250878       0.09263475      -0.32633436
