12
Properties=species:S:1:pos:R:3 pbc="F F F"
C        0.42684703      -1.04923772       0.02342435
C        1.69019794      -0.94892663       0.83609666
C        2.38584442       0.18146344       0.16919179
C        1.63631025       1.46284475      -0.02665034
C        0.34870496       1.42328858       0.00265958
C       -0.16350071       0.21001499       0.23540141
H        0.18766595      -1.61600011      -0.82783495
H        2.09730990      -1.54677337       1.41752423
H        2.64073092      -0.22981226      -0.87968748
H        2.17296708       2.36854264      -0.26198770
H       -0.19134646       2.39050889      -0.15828579
H       -1.37732071       0.11402643       0.04173811
