12
Properties=species:S:1:pos:R:3 pbc="F F F"
C        0.47447557      -1.08689775      -0.07754781
C        1.79795315      -0.97886380       0.47447552
C        2.48874052       0.21488662       0.25102767
C        1.75727508       1.55230853       0.10744163
C        0.38627756       1.45702064       0.10021197
C       -0.19361049       0.17095326      -0.31856174
H        0.03095440      -2.04062471       0.09487903
H        1.99755025      -1.55894830       1.19563089
H        2.27757554       0.08923211      -0.84297228
H        2.36693148       2.39564841      -0.15922899
H       -0.11384329       2.45064191       0.06643032
H       -1.41586918       0.09458269      -0.32019633
