12
Properties=species:S:1:pos:R:3 pbc="F F F"
C        0.40597842      -1.03827412      -0.43915315
C        1.56661220      -0.90719940       0.47464503
C        2.50085827       0.24988171      -0.03336334
C        1.78726062       1.38854884      -0.05292126
C        0.41452703       1.36283979       0.37310671
C       -0.30032905       0.11036585       0.19514019
H       -0.22273228      -1.95759135      -0.49228179
H        1.75578419      -1.14473604       1.54282485
H        3.24857965       0.13019441      -0.79719539
H        2.16432662       2.39598385      -0.24182554
H       -0.05905370       2.03475567      -0.21798534
H       -1.40740137       0.13517040       0.26059894
