12
Properties=species:S:1:pos:R:3 pbc="F F F"
C        0.41470577      -1.12506525      -0.40304235
C        1.61589788      -0.83066296       0.44575901
C        2.32114913       0.18364945      -0.12713020
C        1.76954217       1.47387494      -0.11398321
C        0.43320815       1.36356154       0.25479530
C       -0.16043519       0.12578483      -0.00480435
H        0.01601690      -2.14315153      -0.50882188
H        1.34634605      -0.92966475       1.54645243
H        3.23049286       0.01101515      -0.64913209
H        2.21048189       2.34580315      -0.56495424
H       -0.05056413       2.26101009       0.53359485
H       -1.29243089       0.02378496       0.16285662
