12
Properties=species:S:1:pos:R:3 pbc="F F F"
C        0.39696115      -1.00805083      -0.39533958
C        1.55422505      -0.93269191       0.45881723
C        2.27515462       0.24902467       0.10477219
C        1.71278185       1.41827398      -0.20251781
C        0.37477738       1.45268743      -0.20995603
C       -0.25117667       0.12053997       0.31334653
H       -0.11038323      -2.02404512      -0.74823195
H        1.73623197      -1.49600315       1.26299374
H        3.29183326       0.27543196      -0.25474125
H        2.41491618       2.32824890      -0.37563412
H       -0.32064836       2.20145064      -0.29766908
H       -1.22026261       0.17507307       0.91575003
