12
Properties=species:S:1:pos:R:3 pbc="F F F"
C        0.29898999      -1.08913234      -0.26755200
C        1.39193574      -0.58976661       0.52051807
C        2.40875418       0.26231751      -0.15203735
C        1.76119554       1.45843200      -0.21738584
C        0.35435175       1.28496670       0.15444381
C       -0.33529197       0.09874667      -0.18483717
H       -0.02170980      -2.11262854      -0.52726019
H        1.82353565      -0.97450894       1.49344258
H        3.34543913      -0.27223931      -0.52040512
H        2.31222032       2.37506640      -0.51410206
H       -0.18954306       2.19080566       0.80398621
H       -1.29546689       0.12788043      -0.01722104
