12
Properties=species:S:1:pos:R:3 pbc="F F F"
C        0.32569803      -1.13794862      -0.07889976
C        1.90115812      -1.05956050       0.28026959
C        2.44406618       0.16181441      -0.19318831
C        1.77581259       1.43305298      -0.11922191
C        0.40433182       1.27219950       0.21337430
C       -0.31634392       0.03977829      -0.01518810
H       -0.10146939      -2.11293547      -0.22422755
H        1.35779485      -0.71581113       1.18517603
H        3.46411170       0.04455850      -0.63981636
H        2.25155954       2.37896365      -0.29179189
H       -0.22244597       2.19969619       0.50028576
H       -1.42986296       0.25613183      -0.04518192
