12
Properties=species:S:1:pos:R:3 pbc="F F F"
C        0.50590926      -1.02132680      -0.12049097
C        1.63171650      -0.81102532       0.82515139
C        2.33577871       0.20990469       0.02126623
C        1.75120484       1.40775321      -0.05870754
C        0.33132055       1.39230563       0.09621688
C       -0.35593365       0.06246891       0.33385776
H        0.36444260      -1.46217832      -1.29488642
H        1.90971168      -1.31043022       1.77875480
H        2.77957241      -0.25570221      -0.82455457
H        2.28927778       2.10510034      -0.47546781
H       -0.24189725       2.45183853      -0.05339401
H       -1.44669284      -0.00876883       0.34384416
