12
Properties=species:S:1:pos:R:3 pbc="F F F"
C        0.04140243      -1.15932461      -0.07335113
C        1.63410997      -0.91333052       0.29406345
C        2.46017609       0.30712458      -0.02835710
C        1.80306106       1.44882678      -0.32363913
C        0.32408676       1.32703093      -0.25472253
C       -0.23620459       0.15776243       0.45071552
H       -0.06359989      -1.87876879      -1.05531801
H        1.69214839      -1.38162200       1.27863442
H        3.49408369       0.12489495      -0.07287203
H        2.41046729       2.35893323      -0.36395628
H       -0.55505754       2.10720336      -0.25248672
H       -1.15026307       0.26120927       0.97287943
