12
Properties=species:S:1:pos:R:3 pbc="F F F"
C        0.22773927      -1.25755015      -0.06361488
C        1.51452903      -0.88541254       0.44141313
C        2.23076031       0.21395105      -0.03089406
C        1.71507684       1.57526208      -0.09909412
C        0.33082715       1.39163019      -0.30259868
C       -0.30797785       0.14276172       0.13134760
H       -0.04921826      -1.81735461      -0.90410323
H        1.85239848      -1.48655328       1.22222560
H        3.40847991       0.00134996      -0.25840801
H        2.18605712       2.37365618      -0.24443290
H       -0.39632712       2.12024456      -0.32011569
H       -0.85793429       0.38795446       0.99986512
