12
Properties=species:S:1:pos:R:3 pbc="F F F"
C        0.20555974      -1.21979667      -0.46755064
C        1.41472927      -0.77260131       0.32316758
C        2.34520060       0.33418503      -0.00331541
C        1.73156325       1.59684521      -0.14199513
C        0.44224202       1.35308158      -0.20399971
C       -0.21172218       0.06025457      -0.06929799
H       -0.29675213      -2.08960804      -0.33708541
H        1.86610815      -1.44634687       1.10835810
H        3.28130052       0.11219898      -0.07993076
H        2.23846878       2.45631941      -0.24014719
H       -0.18488486       2.22765269      -0.08637362
H       -0.97740258       0.14775505       0.76976006
