12
Properties=species:S:1:pos:R:3 pbc="F F F"
C        0.43951428      -1.04496595      -0.07268974
C        1.78496634      -0.97380628       0.47408075
C        2.53345592       0.13597063       0.12599417
C        1.74055960       1.46980460       0.16834922
C        0.35331315       1.42423112       0.01618321
C       -0.23059683       0.16092831      -0.22994148
H       -0.03052630      -2.02272482       0.02035455
H        1.95599159      -1.59398833       1.47485596
H        2.34151339       0.39195470      -1.03681303
H        2.43461326       2.27923151      -0.03678384
H       -0.24451653       2.26658097      -0.12780839
H       -1.22387728       0.26672315      -0.20419151
