12
Properties=species:S:1:pos:R:3 pbc="F F F"
C        0.20765860      -1.14780581      -0.39469622
C        1.48080811      -0.79285849       0.45841706
C        2.40388544       0.22798769       0.01139372
C        1.72618677       1.49462128      -0.24383251
C        0.22948808       1.33387130      -0.31005520
C       -0.20393643       0.18528846       0.33228853
H       -0.17487557      -2.02708554      -0.74937658
H        1.79699150      -1.62474772       1.17551611
H        3.60848984       0.07451963      -0.00673094
H        2.07932796       2.45713169      -0.51357817
H       -0.24767915       2.31966760      -0.06800657
H       -1.05193455       0.25934954       0.88025067
