12
Properties=species:S:1:pos:R:3 pbc="F F F"
C        0.42323701      -1.09985454      -0.07610455
C        1.72710996      -1.21025851       0.26036797
C        2.46616530       0.21147812      -0.32376689
C        1.69430039       1.40914616      -0.19000798
C        0.47393169       1.24306576       0.20098651
C       -0.43156186       0.02572554       0.20424610
H       -0.20817992      -1.84273013      -0.32263662
H        1.53729059      -0.62153450       1.29824861
H        3.46828999       0.04793926      -0.57216753
H        2.09568366       2.32702300      -0.15846627
H       -0.00984723       2.20406611       0.36638477
H       -1.38200899       0.06587334      -0.11549423
