12
Properties=species:S:1:pos:R:3 pbc="F F F"
C        0.46038194      -1.09873703      -0.27089244
C        1.65225531      -0.83624551       0.61477068
C        2.36383052       0.28539080       0.04243685
C        1.80374097       1.57968745       0.09209390
C        0.50503356       1.37719267       0.23312147
C       -0.10790552       0.12878623       0.04967681
H       -0.23433263      -1.98984206      -0.50588690
H        1.78777701      -1.43124252       1.51738702
H        2.96557526       0.09673589      -0.83544714
H        2.27023582       2.32881552      -0.43462226
H       -0.25300953       2.25802861      -0.03248193
H       -1.35917214       0.06136958       0.10143381
