12
Properties=species:S:1:pos:R:3 pbc="F F F"
C        0.42617829      -1.18017845      -0.32266356
C        1.72518384      -0.90696401       0.50049311
C        2.42427050       0.15796074      -0.04212688
C        1.78970467       1.42501215      -0.02874983
C        0.38469073       1.44160977      -0.13956565
C       -0.33601295       0.20676102      -0.03133412
H       -0.12988353      -2.10557767      -0.41563066
H        1.69138747      -1.16189621       1.55933278
H        3.14725851       0.03422869      -0.98773908
H        2.15520757       2.38098068       0.11532897
H       -0.18215882       2.32785001      -0.04551473
H       -1.24141570       0.14015289       0.40975954
