12
Properties=species:S:1:pos:R:3 pbc="F F F"
C        0.25687587      -0.94386080      -0.49713544
C        1.59836476      -0.94178481       0.26272329
C        2.36579658       0.20372690       0.01326766
C        1.69253478       1.33171338      -0.39304890
C        0.34656717       1.34372406      -0.01779783
C       -0.20428026       0.15703021       0.33093309
H       -0.35275478      -1.64725330      -0.91544960
H        1.55463414      -1.25188309       1.37387523
H        3.58295155       0.06400115       0.08499023
H        2.11452717       2.45773336      -0.57936265
H       -0.22795992       2.20842271      -0.12193296
H       -0.87284647      -0.22163016       1.03052775
