12
Properties=species:S:1:pos:R:3 pbc="F F F"
C        0.35590049      -1.14539265      -0.25099929
C        1.48897355      -0.91786976       0.69198738
C        2.38241713       0.05849702      -0.09074864
C        1.82675420       1.42773728      -0.09666117
C        0.31020118       1.40837983       0.11655843
C       -0.30592118       0.16054799      -0.11405818
H        0.14123933      -2.22482214      -0.59970304
H        1.93944814      -0.89499799       1.67764979
H        2.88163896      -0.32478082      -1.08111255
H        2.12308626       2.61866095       0.03512421
H       -0.03418417       2.39433674       0.28498259
H       -1.25514331       0.19964317      -0.00142966
