12
Properties=species:S:1:pos:R:3 pbc="F F F"
C        0.23512731      -1.18541309      -0.05974126
C        1.81102130      -1.08433627       0.15843454
C        2.48262800       0.12973174      -0.18892794
C        1.86365283       1.42198422      -0.17678688
C        0.54344054       1.27411764       0.18033092
C       -0.42237008      -0.01905668      -0.01881768
H       -0.11845973      -2.20092508      -0.15541991
H        1.25585683      -0.77557686       1.04960131
H        3.49558059       0.37587592      -0.40515886
H        2.16794870       2.48133368      -0.30389734
H        0.06410152       2.21752848       0.34018789
H       -1.52411723       0.12467592       0.15178510
