12
Properties=species:S:1:pos:R:3 pbc="F F F"
C        0.31886057      -1.10213679      -0.51413253
C        1.46826900      -0.83388136       0.38106807
C        2.30662225       0.37478404       0.03263286
C        1.70585730       1.57084875      -0.16382658
C        0.28236117       1.54848734      -0.05287135
C       -0.15211856       0.05051673       0.01031240
H       -0.08802267      -2.07593751      -0.24353610
H        1.68225282      -1.69148578       0.95762247
H        3.32917772       0.04662887      -0.09645059
H        2.37279059       2.34566443      -0.38987387
H       -0.33417932       2.51850018      -0.13938803
H       -1.03746029       0.00795071       0.79003313
