12
Properties=species:S:1:pos:R:3 pbc="F F F"
C        0.36993067      -1.14075693       0.00272346
C        1.76735581      -1.32248712       0.26985891
C        2.52468500       0.28061144      -0.20420865
C        1.78283602       1.30137833      -0.03419411
C        0.46232139       1.25513782       0.16253116
C       -0.25000777       0.13263402       0.22948759
H       -0.26303558      -1.77314970      -0.50007467
H        1.53293374      -0.91181317       1.39686932
H        3.40470665       0.34024568      -0.63928668
H        2.12217692       2.31888150      -0.24687315
H       -0.15143433       2.17329476      -0.06757831
H       -1.44805794       0.10596298       0.20233502
