12
Properties=species:S:1:pos:R:3 pbc="F F F"
C        0.45083048      -0.98222954       0.02922343
C        1.82794226      -0.95007744       0.55522089
C        2.51315029       0.25186206       0.28748591
C        1.71842301       1.57523376       0.02101632
C        0.42555986       1.40488467      -0.11440858
C       -0.26585548       0.21548976      -0.10788797
H       -0.10835922      -1.96433167      -0.04897972
H        1.94277099      -1.69929580       1.36320415
H        2.48364176       0.13381179      -1.19448677
H        2.40577185       2.40614374       0.11977019
H       -0.17402479       2.41797372      -0.15789155
H       -1.36544041      -0.04952543      -0.18067642
