12
Properties=species:S:1:pos:R:3 pbc="F F F"
C        0.62211522      -1.24843820      -0.41538464
C        1.70118193      -1.06772907       0.59917600
C        2.31589951       0.20864692      -0.07751468
C        1.84253875       1.46224459      -0.01776067
C        0.42245318       1.39878429       0.20398163
C       -0.07209265       0.04628056      -0.05075821
H       -0.17884131      -2.02317835      -0.58083281
H        1.29803675      -0.98288060       1.57859658
H        3.00016900       0.00415048      -0.79358505
H        2.25844764       2.52410419      -0.51617183
H       -0.29936214       2.36576106       0.34609789
H       -1.05613530       0.07219374       0.29574567
