12
Properties=species:S:1:pos:R:3 pbc="F F F"
C        0.47148170      -1.04860913       0.01261125
C        1.80267304      -1.00105676       0.48610036
C        2.62591103       0.32510808       0.12000315
C        1.76303376       1.52994951       0.03092852
C        0.36718126       1.50215402      -0.32078104
C       -0.20937575       0.23427651      -0.14783892
H       -0.16085367      -1.99648259       0.23304568
H        2.09165672      -1.79568904       1.06478171
H        2.41043148       0.02839828      -0.88180647
H        2.14434204       2.41364566       0.38278346
H       -0.16065944       2.45486757      -0.25274443
H       -1.29141160       0.11337751      -0.15549338
