12
Properties=species:S:1:pos:R:3 pbc="F F F"
C        0.46381474      -1.15694441      -0.03545071
C        1.66363073      -0.88102589       0.68091410
C        2.58045918       0.18163388       0.04357827
C        1.80215120       1.46246216       0.07102501
C        0.42581315       1.36977983       0.19303885
C       -0.16180261       0.12021526      -0.08594907
H       -0.10916911      -1.99292269      -0.45673298
H        1.71049941      -1.22413613       1.58447198
H        2.66023514       0.26079440      -0.96370400
H        2.30659706       2.25509336      -0.56442296
H       -0.18736617       2.22471268       0.45563628
H       -1.30045214       0.14027716      -0.35081486
