12
Properties=species:S:1:pos:R:3 pbc="F F F"
C        0.43641553      -1.11054627       0.06054460
C        1.78029847      -0.90434954       0.64696539
C        2.55178812       0.17865149       0.14397103
C        1.73882217       1.40674188       0.01405969
C        0.39211456       1.35782552       0.15399583
C       -0.25326982       0.11672856       0.05784102
H       -0.10964418      -1.79379062      -0.53229364
H        1.95875785      -1.53975039       1.59678704
H        2.41966985       0.28174299      -0.90475030
H        2.29867232       2.33374957      -0.38647590
H       -0.09474979       2.40854621       0.01958947
H       -1.26446450       0.02439021      -0.29864435
