12
Properties=species:S:1:pos:R:3 pbc="F F F"
C        0.28623903      -1.14583473      -0.21928303
C        1.59936407      -0.96928920       0.32642388
C        2.29492763       0.20810029       0.01936147
C        1.76471295       1.41724788      -0.33357323
C        0.24583957       1.47233127      -0.24671277
C       -0.31013247       0.10301955       0.25989817
H        0.03003055      -1.56384916      -1.22410431
H        1.67267134      -1.41854596       1.39737965
H        3.27766671       0.11492905       0.20015121
H        2.45393568       2.23805422      -0.70346534
H       -0.53291355       2.27618145      -0.08791111
H       -0.92793093       0.02759498       1.18342531
