12
Properties=species:S:1:pos:R:3 pbc="F F F"
C        0.50623731      -1.01903158      -0.19536794
C        1.67946579      -0.94166644       0.69801464
C        2.47940666       0.13692964      -0.08435793
C        1.79908823       1.50299963      -0.02693562
C        0.38662887       1.41703715       0.37093702
C       -0.16737258       0.23671347       0.01092996
H        0.17786104      -1.85683429      -0.66968384
H        1.61060149      -1.06098723       1.74240533
H        2.80870836      -0.26002068      -0.93151933
H        2.07882449       2.29787066      -0.63358563
H       -0.19211212       2.19196896       0.58512707
H       -1.31292694       0.11496033      -0.29437384
