12
Properties=species:S:1:pos:R:3 pbc="F F F"
C        0.28721574      -1.07349133      -0.36075038
C        1.59293179      -1.08558642       0.30137823
C        2.36551139       0.29289991       0.05874875
C        1.65556389       1.47535988      -0.05315086
C        0.30675709       1.39993793      -0.01484916
C       -0.30540742       0.12110868       0.28018277
H       -0.12493708      -1.71705975      -1.06180459
H        1.79194185      -1.22621656       1.37796168
H        3.33605809       0.11295348       0.00192947
H        2.17630614       2.12976590      -0.68233439
H       -0.24371389       2.20700743      -0.25245229
H       -0.98381699       0.12326047       0.97673066
