12
Properties=species:S:1:pos:R:3 pbc="F F F"
C        0.36709787      -1.00381886       0.34410735
C        1.80979953      -0.93369324       0.53681438
C        2.56979636       0.24932011       0.01707782
C        1.83013512       1.50834827       0.03013603
C        0.43651035       1.57413717      -0.05877123
C       -0.20456097       0.22745979      -0.15730761
H       -0.15431110      -2.00342138       0.29337536
H        2.17706391      -1.85309538       0.94528985
H        2.11424940       0.17236807      -0.87530860
H        2.43938673       2.47726798       0.34527946
H       -0.32203771       2.30770841      -0.28429624
H       -1.20871890       0.03735867      -0.56480669
