12
Properties=species:S:1:pos:R:3 pbc="F F F"
C        0.43482480      -1.02998073      -0.07832150
C        1.61351237      -0.87354091       0.79100490
C        2.39810474       0.09519108      -0.11404341
C        1.82640718       1.44789239       0.18035824
C        0.29240328       1.42042659       0.05601934
C       -0.28632146       0.21134735      -0.09597695
H        0.20307371      -2.02483805      -0.62967639
H        2.14611640      -1.19290887       1.72261802
H        2.66198608      -0.30333898      -1.10439263
H        2.24116668       2.37064116      -0.18422394
H       -0.27338118       2.36998142       0.27678410
H       -1.40348200       0.26906716      -0.24855988
