12
Properties=species:S:1:pos:R:3 pbc="F F F"
C        0.26142374      -1.07984462      -0.27613271
C        1.60295013      -1.01494537       0.32921012
C        2.36149370       0.17479794      -0.11795278
C        1.69559517       1.35278634      -0.44376103
C        0.34213398       1.38066232      -0.01861116
C       -0.27340972       0.05536349       0.46545798
H        0.13730767      -1.58043904      -1.12084178
H        1.69249261      -1.18921658       1.37323464
H        3.43597136       0.07290984       0.21419321
H        2.23095346       2.23253187      -0.69345979
H       -0.27176304       2.20661730       0.04805587
H       -1.36073847       0.14871612       0.81219732
