12
Properties=species:S:1:pos:R:3 pbc="F F F"
C        0.58616701      -0.90118411       0.91158215
C        1.39480987      -1.10886285      -0.25980896
C        2.13202731       0.07375191      -0.56912157
C        1.79578079       1.33022285      -0.08948870
C        0.42481243       1.36060072       0.21847407
C       -0.37402418       0.05017947       0.41445095
H        0.80380910      -1.68526184      -1.05822815
H        1.00707923      -0.74594642       2.00284733
H        3.10426240      -0.14245023      -1.03892932
H        2.33453657       2.29657104      -0.25763324
H       -0.06018743       2.37493614       0.39277735
H       -1.29466249      -0.14261706      -0.09533203
