12
Properties=species:S:1:pos:R:3 pbc="F F F"
C        0.36693343      -1.12409448      -0.07355652
C        1.72352132      -0.99703090       0.70221355
C        2.17527042       0.12713935      -0.20721956
C        1.75862038       1.45812122      -0.16006022
C        0.36531341       1.47430607      -0.08892834
C       -0.40653873       0.11314697      -0.05159388
H        0.17054592      -1.72307135      -0.85563318
H        2.01938048      -1.23293945       1.69691159
H        3.09088733      -0.11017407      -0.60112012
H        2.36730808       2.37346768      -0.30195202
H       -0.17565109       2.33452707       0.28063123
H       -1.60118037       0.06654150       0.23189736
