12
Properties=species:S:1:pos:R:3 pbc="F F F"
C        0.35217114      -1.12787093      -0.08324340
C        1.86852875      -1.16265892       0.20473235
C        2.43188393       0.12114304      -0.24283051
C        1.82046504       1.34627926      -0.00418124
C        0.40131872       1.31315847       0.15098110
C       -0.32156922       0.00130134       0.24134375
H       -0.27612245      -1.97437000      -0.33455509
H        1.41014901      -0.87764580       1.31802329
H        3.49077858       0.37340442      -0.62578927
H        2.28417278       2.35315779      -0.25813041
H       -0.22589180       2.32564923       0.07082358
H       -1.38147389       0.06839174       0.13441575
