12
Properties=species:S:1:pos:R:3 pbc="F F F"
C        0.20225074      -1.15015411      -0.22273441
C        1.53480098      -1.00453922       0.52541474
C        2.16868636       0.16292038       0.04664409
C        1.68467252       1.42200810      -0.27578913
C        0.32755531       1.45419649      -0.14689880
C       -0.47577270       0.09955034       0.06440696
H        0.31369399      -1.57997385      -1.15843350
H        1.97282642      -1.40224139       1.66215255
H        3.25036646      -0.17154477      -0.32610354
H        2.24597804       2.39790728      -0.43462140
H       -0.26353649       2.41561410      -0.05845737
H       -1.10711104       0.11619626       0.89600970
