12
Properties=species:S:1:pos:R:3 pbc="F F F"
C        0.39261883      -1.10410465      -0.22682142
C        1.57239620      -0.85146570       0.58667248
C        2.26921480       0.20094473      -0.08860710
C        1.73850008       1.57078610      -0.02058765
C        0.32091336       1.47813839       0.00054836
C       -0.19322142       0.15467966      -0.14873061
H        0.07232578      -2.08001402      -0.47053364
H        1.87763160      -1.14282903       1.56043560
H        2.75493069      -0.24541926      -0.99038486
H        2.43598118       2.39084465       0.11639795
H       -0.25689900       2.33375146       0.04911512
H       -1.12998151       0.05462729       0.20408565
