12
Properties=species:S:1:pos:R:3 pbc="F F F"
C        0.57499760      -1.06816595      -0.20800468
C        1.66986035      -0.80805542       0.54608702
C        2.51891356       0.24162894       0.01805246
C        1.78101107       1.48157414       0.03966447
C        0.40086943       1.29216028       0.32962420
C       -0.13526332       0.15356972      -0.20274237
H       -0.18405673      -1.84005836      -0.17843216
H        1.55174575      -0.87079258       1.55921785
H        2.74504857      -0.29897508      -1.09098979
H        2.21576523       2.48172104      -0.46509892
H       -0.10895270       2.05992415       0.82190127
H       -1.17552822      -0.06459127      -0.59768946
