12
Properties=species:S:1:pos:R:3 pbc="F F F"
C        0.34216824      -1.03064989      -0.07998462
C        1.58377357      -0.70202703       0.82348748
C        2.13738552       0.13804666      -0.21064935
C        1.64910172       1.50243109      -0.22296171
C        0.24267015       1.55454411      -0.15272601
C       -0.30034031       0.19901538       0.04848195
H        0.20075265      -1.97759322      -0.69685925
H        1.99271238      -1.50556057       1.34592362
H        3.20042190      -0.15967539      -0.60033581
H        2.39742682       2.22196317      -0.13558847
H       -0.27949459       2.42897280       0.13650709
H       -1.31216746       0.09047251       0.31629496
