12
Properties=species:S:1:pos:R:3 pbc="F F F"
C        0.29630893      -1.16155194      -0.29023389
C        1.64764224      -0.92912430       0.31205608
C        2.43555267       0.27434199       0.16946742
C        1.83024150       1.43792645      -0.35061241
C        0.39921972       1.30072159      -0.00598745
C       -0.38039488       0.03190827       0.36038598
H       -0.02079947      -1.53570279      -1.18202750
H        1.53760430      -1.42648996       1.41561871
H        3.49861736       0.15483909       0.06745094
H        2.15065410       2.33998355      -0.87991384
H       -0.27016076       2.10306135      -0.09842328
H       -1.27007512       0.17002630       1.05380913
