12
Properties=species:S:1:pos:R:3 pbc="F F F"
C        0.14940928      -1.19568897      -0.56605507
C        1.50336693      -0.80999894       0.10765704
C        2.52978480       0.31110203      -0.27400109
C        1.75605442       1.51852052      -0.17690182
C        0.39994571       1.32221174       0.02621195
C       -0.33989471       0.06096300       0.08395118
H       -0.26702059      -2.19251729      -0.43383719
H        1.57918215      -0.99329748       1.14273932
H        3.53307172       0.03791377       0.09264008
H        2.31298980       2.46837139      -0.25288112
H       -0.17020920       2.16617525      -0.03627513
H       -1.13226972       0.06618459       0.85834174
