12
Properties=species:S:1:pos:R:3 pbc="F F F"
C        0.41457167      -1.08425599       0.19896474
C        1.74996610      -0.98224282       0.69570153
C        2.49396582       0.33406867       0.19734232
C        1.70631546       1.58875636       0.15628190
C        0.35220518       1.53729492      -0.04472705
C       -0.12289512       0.18597667      -0.01149873
H        0.01884304      -1.98255663      -0.12105998
H        2.26520455      -1.93831691       1.10663463
H        2.07207774      -0.09083235      -0.91675155
H        2.31922948       2.52721809       0.02841734
H       -0.25751987       2.38212226      -0.31502381
H       -1.15755345       0.28270735      -0.40269145
