12
Properties=species:S:1:pos:R:3 pbc="F F F"
C        0.57512732      -1.10445429      -0.30766761
C        1.69197077      -1.02234916       0.45667032
C        2.38925681       0.18364220       0.04456797
C        1.77372904       1.50302287      -0.03690922
C        0.39916153       1.45733048      -0.07723875
C       -0.19721487       0.14830158      -0.04673318
H        0.10767925      -2.08162500      -0.54022255
H        1.67082508      -1.17449657       1.59872513
H        2.74804692      -0.27397430      -0.83332345
H        2.07447356       2.47117526      -0.13969513
H       -0.17894039       2.44289653       0.17388164
H       -1.19970441       0.21047002       0.27953471
