12
Properties=species:S:1:pos:R:3 pbc="F F F"
C        0.31066747      -1.14277570      -0.44245500
C        1.52071707      -0.85600898       0.37999183
C        2.39797794       0.28391534      -0.00197378
C        1.68930448       1.47896576      -0.15095909
C        0.29965674       1.45583653      -0.12076670
C       -0.27427440       0.03049057       0.28445414
H       -0.22018318      -2.00421681      -0.65821468
H        1.80169028      -1.45662284       1.34307786
H        3.38365992       0.20125057      -0.17733789
H        2.24002380       2.33415461      -0.46636828
H       -0.04134246       2.47430625      -0.08531296
H       -1.25348707      -0.03935568       0.66745444
