12
Properties=species:S:1:pos:R:3 pbc="F F F"
C        0.47104394      -1.17289541       0.02335897
C        1.74351608      -0.96439781       0.64581307
C        2.42393213       0.16134258       0.11724569
C        1.79581706       1.49230605       0.12041622
C        0.33177489       1.46599735       0.01735926
C       -0.14461762       0.18464239      -0.03889415
H       -0.09987876      -1.97745177      -0.27582778
H        2.03798979      -1.44470497       1.52275214
H        2.33223060       0.28757304      -1.11930264
H        2.56800673       2.23017330      -0.09802338
H       -0.39309770       2.36189572       0.00861703
H       -1.21230657       0.13545914      -0.35192454
