12
Properties=species:S:1:pos:R:3 pbc="F F F"
C        0.49294480      -1.15664815      -0.08332850
C        1.69364322      -1.00498520       0.62935657
C        2.31874073       0.19754459       0.05385355
C        1.69671884       1.52668140       0.04233924
C        0.25381057       1.37573402      -0.00502101
C       -0.36958538       0.13943989      -0.10714861
H        0.35480749      -1.97865673      -0.88985478
H        1.68807030      -1.06636875       1.76969610
H        2.70408667      -0.09924092      -1.00043740
H        2.34107101       2.26006582      -0.35754090
H        0.01564643       2.37026860       0.27129848
H       -1.33554408       0.19610505       0.24837716
