12
Properties=species:S:1:pos:R:3 pbc="F F F"
C        0.32577707      -1.13322779       0.03036054
C        1.91144066      -1.09851217       0.16358182
C        2.38206926       0.15548106      -0.17906159
C        1.76648177       1.41721717       0.11090938
C        0.31921673       1.39139186       0.27226601
C       -0.32327667       0.06470561       0.07216799
H       -0.31383201      -2.01929877      -0.21142792
H        1.61361489      -0.80294207       1.24170461
H        3.27324418       0.29589342      -0.68220457
H        2.45286225       2.23628281      -0.23992856
H       -0.27213472       2.10991831       0.13023230
H       -1.28105281       0.14303019      -0.13701015
