12
Properties=species:S:1:pos:R:3 pbc="F F F"
C        0.44802359      -1.19223210      -0.25959736
C        1.62216889      -0.94418403       0.41213279
C        2.28548425       0.12246195      -0.21035673
C        1.65094239       1.39095643      -0.31635369
C        0.30873760       1.46655903      -0.05265814
C       -0.44776542      -0.01110291      -0.05219818
H        0.17034600      -1.80450971      -0.91119779
H        1.52617093      -1.13148089       1.66534519
H        3.31451921       0.07415089      -0.36168809
H        2.41736847       2.27361305      -0.36427217
H       -0.26759355       2.37959402       0.17890434
H       -1.17399176       0.13611388       0.84352972
