12
Properties=species:S:1:pos:R:3 pbc="F F F"
C        0.26339875      -1.11110279      -0.00279126
C        1.69829348      -1.15985404       0.11532218
C        2.32717228       0.11951027      -0.21542620
C        1.81863549       1.35802868       0.07100166
C        0.30724134       1.26630345       0.42360713
C       -0.40650117       0.05898464       0.15992952
H       -0.19195054      -1.93680440      -0.28518445
H        1.68895789      -0.61159254       1.26561634
H        3.37407485       0.22413901      -0.50794214
H        2.46637759       2.33841687      -0.51933265
H       -0.15263866       2.27857364       0.40177500
H       -1.33865071      -0.06466317      -0.33498525
