12
Properties=species:S:1:pos:R:3 pbc="F F F"
C        0.52158967      -1.09671340      -0.52480209
C        1.60963344      -0.79123959       0.55353804
C        2.39344335       0.28731497       0.07391975
C        1.78388436       1.48488982      -0.14007405
C        0.42791433       1.23762817       0.23642960
C       -0.17652656       0.03430636      -0.05854791
H       -0.19544266      -1.94649484      -0.61471386
H        1.32285055      -0.97250363       1.46889838
H        3.21279043      -0.03261488      -0.48934034
H        2.15198982       2.39495215      -0.86024010
H       -0.08024570       2.07398469       0.63775446
H       -1.11747046       0.08642979       0.28876801
