12
Properties=species:S:1:pos:R:3 pbc="F F F"
C        0.36974943      -1.02909950      -0.26815303
C        1.69096420      -1.08691984       0.70178755
C        2.25104523       0.11208236      -0.22967908
C        1.69357651       1.47989431      -0.19775071
C        0.36489430       1.46922213       0.08265868
C       -0.41389126       0.21961441      -0.02701782
H        0.13601644      -1.98209341      -0.69989927
H        1.83738592      -1.23814644       1.73219923
H        3.24682485      -0.04380763      -0.68525226
H        2.32307356       2.38758713      -0.35101504
H       -0.21085142       2.37992078       0.29237717
H       -1.43437718       0.09168533       0.22133445
