12
Properties=species:S:1:pos:R:3 pbc="F F F"
C        0.20482319      -1.21752004      -0.07079530
C        1.63896627      -1.01437367      -0.00410975
C        2.44780459       0.16255948       0.01445508
C        1.77683222       1.45551324      -0.02931382
C        0.26409202       1.23018077       0.07335246
C       -0.27672594       0.03903829       0.28878405
H       -0.38390167      -1.95355787      -0.60027563
H        1.88183257      -0.76326521       1.12925351
H        3.60799280       0.21524806      -0.35323915
H        2.36545837       2.31647783      -0.12338250
H       -0.30959485       1.86690088      -0.30624852
H       -1.36316898       0.42273786       0.55310946
