12
Properties=species:S:1:pos:R:3 pbc="F F F"
C        0.40055567      -1.23297029      -0.26386400
C        1.57609808      -0.93511242       0.50480417
C        2.42754481       0.18551215      -0.14119827
C        1.73712955       1.48246461      -0.04820324
C        0.31373096       1.50189459       0.23702029
C       -0.28464606       0.12915148      -0.01464125
H        0.10529900      -2.11491980      -0.67526357
H        1.73693597      -0.90316160       1.57817059
H        3.16765562      -0.31762640      -0.83266130
H        2.25940227       2.36307799      -0.23258915
H       -0.23325104       2.52820700       0.28067612
H       -1.35204425       0.07342231       0.17933950
