12
Properties=species:S:1:pos:R:3 pbc="F F F"
C        0.27336168      -1.17224853       0.04851270
C        1.78766111      -1.10674862       0.06467488
C        2.40682059       0.15420896      -0.29045575
C        1.75383325       1.37221707       0.01100231
C        0.38016820       1.23791225       0.13837154
C       -0.33897408       0.03884779       0.03926541
H       -0.26191962      -2.01730136      -0.17885045
H        1.60656323      -0.67167090       1.07317682
H        3.41174866       0.23137988      -0.32775951
H        2.21421314       2.35919116      -0.26154767
H       -0.00922469       2.21644594       0.32760911
H       -1.36984088       0.11770597      -0.07240951
