12
Properties=species:S:1:pos:R:3 pbc="F F F"
C        0.44777669      -1.10745250      -0.27803783
C        1.78049161      -1.10725422       0.64984484
C        2.30730936       0.15280561      -0.09400522
C        1.68091346       1.47660622       0.00567387
C        0.28247341       1.40423818       0.11448418
C       -0.26873345       0.16671163      -0.13341427
H        0.13770679      -1.89157235      -0.79737521
H        1.61576211      -1.05646007       1.89436813
H        2.94746524      -0.05124907      -0.97320670
H        2.41479411       2.32792478      -0.38361560
H       -0.29341341       2.25841305       0.25005819
H       -1.19813533       0.18722835       0.31681550
