12
Properties=species:S:1:pos:R:3 pbc="F F F"
C        0.38081506      -1.10480161      -0.10217031
C        1.80908547      -1.18056232       0.18446244
C        2.48122124       0.14072618      -0.19295469
C        1.81457483       1.40018240       0.05159206
C        0.40975250       1.26103373       0.26059539
C       -0.30425517       0.11608617       0.03599976
H       -0.29652649      -1.97155701      -0.01980118
H        1.54768862      -0.71052411       1.16686084
H        3.44159441       0.09074679      -0.72601935
H        2.21656168       2.46004520      -0.17837553
H       -0.12824237       2.30996722       0.29235440
H       -1.51785920      -0.05140302      -0.20095395
