12
Properties=species:S:1:pos:R:3 pbc="F F F"
C        0.36368385      -1.03756390       0.17927900
C        1.74484405      -0.96492871       0.47037457
C        2.54934436       0.26322885       0.10450991
C        1.76876772       1.49928791      -0.00288778
C        0.41952106       1.57799470      -0.14069061
C       -0.21693445       0.17630604      -0.25159468
H       -0.10525588      -1.94020334      -0.01847073
H        2.24993139      -1.57518374       1.35704640
H        2.23730491      -0.04498845      -0.98421874
H        2.25485478       2.40666080       0.30769461
H       -0.13413223       2.44236567      -0.05203036
H       -1.27751897      -0.04303623      -0.39742170
