12
Properties=species:S:1:pos:R:3 pbc="F F F"
C        0.16463775      -1.21518313      -0.29553108
C        1.61113653      -1.11238007       0.23553268
C        2.42545975       0.23041840      -0.00337249
C        1.74105389       1.38141700      -0.28547924
C        0.39263302       1.30414642      -0.13237754
C       -0.36094503       0.04348378       0.28685826
H       -0.03406413      -1.91559719      -1.09545446
H        1.57131363      -1.08554743       1.29415546
H        3.55173591       0.36718112       0.25960915
H        2.06092716       2.18477627      -0.78145438
H       -0.20088941       2.14191107       0.02370112
H       -1.06858849       0.43531337       1.06540240
