12
Properties=species:S:1:pos:R:3 pbc="F F F"
C        0.44778381      -1.25693798      -0.05097663
C        1.65853618      -0.84938844       0.55038829
C        2.44373743       0.23138948       0.02054769
C        1.84407506       1.55448005       0.05228740
C        0.42203203       1.36570977       0.34797576
C       -0.20717475       0.14145909      -0.04789560
H       -0.00219898      -2.01888610      -0.67912423
H        1.70850283      -1.14894307       1.61328628
H        2.72050201      -0.06237818      -0.87229405
H        2.25027997       2.37148305      -0.51991617
H       -0.14806024       2.33610722       0.28814556
H       -1.28360475       0.09584473      -0.13083442
