12
Family_1 [H]c1c([H])c([H])c([H])c([H])c1[H] | Centroid | RMSD: 0.3542 | Centroid: -230.29171 frame 0   xyz file generated by terachem
C      0.294761    -1.052095     0.181909
C      1.737882    -0.997941     0.423167
C      2.399462     0.148982     0.020345
C      1.639579     1.293986    -0.278620
C      0.243072     1.356681    -0.123533
C     -0.430423     0.216208     0.277247
H      0.478753    -0.854693    -0.907120
H      2.289442    -1.825823     0.836663
H      3.471319     0.232969     0.075208
H      2.163868     2.200107    -0.528394
H     -0.245266     2.314861    -0.171780
H     -1.461298     0.274434     0.584816
